466
Image 0  Energy = -11697.6956767339
C  -1.0077715158 -0.5588177495  0.2307779086
C   1.1349607989  0.6983527318  0.2963872738
C  -1.7369626824  0.4695361237  1.1055293013
C   1.6216713941 -0.1303384467  1.4722869417
C   2.3204781969  1.0544191937 -0.5866084958
N   0.1391546707 -0.0292588510 -0.5028674712
N  -1.9829761506 -0.9743978614 -0.7731787751
O  -2.4231556506  1.3871038330  0.2522783781
H  -2.5215053607  0.8715624435 -0.5785595699
H  -0.2231637063  0.6111959190 -1.2065765865
H  -0.6607195153 -1.3788360531  0.8736348609
H   0.7133616862  1.6390834815  0.6831237749
H  -2.7746624158 -1.4323975224 -0.3337266066
H  -1.5584467818 -1.6180289045 -1.4346117694
H  -1.0421310140  1.0367095563  1.7272479239
H  -2.4594144241 -0.0415167379  1.7430457823
H   2.4152919383  0.4179086228  1.9775463284
H   2.0169249862  1.6572768186 -1.4463830701
H   2.0239599752 -1.0882119629  1.1300264772
H   0.8463933784 -0.3336254468  2.2131008173
H   3.0522855626  1.6190708724 -0.0064359916
H   2.7801013947  0.1363030938 -0.9522274438
O   9.9320001602  4.3699998856  1.0659999847
H   9.8249998093  5.2519998550  0.6529999971
H   9.0550003052  4.0279998779  1.3359999657
O   9.5459995270 -0.3050000072 -0.4639999866
H   9.8959999084  0.5799999833 -0.6930000186
H   9.7239999771 -0.4930000007  0.4799999893
O   1.3300000429 -2.4830000401  9.7329998016
H   1.7779999971 -1.6230000257  9.5989999771
H   0.3899999857 -2.3289999962  9.9569997787
O   1.7389999628  0.3670000136  10.1400003433
H   1.6820000410  1.0199999809  10.8669996262
H   1.2799999714  0.7179999948  9.3500003815
O   0.6940000057  5.8610000610 -7.0250000954
H   1.3999999762  5.2620000839 -7.3429999352
H  -0.0450000018  5.8629999161 -7.6669998169
O  -4.6909999847 -4.1640000343 -5.9210000038
H  -5.2680001259 -3.4379999638 -6.2340002060
H  -5.0970001221 -5.0250000954 -6.1500000954
O   3.8989999294  8.1850004196 -2.6140000820
H   2.9869999886  7.8280000687 -2.6370000839
H   4.5029997826  7.5110001564 -2.2409999371
O   0.1419619434 -2.6039225997 -1.9498900358
H   0.4985855100 -3.0453512803 -2.7374048739
H   0.5460617796 -1.7257990146 -1.8336343504
O  -0.4819999933  8.8170003891 -3.0250000954
H   0.0230000000  8.6789999008 -2.1979999542
H  -0.8289999962  7.9580001831 -3.3420000076
O   3.0009999275  4.5500001907 -7.9590001106
H   3.8389999866  4.8940000534 -8.3310003281
H   3.1410000324  4.2950000763 -7.0240001678
O  -1.6510000229  6.3720002174 -3.8680000305
H  -2.0959999561  6.4270000458 -4.7379999161
H  -2.0929999352  5.6929998398 -3.3180000782
O   0.3230994950  4.2618072314 -0.6030811688
H   1.0446341742  4.1051266200  0.0560782891
H  -0.4987927974  4.4472582178 -0.1261618699
O  -2.9839999676 -5.3839998245 -8.0500001907
H  -3.8829998970 -5.0989999771 -7.7870001793
H  -2.5920000076 -5.9289999008 -7.3369998932
O  -1.4258223517 -5.4573707403  1.7300315601
H  -0.8255607087 -4.9060999378  1.1884329128
H  -1.6707260701 -4.9223381611  2.5050115570
O  -0.6900162783  5.9365217159  3.6702023745
H  -0.6456038897  6.5364809796  4.4330994419
H  -0.4496531237  6.4647311829  2.8715044952
O  -8.7510004044  4.3699998856  1.0659999847
H  -8.8579998016  5.2519998550  0.6529999971
H  -9.6280002594  4.0279998779  1.3359999657
O  -4.5190000534 -0.8899999857  6.7620000839
H  -5.4180002213 -1.2220000029  6.5630002022
H  -4.1970000267 -1.2960000038  7.5910000801
O   5.7899999619  3.3929998875 -4.1560001373
H   5.8410000801  2.7790000439 -3.3959999084
H   5.8340001106  4.3169999123 -3.8340001106
O  -3.3000327008  0.4014839124 -5.1591999246
H  -2.8706575682  1.2353940888 -4.8804620963
H  -2.5825454733 -0.2654498661 -5.1995071210
O   4.6770000458  0.8830000162  5.9829998016
H   4.7459998131  1.6330000162  6.6090002060
H   4.6300001144  0.0439999998  6.4840002060
O   8.1529998779  4.3359999657  3.6219999790
H   9.0970001221  4.5809998512  3.5380001068
H   8.0699996948  3.5559999943  4.2069997787
O  -7.6570000648 -0.6449999809 -4.8860001564
H  -6.9569997787 -0.4550000131 -4.2300000191
H  -8.4969997406 -0.8379999995 -4.4210000038
O  -6.4829998016  6.8239998817  1.6640000343
H  -5.5980000496  7.2399997711  1.6299999952
H  -6.5879998207  6.3470001221  2.5120000839
O   4.3259429563  4.3622997410 -1.2927150505
H   5.0349833833  4.9900301297 -1.0942388332
H   3.6282948947  4.8841459971 -1.7412034348
O   7.3959999084  3.6770000458  0.0630000010
H   7.6970000267  3.3440001011 -0.8080000281
H   6.9180002213  2.9670000076  0.5360000134
O   3.3717341095 -0.9649981354 -3.0479895234
H   4.0832953671 -0.7808588634 -2.4073007875
H   3.7127795867 -0.6888316713 -3.9343411317
O   0.9440000057 -8.1149997711 -4.4250001907
H   0.4429999888 -8.8179998398 -3.9630000591
H   0.3190000057 -7.5180001259 -4.8850002289
O   3.0309182400  3.8843939848 -5.1454981526
H   2.4927582556  4.4955485217 -4.6190018304
H   3.8792306294  3.7272102819 -4.6880242073
O  -1.0959999561 -8.4370002747  0.8960000277
H  -1.2710000277 -7.5199999809  1.1900000572
H  -0.2060000002 -8.4860000610  0.4920000136
O  -1.7709474583  3.5680350971  4.3374315007
H  -1.3078391593  4.3713222673  4.0161075701
H  -1.1246880372  2.8664523021  4.1883110013
O  -6.8490007148  1.0151714640  3.3500091882
H  -7.2940340800  1.2636676997  4.1749580581
H  -5.9449860498  0.7709704012  3.5965025811
O   5.0399999619 -3.7009999752  5.5380001068
H   5.9780001640 -3.8169999123  5.2849998474
H   4.4869999886 -3.6630001068  4.7309999466
O   3.8949999809 -1.4119999409  7.2919998169
H   2.9249999523 -1.2740000486  7.2909998894
H   4.1040000916 -2.2569999695  6.8429999352
O   0.8486593497  0.1762121466 -3.7050941302
H   0.5405883049  0.9298633136 -3.1606981958
H   1.6829071542 -0.1408313498 -3.3100907998
O   0.0130000003  1.3370000124  8.3159999847
H  -0.7300000191  1.1410000324  8.9239997864
H  -0.3129999936  1.8750000000  7.5650000572
O   0.3875682094 -0.7067028644  6.2734231279
H   0.2879545343 -0.1260970694  7.0445609177
H   1.0592928829 -0.2605601026  5.6933072568
O  -0.4699999988 -6.3649997711 -5.9640002251
H  -0.9470000267 -5.6350002289 -5.5209999084
H   0.3639999926 -6.0250000954 -6.3489999771
O   5.1830000877  2.2469999790  8.2419996262
H   4.7109999657  1.6030000448  8.8070001602
H   6.1479997635  2.1099998951  8.3260002136
O  -0.8889999986  7.7399997711  5.8660001755
H  -0.7749999762  8.5749998093  5.3680000305
H  -1.8229999542  7.6510000229  6.1440000534
O   3.9149765748 -0.3240348529 -5.5913578346
H   4.6982211114  0.1658958849 -5.9114660195
H   3.1625644564  0.2647998573 -5.8134300853
O  -6.4130001068 -2.4200000763 -6.8709998131
H  -6.9219999313 -2.5810000896 -7.6919999123
H  -6.9369997978 -1.8519999981 -6.2699999809
O  -2.6770000458  3.0999999046 -7.3070001602
H  -2.2839999199  2.3359999657 -7.7760000229
H  -3.6219999790  2.9189999104 -7.1250000000
O  -5.5789999962  6.2569999695 -1.7829999924
H  -5.2490000725  7.1779999733 -1.7660000324
H  -5.8550000191  6.0269999504 -2.6940000057
O   1.7159999609 -5.0560002327  5.2610001564
H   2.1670000553 -5.6810002327  5.8629999161
H   1.0789999962 -4.5139999390  5.7680001259
O   1.3300000429 -2.4830000401 -8.8090000153
H   1.7779999971 -1.6230000257 -8.9429998398
H   0.3899999857 -2.3289999962 -8.5850000381
O   3.6050000191 -8.2399997711 -3.7139999866
H   3.6989998817 -9.2110004425 -3.6310000420
H   2.6579999924 -8.0089998245 -3.7929999828
O   1.1261207014 -6.5354848495  2.9246701638
H   1.0312030247 -6.0905510385  3.7798908157
H   0.2927711326 -6.3652271736  2.4581986776
O   5.8429999352 -5.4829998016 -3.7520000935
H   6.6950001717 -5.7249999046 -3.3359999657
H   5.9250001907 -5.5500001907 -4.7249999046
O  -2.0339999199  5.7109999657 -8.1540002823
H  -2.0320000648  4.8169999123 -7.7550001144
H  -2.4379999638  6.3460001945 -7.5279998779
O   2.5551785345  3.9137612384  0.8457380192
H   3.2480458736  3.9639027916  0.1553203431
H   2.8511201388  4.5486691442  1.5204669821
O  -3.5739998817  7.0060000420  6.8289999962
H  -4.0120000839  6.7069997787  7.6519999504
H  -4.1799998283  6.8759999275  6.0710000992
O  -4.4559998512 -0.2319999933 -7.6370000839
H  -4.1479997635  0.2960000038 -6.8720002174
H  -5.1810002327 -0.8259999752 -7.3520002365
O   1.8325384778  1.5109093174 -5.9297704036
H   2.1882788197  2.3619588795 -5.6059416630
H   1.3491627694  1.1026193246 -5.1844351566
O   8.7740001678 -0.8320000172 -3.2190001011
H   8.9160003662 -0.4589999914 -2.3250000477
H   8.5579996109 -1.7840000391 -3.1449999809
O   0.8899999857  6.0619997978 -4.3660001755
H  -0.0540000014  5.9699997902 -4.1240000725
H   0.9689999819  6.1849999428 -5.3340001106
O   5.8990001678  6.0659999847 -3.7200000286
H   5.4889998436  6.8249998093 -4.1820001602
H   6.8090000153  6.3029999733 -3.4470000267
O   3.5139999390 -8.2399997711  3.1370000839
H   3.5439999104 -8.7329998016  2.2909998894
H   2.7049999237 -7.6900000572  3.1649999619
O  -5.0667842667  4.3848197190  0.7056797203
H  -5.5729094104  4.1989467567  1.5119770338
H  -5.5429481765  5.1074424344  0.2704433907
O   3.4852538019 -3.6729563505 -2.7771302638
H   3.3920070371 -2.6944371561 -2.7440200000
H   3.9566045836 -3.9384075917 -1.9789328284
O   1.0820408471  3.1473479879  4.9724112091
H   0.6264698363  3.3900305719  5.7945013101
H   1.8297024528  3.7625755486  4.8899158850
O   4.3850002289  0.0540000014 -8.8479995728
H   3.4639999866  0.1469999999 -8.5299997330
H   4.4549999237 -0.7400000095 -9.4160003662
O   6.4270000458  6.2699999809  2.5759999752
H   6.9260001183  5.5780000687  3.0550000668
H   6.8200001717  7.1459999084  2.7660000324
O  -7.4869999886  1.0679999590  6.3810000420
H  -6.7119998932  1.6579999924  6.4800000191
H  -7.2220001221  0.2599999905  5.8969998360
O   3.1039801044 -3.8188480381  3.2492554078
H   2.5440755615 -4.3327678254  3.8562858871
H   3.1107894166 -4.2912822393  2.4021356219
O   2.1748940466  0.6280984225  4.8271650040
H   3.0644436865  0.7552360393  5.2192721483
H   1.7865948113  1.5242218649  4.7655649303
O  -2.6960000992  7.9569997787 -0.0140000004
H  -2.4949998856  8.9020004272  0.1439999938
H  -3.3190000057  7.8759999275 -0.7639999986
O   3.2690049575 -4.6668367102  0.4178262799
H   2.3146410685 -4.4322907403  0.3847344181
H   3.2822465207 -5.5123683671 -0.0658171572
O  -6.3229999542 -4.3379998207 -1.1030000448
H  -7.1479997635 -3.8949999809 -0.8180000186
H  -5.9299998283 -3.8450000286 -1.8509999514
O  -5.1230001450  7.0029997826  4.5650000572
H  -5.3730001450  7.9380002022  4.4190001488
H  -4.4829998016  6.7249999046  3.8789999485
O  -2.9310555865 -6.0470602440 -2.7688578862
H  -2.6822045692 -5.3107915108 -3.3561433715
H  -2.1013706271 -6.2863029944 -2.3221341634
O   5.3369998932 -6.1560001373  6.8699998856
H   4.9710001945 -5.3759999275  6.4039998055
H   4.6250000000 -6.5960001945  7.3790001869
O   0.9861946807 -2.8318644510 -6.0974967769
H   1.2535486521 -2.7858133847 -7.0424686299
H   1.8296705885 -2.8007028952 -5.6231890740
O  -5.1939997673  5.7680001259 -5.8600001335
H  -6.0339999199  6.1789999008 -5.5689997673
H  -5.3680000305  4.8610000610 -6.1840000153
O  -5.4503496647  1.0678210762 -0.6994616459
H  -4.7420508663  1.6470863870 -0.3895722158
H  -5.3282706057  0.2574464116 -0.1515688908
O  -4.8530001640  2.3619999886  7.0539999008
H  -4.5229997635  2.6559998989  6.1820001602
H  -4.4559998512  1.4960000515  7.2779998779
O  -8.4720001221 -3.3299999237 -3.2590000629
H  -7.5310001373 -3.0699999332 -3.3410000801
H  -8.6719999313 -3.5429999828 -2.3250000477
O   5.7680001259 -4.7100000381  1.7519999743
H   4.8880000114 -4.8169999123  1.3359999657
H   6.1950001717 -5.5859999657  1.8430000544
O   2.0752801029  5.8097313388 -2.0545961890
H   1.7256740683  6.0129059525 -2.9603838953
H   1.3405307447  5.3399873664 -1.6117037208
O   8.5399999619  1.5770000219 -4.5460000038
H   8.6339998245  0.7239999771 -4.0760002136
H   7.5980000496  1.8450000286 -4.5500001907
O  -4.2099235699  0.0635325414  3.5068120788
H  -4.0133240185  1.0001661094  3.6926034537
H  -3.5218622066 -0.4519402488  3.9621501086
O   7.3169999123 -4.0799999237  4.0789999962
H   7.6989998817 -3.1789999008  4.0780000687
H   6.7979998589 -4.2140002251  3.2590000629
O  -5.3769998550 -4.7709999084  5.6630001068
H  -4.8559999466 -5.5999999046  5.6310000420
H  -5.3990001678 -4.3649997711  4.7719998360
O  -2.1697181432 -4.0781646588  4.1638959385
H  -1.9311817713 -4.6884773605  4.8818898355
H  -2.0680953117 -3.1773160691  4.5220818855
O   3.8771085068 -1.2475328538  3.4918716842
H   3.4950471521 -2.1431723878  3.3839238880
H   3.1319836549 -0.6505560226  3.6442168823
O   6.8159999847 -2.9330000877 -3.2960000038
H   6.3569998741 -3.7460000515 -3.5880000591
H   6.7300000191 -2.2439999580 -3.9860000610
O  -3.3856427527  6.1155810583  2.7348841994
H  -2.4545492043  6.0082018422  3.0055883934
H  -3.5723509679  5.4382800237  2.0732242027
O   7.1269998550  3.8020000458 -6.6310000420
H   6.7129998207  3.6429998875 -5.7589998245
H   7.8480000496  4.4559998512 -6.5359997749
O   0.5166407726 -4.4169178644  0.0299153834
H   0.3604176550 -3.6867503039 -0.6125365365
H   0.3332483805 -5.2167761930 -0.5062803251
O  -3.1399771967  4.5510443678 -2.3930025624
H  -3.9443281239  5.0199231108 -2.1270410173
H  -2.7316838281  4.2738680910 -1.5416776197
O  -5.2680001259 -6.8239998817 -1.1250000000
H  -4.5450000763 -6.6989998817 -1.7719999552
H  -5.7969999313 -6.0029997826 -1.0629999638
O  -1.7009999752  0.5609999895 -8.1789999008
H  -2.5539999008  0.2689999938 -8.5609998703
H  -1.2970000505 -0.1790000051 -7.6810002327
O   6.3220000267  6.9670000076 -0.5040000081
H   7.1459999084  6.6640000343 -0.9350000024
H   6.2659997940  6.5890002251  0.3970000148
O  -5.5359997749  3.2760000229 -7.1090002060
H  -5.8470001221  3.5480000973 -7.9959998131
H  -6.2449998856  2.7799999714 -6.6519999504
O  -0.3000000119  5.8709998131  8.2390003204
H  -0.9909999967  5.9479999542  8.9280004501
H  -0.5749999881  6.3720002174  7.4439997673
O   5.7957854528 -0.9240089312  1.6774849857
H   4.9356477150 -1.0133210153  2.1575993897
H   6.4105911500 -1.2074794793  2.3733519288
O   1.7389999628  0.3670000136 -8.4020004272
H   1.6820000410  1.0199999809 -7.6750001907
H   1.2799999714  0.7179999948 -9.1920003891
O   3.4681086151  5.9798582611  2.5464500189
H   4.4298575669  6.1237309431  2.5433369719
H   3.2099079625  5.8726726775  3.4748501006
O  -3.9960000515 -8.2489995956 -4.3940000534
H  -3.3550000191 -8.3529996872 -5.1269998550
H  -3.7430000305 -7.4790000916 -3.8459999561
O   5.9380279218  1.8288286048 -1.9023139468
H   5.8881803878  0.8724105200 -1.7309822775
H   5.2960634082  2.2704892722 -1.3296427399
O  -4.7740188921 -3.4282450607  3.1505908192
H  -4.6074397567 -3.6752507177  2.2157643372
H  -3.9444068687 -3.6927388545  3.5907252051
O   2.1779999733 -5.5980000496 -6.4429998398
H   2.6579999924 -6.4229998589 -6.2249999046
H   2.7409999371 -4.8270001411 -6.2259998322
O  -5.3332168970 -0.1633629609 -3.3251601817
H  -5.2904823081  0.3093394952 -2.4726251299
H  -4.5605304614  0.1038459677 -3.8626227365
O  -8.0799999237  2.1510000229 -0.6340000033
H  -8.2720003128  2.8780000210 -0.0070000002
H  -7.1420001984  1.8849999905 -0.5479999781
O   6.6620001793 -1.7899999619 -5.9060001373
H   6.6090002060 -0.8259999752 -6.0630002022
H   6.1869997978 -2.2639999390 -6.6189999580
O  -0.9850000143  3.6419999599  7.1090002060
H  -1.5620000362  3.8599998951  6.3499999046
H  -0.7210000157  4.4660000801  7.5659999847
O  -9.1370000839 -0.3050000072 -0.4639999866
H  -8.7869997025  0.5799999833 -0.6930000186
H  -8.9589996338 -0.4930000007  0.4799999893
O   3.0899999142  5.2189998627  5.2820000648
H   2.5940001011  5.4000000954  6.1059999466
H   4.0489997864  5.3299999237  5.4479999542
O   0.0469999984 -3.2669999599  7.0349998474
H   0.3779999912 -2.4049999714  6.7090001106
H  -0.1689999998 -3.1949999332  7.9860000610
O   4.2589998245  9.3719997406  0.7440000176
H   3.6359999180  8.6470003128  0.5360000134
H   5.1649999619  9.0100002289  0.8270000219
O  -1.0998900765 -1.4284665920 -5.0719726855
H  -0.5575733456 -0.9391071940 -4.4250178492
H  -0.4057428465 -1.8786477834 -5.6093118061
O   7.8619999886 -1.2309999466  3.9200000763
H   8.6110000610 -1.2250000238  3.2909998894
H   7.5529999733 -0.3140000105  4.0679998398
O  -8.8889999390 -3.2869999409 -0.5910000205
H  -9.3680000305 -3.5179998875  0.2300000042
H  -8.7270002365 -2.3220000267 -0.6159999967
O   0.9840000272  9.7360000610 -0.6029999852
H   1.7130000591  10.3409996033 -0.3589999974
H   1.2159999609  8.8219995499 -0.3409999907
O  -7.6880002022 -3.4170000553  2.8069999218
H  -6.7420001030 -3.6519999504  2.7109999657
H  -8.2410001755 -4.1960000992  2.5929999352
O   5.6530586742 -1.0524968155 -1.3527407114
H   5.7367832871 -1.2360088950 -0.4028663695
H   6.1460264976 -1.7459490462 -1.8346053015
O   2.2469999790  4.9460000992  7.8179998398
H   1.3430000544  5.2439999580  8.0469999313
H   2.6470000744  4.4920001030  8.5869998932
O  -4.3826632859  2.8059589687  4.1963241129
H  -5.1047742706  3.1777654475  3.6683399924
H  -3.5619098423  3.3050060325  4.0279541095
O  -0.3624405825  2.3041802759 -2.4853712043
H  -0.8508085068  2.6801919760 -3.2374905612
H  -0.0665064858  3.0304074883 -1.9042152845
O  -1.3650000095 -8.3389997482  4.7519998550
H  -1.0870000124 -7.5139999390  5.2010002136
H  -1.1210000515 -8.2930002213  3.8039999008
O  -4.7701442160 -1.0256682805  0.8876883651
H  -4.6272070850 -1.9808045657  0.8030718280
H  -4.6258293396 -0.7912087875  1.8192049386
O  -5.5081307066 -2.9517332528 -3.3083050980
H  -5.0473745051 -3.4095990347 -4.0263086802
H  -5.2479146738 -2.0114145623 -3.3062514356
O   8.1529998779 -2.1530001163  6.8229999542
H   8.6750001907 -1.3539999723  7.0440001488
H   7.4320001602 -1.9119999409  6.2080001831
O  -3.0929999352  7.2569999695 -6.2989997864
H  -3.9790000916  6.8949999809 -6.0949997902
H  -3.0729999542  8.2119998932 -6.0819997787
O  -6.8920001984  4.0630002022  2.9639999866
H  -7.2779998779  4.2210001945  3.8489999771
H  -7.5520000458  4.2820000648  2.2760000229
O  -3.7290000916 -1.9199999571 -9.3900003433
H  -4.5000000000 -2.5030000210 -9.5439996719
H  -3.8959999084 -1.3589999676 -8.6059999466
O  -8.4980001450 -0.8529999852  2.1949999332
H  -8.3839998245 -1.8159999847  2.3310000896
H  -7.7480001450 -0.3750000000  2.6050000191
O  -2.3759044826  4.0279809894  0.1974030327
H  -2.2525226666  3.0472370834  0.2378697844
H  -3.3156924064  4.1441107346  0.4306881082
O  -2.2040430337  2.8891986501 -4.5270294868
H  -2.7481484575  3.5033445328 -4.0081977706
H  -2.1687872265  3.1951732572 -5.4531047682
O   6.0346200646  1.8818102625  1.6653421566
H   6.3670985862  1.9743204052  2.5666906350
H   5.9480053225  0.9155662976  1.5451459930
O   1.1167772855 -4.7791478619 -3.5521566139
H   2.0179926537 -4.5116773044 -3.2727812802
H   1.1690642859 -4.9328528844 -4.5075593190
O  -1.3609999418 -2.9309999943 -8.8439998627
H  -1.4179999828 -3.8970000744 -8.6990003586
H  -2.2530000210 -2.5780000687 -9.0399999619
O   3.2699999809 -7.1009998322 -0.9269999862
H   3.2409999371 -7.3860001564 -1.8630000353
H   3.7609999180 -7.7630000114 -0.3989999890
O   8.0679998398 -3.1329998970  1.3609999418
H   7.3239998817 -3.7590000629  1.4769999981
H   7.7179999352 -2.2230000496  1.2749999762
O   2.3457600795  7.3830704392  0.2458441686
H   2.4482028206  6.8132640740  1.0207658553
H   2.3576943580  6.8132706255 -0.5442652512
O   6.1030001640  0.8790000081 -6.8579998016
H   5.6979999542  0.6639999747 -7.7230000496
H   6.6100001335  1.7130000591 -6.9340000153
O  -0.5419999957  7.5089998245  1.5260000229
H  -1.2979999781  7.2600002289  0.9559999704
H  -0.6710000038  8.4189996719  1.8619999886
O   3.7902505303 -3.2762992028 -5.5418409054
H   3.9799739896 -2.3312205991 -5.6908353364
H   3.9810384821 -3.4421804560 -4.6021442099
O  -4.1690001488 -7.8159999847  1.1139999628
H  -3.2699999809 -7.5279998779  1.3739999533
H  -4.4149999619 -7.3920001984  0.2680000067
O  -4.1566483127 -3.8546097890  0.5120621893
H  -4.9042135338 -4.1694681613 -0.0452744449
H  -3.4762082653 -4.5428780864  0.4914558308
O  -0.2106586922 -6.4345452238 -1.7625968994
H   0.2982687375 -6.0839877872 -2.5232553499
H  -0.0154793667 -7.3771401114 -1.6847062002
O  -0.9900000095 -5.7690000534  6.2680001259
H  -0.5979999900 -4.9819998741  6.6979999542
H  -1.5609999895 -6.2399997711  6.9079999924
O  -2.0799213432 -4.2366453331 -4.8029323714
H  -1.6891284941 -3.3491606718 -4.7156812979
H  -2.8680965649 -4.1191603087 -5.3611294605
O  -2.2819627036 -1.3725362793  5.0549515188
H  -2.9922423598 -1.3045612817  5.7221246469
H  -1.4558978171 -1.0622293160  5.4629527996
O  -6.8889999390 -1.2280000448  5.2890000343
H  -6.4720001221 -1.1089999676  4.4130001068
H  -7.6189999580 -1.8760000467  5.2179999352
O   6.9949998856  1.4919999838  4.4780001640
H   7.6649999619  1.9060000181  5.0599999428
H   6.1519999504  1.3999999762  4.9670000076
O   0.0130000003  1.3370000124 -10.2250003815
H  -0.7300000191  1.1410000324 -9.6180000305
H  -0.3129999936  1.8750000000 -10.9759998322
O   0.9840000272 -9.0139999390 -0.6029999852
H   1.7130000591 -8.4090003967 -0.3589999974
H   1.2159999609 -9.9280004501 -0.3409999907
O  -9.4340000153  3.8399999142 -2.7929999828
H  -9.7250003815  3.2070000172 -3.4809999466
H  -8.8280000687  3.3900001049 -2.1710000038
