11
Frame 5  Energy = -268.5721787439 Hartree
C       0.95508316     -0.42012738     -0.76267840
C       0.37647544     -0.85080859     -2.11551119
C      -0.99219299     -1.56514737     -2.02963581
O      -1.58379761     -1.86681327     -1.04857894
O      -1.54078520     -1.85437737     -3.26463009
H       1.94702792      0.03839038     -0.85695897
H       0.39227596      0.29308243     -0.21730652
H       0.97043510     -1.22676796     -0.09964708
H       0.27678336     -0.05396043     -2.85124322
H       1.03259059     -1.59557104     -2.57557242
H      -0.98181089     -1.35528555     -3.90709494
11
Frame 10  Energy = -268.5720959162 Hartree
C       0.95475976     -0.42086938     -0.76573971
C       0.37619050     -0.84874104     -2.11484935
C      -0.99125795     -1.56639994     -2.03094480
O      -1.58541888     -1.86673297     -1.04643623
O      -1.53907262     -1.85331164     -3.26271417
H       1.93663956      0.03057553     -0.86535497
H       0.39921315      0.29762758     -0.22519028
H       0.97804655     -1.23491387     -0.11004549
H       0.28112103     -0.07000254     -2.84958698
H       1.02460877     -1.58872355     -2.57606244
H      -0.98208507     -1.34413848     -3.91065998
11
Frame 15  Energy = -268.5721782168 Hartree
C       0.95452529     -0.42157429     -0.76902548
C       0.37582285     -0.84685160     -2.11403039
C      -0.99024874     -1.56760238     -2.03243126
O      -1.58707776     -1.86668342     -1.04419526
O      -1.53729094     -1.85220088     -3.26089733
H       1.92648227      0.02241633     -0.87425003
H       0.40348353      0.30438613     -0.23289386
H       0.98625096     -1.24651042     -0.11871182
H       0.28552392     -0.08429332     -2.84770534
H       1.01758570     -1.58175872     -2.57669961
H      -0.98434885     -1.33498487     -3.91345880
11
Frame 20  Energy = -268.5723540374 Hartree
C       0.95427460     -0.42213868     -0.77248365
C       0.37529610     -0.84516681     -2.11299612
C      -0.98916956     -1.56878686     -2.03397760
O      -1.58869449     -1.86664678     -1.04185187
O      -1.53535557     -1.85098457     -3.25911040
H       1.91783803      0.01438577     -0.88377317
H       0.40519030      0.31311468     -0.24021427
H       0.99525153     -1.26047840     -0.12566780
H       0.29000275     -0.09591535     -2.84676464
H       1.01149475     -1.57545655     -2.57773118
H      -0.98861992     -1.32776968     -3.91489325
11
Frame 25  Energy = -268.5723704130 Hartree
C       0.95394497     -0.42265217     -0.77612846
C       0.37449861     -0.84383167     -2.11170092
C      -0.98805297     -1.56986782     -2.03556004
O      -1.59019935     -1.86665041     -1.03957677
O      -1.53327706     -1.84964438     -3.25740015
H       1.91150549      0.00651514     -0.89387028
H       0.40460645      0.32340132     -0.24696083
H       1.00490682     -1.27625042     -0.13156594
H       0.29409752     -0.10403111     -2.84771586
H       1.00653299     -1.57025651     -2.57921975
H      -0.99499099     -1.32283509     -3.91463218
11
Frame 30  Energy = -268.5723549229 Hartree
C       0.95351696     -0.42321883     -0.77971287
C       0.37349335     -0.84282789     -2.11020441
C      -0.98687062     -1.57078105     -2.03704122
O      -1.59161901     -1.86660190     -1.03736775
O      -1.53108308     -1.84820437     -3.25582071
H       1.90769277     -0.00100906     -0.90470549
H       0.40209792      0.33511173     -0.25352824
H       1.01515899     -1.29308679     -0.13674127
H       0.29794158     -0.10810406     -2.85035448
H       1.00300055     -1.56658456     -2.58130912
H      -1.00345010     -1.32019441     -3.91335135
11
Frame 35  Energy = -268.5724962395 Hartree
C       0.95278036     -0.42399096     -0.78325399
C       0.37229662     -0.84221311     -2.10854274
C      -0.98569720     -1.57159504     -2.03835091
O      -1.59289272     -1.86659284     -1.03519647
O      -1.52880077     -1.84671941     -3.25441293
H       1.90716804     -0.00756713     -0.91641115
H       0.39819841      0.34718699     -0.26000279
H       1.02544302     -1.31009389     -0.14153835
H       0.30153141     -0.10818433     -2.85507496
H       1.00079277     -1.56436720     -2.58345849
H      -1.01346574     -1.31957501     -3.91094737
11
Frame 40  Energy = -268.5724847342 Hartree
C       0.95185797     -0.42479733     -0.78674555
C       0.37089678     -0.84189949     -2.10676857
C      -0.98469352     -1.57230822     -2.03960619
O      -1.59399766     -1.86654725     -1.03320297
O      -1.52650176     -1.84513082     -3.25315056
H       1.91010788     -0.01321925     -0.92862355
H       0.39319996      0.35908870     -0.26635735
H       1.03554554     -1.32640765     -0.14665154
H       0.30509014     -0.10441445     -2.86162067
H       1.00015443     -1.56336990     -2.58581950
H      -1.02437811     -1.32027496     -3.90777986
11
Frame 45  Energy = -268.5724387705 Hartree
C       0.95077597     -0.42573019     -0.78996650
C       0.36921523     -0.84176992     -2.10496969
C      -0.98374479     -1.57290223     -2.04071107
O      -1.59488675     -1.86649619     -1.03131601
O      -1.52426387     -1.84349427     -3.25192151
H       1.91619631     -0.01835503     -0.94138081
H       0.38766698      0.36992514     -0.27317627
H       1.04534761     -1.34085515     -0.15235412
H       0.30860150     -0.09727843     -2.86902563
H       1.00083294     -1.56377263     -2.58849581
H      -1.03559273     -1.32196330     -3.90460371
11
Frame 50  Energy = -268.5727742205 Hartree
C       0.94963940     -0.42678178     -0.79300452
C       0.36727936     -0.84181915     -2.10325957
C      -0.98282000     -1.57331749     -2.04158177
O      -1.59559609     -1.86636288     -1.02963517
O      -1.52207617     -1.84185422     -3.25066246
H       1.92473284     -0.02287105     -0.95434845
H       0.38165968      0.37913835     -0.28050832
H       1.05457344     -1.35273014     -0.15881798
H       0.31242806     -0.08765608     -2.87667302
H       1.00321700     -1.56554457     -2.59143940
H      -1.04669463     -1.32410371     -3.90216164
11
Frame 55  Energy = -268.5727590852 Hartree
C       0.94846029     -0.42786074     -0.79577713
C       0.36507598     -0.84209656     -2.10171752
C      -0.98214160     -1.57359713     -2.04219607
O      -1.59611807     -1.86619904     -1.02815785
O      -1.51985912     -1.84025052     -3.24936358
H       1.93498446     -0.02692984     -0.96696594
H       0.37560550      0.38617180     -0.28824725
H       1.06308045     -1.36145728     -0.16647300
H       0.31596984     -0.07655950     -2.88374228
H       1.00660788     -1.56835177     -2.59417317
H      -1.05677984     -1.32590383     -3.90106575
11
Frame 60  Energy = -268.5726766435 Hartree
C       0.94734624     -0.42901006     -0.79832344
C       0.36267364     -0.84249661     -2.10029262
C      -0.98164875     -1.57375267     -2.04243944
O      -1.59649635     -1.86598601     -1.02678098
O      -1.51777501     -1.83880381     -3.24795613
H       1.94622458     -0.03062304     -0.97932930
H       0.36979232      0.39086753     -0.29630946
H       1.07079533     -1.36667155     -0.17516605
H       0.31914328     -0.06494481     -2.88993874
H       1.01073851     -1.57211898     -2.59670358
H      -1.06554814     -1.32712343     -3.90175667
11
Frame 65  Energy = -268.5726191585 Hartree
C       0.94640991     -0.43017876     -0.80069510
C       0.36012974     -0.84300071     -2.09911656
C      -0.98127516     -1.57380722     -2.04233380
O      -1.59670823     -1.86572957     -1.02555615
O      -1.51591628     -1.83748882     -3.24638927
H       1.95756647     -0.03443026     -0.99155328
H       0.36460174      0.39285788     -0.30478587
H       1.07746253     -1.36832972     -0.18507872
H       0.32183764     -0.05337227     -2.89464310
H       1.01601051     -1.57633919     -2.59900436
H      -1.07268145     -1.32741200     -3.90449581
11
Frame 70  Energy = -268.5725581041 Hartree
C       0.94569556     -0.43139448     -0.80285898
C       0.35754767     -0.84358833     -2.09819376
C      -0.98106056     -1.57370901     -2.04177829
O      -1.59669480     -1.86543765     -1.02443943
O      -1.51420334     -1.83631045     -3.24469191
H       1.96796014     -0.03835071     -1.00342549
H       0.36043471      0.39231842     -0.31394166
H       1.08308927     -1.36683984     -0.19564486
H       0.32415258     -0.04244770     -2.89701933
H       1.02157030     -1.58015153     -2.60058333
H      -1.07769786     -1.32681066     -3.90994590
11
Frame 75  Energy = -268.5726459424 Hartree
C       0.94513249     -0.43261463     -0.80480600
C       0.35502659     -0.84426428     -2.09764867
C      -0.98102109     -1.57348800     -2.04086738
O      -1.59651219     -1.86509894     -1.02349201
O      -1.51268682     -1.83532419     -3.24289155
H       1.97641309     -0.04225324     -1.01489433
H       0.35792935      0.38913571     -0.32359633
H       1.08802171     -1.36223087     -0.20631437
H       0.32574193     -0.03277224     -2.89707370
H       1.02689401     -1.58310752     -2.60154909
H      -1.08082887     -1.32519076     -3.91741164
11
Frame 80  Energy = -268.5727952891 Hartree
C       0.94485683     -0.43376215     -0.80665364
C       0.35252018     -0.84510395     -2.09756933
C      -0.98110186     -1.57314038     -2.03962748
O      -1.59623701     -1.86472354     -1.02278254
O      -1.51131688     -1.83444689     -3.24107734
H       1.98247037     -0.04687750     -1.02555442
H       0.35675404      0.38378432     -0.33371750
H       1.09227954     -1.35544338     -0.21662358
H       0.32689295     -0.02480513     -2.89436653
H       1.03118301     -1.58510337     -2.60171889
H      -1.08241795     -1.32289109     -3.92662975
11
Frame 85  Energy = -268.5727758333 Hartree
C       0.94476605     -0.43478469     -0.80846275
C       0.35010325     -0.84609535     -2.09800912
C      -0.98124836     -1.57260828     -2.03797383
O      -1.59580357     -1.86433684     -1.02230299
O      -1.51007638     -1.83364772     -3.23924476
H       1.98588453     -0.05196333     -1.03495456
H       0.35683115      0.37660615     -0.34381491
H       1.09562433     -1.34650944     -0.22619687
H       0.32777817     -0.01851191     -2.88879002
H       1.03445259     -1.58616538     -2.60128664
H      -1.08310065     -1.32007628     -3.93666083
11
Frame 90  Energy = -268.5726702599 Hartree
C       0.94492148     -0.43563101     -0.81026572
C       0.34774244     -0.84707473     -2.09895622
C      -0.98151050     -1.57188571     -2.03606363
O      -1.59518993     -1.86393206     -1.02203641
O      -1.50899753     -1.83291686     -3.23753525
H       1.98629423     -0.05742900     -1.04319010
H       0.35784527      0.36729579     -0.35363733
H       1.09844764     -1.33593273     -0.23461906
H       0.32797359     -0.01371033     -2.88047715
H       1.03635170     -1.58615555     -2.59971219
H      -1.08289457     -1.31745336     -3.94698373
11
Frame 95  Energy = -268.5727986844 Hartree
C       0.94543708     -0.43629434     -0.81202941
C       0.34546830     -0.84811959     -2.10036069
C      -0.98188111     -1.57101622     -2.03385545
O      -1.59438705     -1.86343849     -1.02200817
O      -1.50803348     -1.83225513     -3.23592782
H       1.98351105     -0.06289996     -1.05030792
H       0.35950820      0.35665545     -0.36278052
H       1.10051699     -1.32452819     -0.24097876
H       0.32750071     -0.01080162     -2.86959003
H       1.03660534     -1.58473283     -2.59692365
H      -1.08229548     -1.31573688     -3.95630693
11
Frame 100  Energy = -268.5728433065 Hartree
C       0.94638376     -0.43678395     -0.81385829
C       0.34335964     -0.84926060     -2.10223472
C      -0.98230784     -1.56988567     -2.03146490
O      -1.59341861     -1.86285393     -1.02219824
O      -1.50716269     -1.83164160     -3.23445632
H       1.97797793     -0.06842176     -1.05664791
H       0.36126740      0.34579879     -0.37058305
H       1.10192244     -1.31351702     -0.24531538
H       0.32646517     -0.00981066     -2.85655837
H       1.03531322     -1.58219553     -2.59329022
H      -1.08168020     -1.31528428     -3.96378034
11
Frame 105  Energy = -268.5728693119 Hartree
C       0.94772006     -0.43715131     -0.81583693
C       0.34142453     -0.85048912     -2.10448331
C      -0.98282277     -1.56861880     -2.02890445
O      -1.59231854     -1.86230188     -1.02262121
O      -1.50635593     -1.83102202     -3.23309696
H       1.97035313     -0.07387441     -1.06176112
H       0.36301348      0.33506061     -0.37703973
H       1.10267822     -1.30383059     -0.24694096
H       0.32482676     -0.01040047     -2.84171171
H       1.03295143     -1.57846414     -2.58891977
H      -1.08120355     -1.31609000     -3.96910274
11
Frame 110  Energy = -268.5728688721 Hartree
C       0.94945789     -0.43743000     -0.81800898
C       0.33966225     -0.85183878     -2.10708214
C      -0.98343820     -1.56716993     -2.02622481
O      -1.59108387     -1.86182095     -1.02326939
O      -1.50562795     -1.83032169     -3.23196637
H       1.96105867     -0.07918834     -1.06591489
H       0.36413000      0.32515223     -0.38178316
H       1.10288706     -1.29613693     -0.24552825
H       0.32230623     -0.01214160     -2.82597426
H       1.02946391     -1.57378686     -2.58407579
H      -1.08114169     -1.31818964     -3.97195404
11
Frame 115  Energy = -268.5726984742 Hartree
C       0.95144599     -0.43752149     -0.82043333
C       0.33799760     -0.85330113     -2.10978823
C      -0.98414096     -1.56549507     -2.02339674
O      -1.58989814     -1.86140983     -1.02412533
O      -1.50502449     -1.82963558     -3.23103386
H       1.95064001     -0.08407128     -1.06949793
H       0.36452899      0.31654542     -0.38447712
H       1.10308019     -1.29077405     -0.24102666
H       0.31869388     -0.01455355     -2.80956443
H       1.02494068     -1.56842965     -2.57925944
H      -1.08167001     -1.32157862     -3.97190796
11
Frame 120  Energy = -268.5726314014 Hartree
C       0.95370103     -0.43762140     -0.82314455
C       0.33637215     -0.85482204     -2.11274822
C      -0.98488327     -1.56358763     -2.02043146
O      -1.58870770     -1.86105613     -1.02505691
O      -1.50446213     -1.82893307     -3.23031496
H       1.94027501     -0.08792557     -1.07267771
H       0.36411425      0.30961978     -0.38474182
H       1.10299205     -1.28793196     -0.23329048
H       0.31409858     -0.01668336     -2.79320919
H       1.01997538     -1.56288526     -2.57497506
H      -1.08261126     -1.32650864     -3.96921497
11
Frame 125  Energy = -268.5726972110 Hartree
C       0.95603983     -0.43774073     -0.82614834
C       0.33481923     -0.85650524     -2.11576749
C      -0.98557721     -1.56149543     -2.01750211
O      -1.58760618     -1.86068857     -1.02603089
O      -1.50400718     -1.82825986     -3.22974028
H       1.93067749     -0.09077695     -1.07503715
H       0.36234603      0.30465675     -0.38259961
H       1.10250665     -1.28738472     -0.22213229
H       0.30907080     -0.01781936     -2.77804837
H       1.01504878     -1.55766818     -2.57190412
H      -1.08387234     -1.33229551     -3.96441639
11
Frame 130  Energy = -268.5725448349 Hartree
C       0.95843561     -0.43794000     -0.82931600
C       0.33322886     -0.85839636     -2.11870449
C      -0.98627379     -1.55920038     -2.01467525
O      -1.58652009     -1.86029726     -1.02697701
O      -1.50372228     -1.82764203     -3.22929396
H       1.92277932     -0.09185929     -1.07703976
H       0.35940185      0.30186519     -0.37807968
H       1.10166288     -1.28872899     -0.20792526
H       0.30329149     -0.01761635     -2.76427014
H       1.01048936     -1.55329593     -2.57012683
H      -1.08494855     -1.33847013     -3.95793127
11
Frame 135  Energy = -268.5725288030 Hartree
C       0.96076813     -0.43825472     -0.83259318
C       0.33160882     -0.86032014     -2.12149230
C      -0.98699558     -1.55675886     -2.01199743
O      -1.58536479     -1.85993636     -1.02800443
O      -1.50365039     -1.82709949     -3.22894585
H       1.91761433     -0.09091311     -1.07882387
H       0.35581906      0.30098505     -0.37158449
H       1.10056037     -1.29129866     -0.19167933
H       0.29648867     -0.01566638     -2.75259518
H       1.00646360     -1.55031439     -2.56972418
H      -1.08534643     -1.34486660     -3.95020506
11
Frame 140  Energy = -268.5726719130 Hartree
C       0.96297442     -0.43876665     -0.83579662
C       0.33007913     -0.86238964     -2.12407170
C      -0.98773066     -1.55413003     -2.00952169
O      -1.58426766     -1.85964252     -1.02898231
O      -1.50385481     -1.82662652     -3.22866106
H       1.91602733     -0.08797543     -1.08054725
H       0.35148682      0.30131048     -0.36360746
H       1.09910320     -1.29417250     -0.17440833
H       0.28846600     -0.01164051     -2.74330004
H       1.00344072     -1.54909523     -2.57114026
H      -1.08460947     -1.35085671     -3.94213422
11
Frame 145  Energy = -268.5728087791 Hartree
C       0.96500189     -0.43960373     -0.83884339
C       0.32857483     -0.86454074     -2.12633386
C      -0.98841420     -1.55132881     -2.00726632
O      -1.58323270     -1.85941008     -1.02983296
O      -1.50429756     -1.82621335     -3.22837086
H       1.91771193     -0.08283463     -1.08235686
H       0.34725019      0.30266112     -0.35433401
H       1.09726005     -1.29699713     -0.15712069
H       0.27939562     -0.00556219     -2.73692338
H       1.00162499     -1.55005163     -2.57475900
H      -1.08238330     -1.35598056     -3.93506526
11
Frame 150  Energy = -268.5729157054 Hartree
C       0.96694042     -0.44074779     -0.84156518
C       0.32705326     -0.86670207     -2.12840078
C      -0.98907026     -1.54842086     -2.00532941
O      -1.58218510     -1.85915401     -1.03054421
O      -1.50493810     -1.82596626     -3.22806045
H       1.92246812     -0.07578632     -1.08449380
H       0.34333831      0.30431624     -0.34445247
H       1.09515862     -1.29867641     -0.14048533
H       0.26943734      0.00248115     -2.73316254
H       1.00117981     -1.55285681     -2.58042864
H      -1.07834502     -1.35980218     -3.92925618
11
Frame 155  Energy = -268.5726424151 Hartree
C       0.96869021     -0.44212791     -0.84387656
C       0.32551180     -0.86882611     -2.13028552
C      -0.98962368     -1.54549392     -2.00364306
O      -1.58129180     -1.85891061     -1.03102962
O      -1.50582804     -1.82589257     -3.22767357
H       1.92993623     -0.06727702     -1.08655509
H       0.34015734      0.30625488     -0.33439781
H       1.09285839     -1.29874867     -0.12522234
H       0.25868033      0.01235408     -2.73157083
H       1.00172339     -1.55730420     -2.58818585
H      -1.07224303     -1.36245157     -3.92515442
11
Frame 160  Energy = -268.5725631624 Hartree
C       0.97034594     -0.44375891     -0.84600372
C       0.32403598     -0.87090199     -2.13201743
C      -0.99017125     -1.54248203     -2.00212977
O      -1.58045318     -1.85872853     -1.03133686
O      -1.50687989     -1.82591136     -3.22718332
H       1.93943247     -0.05739040     -1.08793826
H       0.33837576      0.30784300     -0.32444942
H       1.09051958     -1.29667677     -0.11192136
H       0.24709669      0.02310850     -2.73179133
H       1.00295074     -1.56323839     -2.59784312
H      -1.06411145     -1.36417327     -3.92328037
11
Frame 165  Energy = -268.5723706796 Hartree
C       0.97190292     -0.44545774     -0.84773615
C       0.32272024     -0.87297818     -2.13351919
C      -0.99063830     -1.53939665     -2.00093402
O      -1.57965502     -1.85859352     -1.03149528
O      -1.50813816     -1.82598308     -3.22661125
H       1.95024775     -0.04656480     -1.08813512
H       0.33830130      0.30847952     -0.31534209
H       1.08793466     -1.29205512     -0.10078070
H       0.23534430      0.03406821     -2.73344735
H       1.00437046     -1.57033199     -2.60950138
H      -1.05407281     -1.36452477     -3.92307852
11
Frame 170  Energy = -268.5721347733 Hartree
C       0.97329017     -0.44729923     -0.84909240
C       0.32167090     -0.87492244     -2.13476815
C      -0.99110620     -1.53632758     -2.00004890
O      -1.57888371     -1.85853789     -1.03142781
O      -1.50967038     -1.82613056     -3.22591681
H       1.96129393     -0.03532096     -1.08723261
H       0.33992333      0.30778482     -0.30768922
H       1.08527698     -1.28505643     -0.09225877
H       0.22322294      0.04458072     -2.73623349
H       1.00558876     -1.57788564     -2.62258144
H      -1.04257501     -1.36366278     -3.92420270
11
Frame 175  Energy = -268.5720754151 Hartree
C       0.97458040     -0.44914123     -0.85006924
C       0.32086811     -0.87671865     -2.13587870
C      -0.99152356     -1.53332454     -1.99954466
O      -1.57809428     -1.85854193     -1.03112865
O      -1.51133846     -1.82637194     -3.22521518
H       1.97147094     -0.02388296     -1.08575398
H       0.34329413      0.30582049     -0.30172722
H       1.08251944     -1.27567101     -0.08661617
H       0.21073968      0.05364527     -2.73950900
H       1.00600471     -1.58533197     -2.63669342
H      -1.02986517     -1.36223713     -3.92566102
11
Frame 180  Energy = -268.5720726291 Hartree
C       0.97582959     -0.45095104     -0.85058179
C       0.32042796     -0.87833475     -2.13686478
C      -0.99193999     -1.53030613     -1.99953246
O      -1.57734077     -1.85855829     -1.03059014
O      -1.51310318     -1.82661151     -3.22453658
H       1.98017442     -0.01278114     -1.08361734
H       0.34811913      0.30249984     -0.29735701
H       1.07961485     -1.26467947     -0.08361329
H       0.19819327      0.06045309     -2.74309471
H       1.00490966     -1.59184744     -2.65118017
H      -1.01675226     -1.36111953     -3.92648300
11
Frame 185  Energy = -268.5719429190 Hartree
C       0.97713447     -0.45267345     -0.85076417
C       0.32033124     -0.87969977     -2.13783386
C      -0.99237725     -1.52733192     -1.99996245
O      -1.57665126     -1.85855619     -1.02994002
O      -1.51499285     -1.82689160     -3.22392661
H       1.98663226     -0.00258332     -1.08070238
H       0.35481198      0.29816255     -0.29497795
H       1.07690309     -1.25274661     -0.08281902
H       0.18561400      0.06463182     -2.74640162
H       1.00249006     -1.59700748     -2.66593333
H      -1.00376882     -1.36082734     -3.92630408
11
Frame 190  Energy = -268.5719004541 Hartree
C       0.97859060     -0.45412605     -0.85056166
C       0.32062938     -0.88092559     -2.13886761
C      -0.99276781     -1.52446485     -2.00076640
O      -1.57594345     -1.85855229     -1.02915512
O      -1.51692982     -1.82715540     -3.22349069
H       1.99045299      0.00630541     -1.07682160
H       0.36329259      0.29283929     -0.29450337
H       1.07470609     -1.24013250     -0.08429539
H       0.17345430      0.06615981     -2.74895438
H       0.99866328     -1.60069808     -2.68037762
H      -0.99122147     -1.36151078     -3.92463876
11
Frame 195  Energy = -268.5719232340 Hartree
C       0.98023304     -0.45539037     -0.85006314
C       0.32127438     -0.88187888     -2.14008946
C      -0.99316251     -1.52177553     -2.00198385
O      -1.57523226     -1.85860460     -1.02813771
O      -1.51883084     -1.82726844     -3.22322561
H       1.99146899      0.01391593     -1.07199030
H       0.37271566      0.28692324     -0.29574179
H       1.07298581     -1.22763665     -0.08754159
H       0.16193255      0.06484466     -2.75050948
H       0.99301396     -1.60257552     -2.69432001
H      -0.98001429     -1.36371248     -3.92158211
11
Frame 200  Energy = -268.5720270739 Hartree
C       0.98201535     -0.45640643     -0.84943279
C       0.32216634     -0.88255241     -2.14149068
C      -0.99366773     -1.51925434     -2.00345162
O      -1.57458052     -1.85871365     -1.02686999
O      -1.52066500     -1.82728920     -3.22302123
H       1.98951022      0.01990589     -1.06601671
H       0.38270326      0.28066585     -0.29855294
H       1.07186242     -1.21607455     -0.09185941
H       0.15129571      0.06063469     -2.75097489
H       0.98551239     -1.60211276     -2.70736483
H      -0.97037748     -1.36781394     -3.91669725
11
Frame 205  Energy = -268.5721338887 Hartree
C       0.98398755     -0.45712681     -0.84872762
C       0.32330616     -0.88296694     -2.14299009
C      -0.99419660     -1.51693751     -2.00515096
O      -1.57401045     -1.85887709     -1.02549551
O      -1.52240830     -1.82724900     -3.22295181
H       1.98458610      0.02379753     -1.05938233
H       0.39300400      0.27467557     -0.30251890
H       1.07143327     -1.20593301     -0.09653908
H       0.14181824      0.05404731     -2.75040527
H       0.97640404     -1.59961836     -2.71969230
H      -0.96257651     -1.37363113     -3.90980646
11
Frame 210  Energy = -268.5719197121 Hartree
C       0.98624663     -0.45770670     -0.84792363
C       0.32478727     -0.88316185     -2.14457780
C      -0.99489001     -1.51463041     -2.00693868
O      -1.57344530     -1.85901221     -1.02398643
O      -1.52419412     -1.82716453     -3.22305808
H       1.97745661      0.02606780     -1.05207209
H       0.40320944      0.26944696     -0.30751784
H       1.07205906     -1.19793255     -0.10109809
H       0.13356528      0.04517462     -2.74910280
H       0.96576241     -1.59488616     -2.73072186
H      -0.95661711     -1.38104069     -3.90154396
11
Frame 215  Energy = -268.5717542776 Hartree
C       0.98870065     -0.45799129     -0.84717686
C       0.32658449     -0.88305519     -2.14614064
C      -0.99569647     -1.51245119     -2.00884034
O      -1.57287057     -1.85924319     -1.02242682
O      -1.52599425     -1.82700464     -3.22333275
H       1.96816317      0.02709985     -1.04455834
H       0.41242039      0.26564407     -0.31280743
H       1.07383185     -1.19285889     -0.10465363
H       0.12652758      0.03420870     -2.74736846
H       0.95381793     -1.58831719     -2.74089630
H      -0.95204361     -1.39014534     -3.89221793
11
Frame 220  Energy = -268.5716918886 Hartree
C       0.99141947     -0.45805034     -0.84657272
C       0.32868358     -0.88275983     -2.14766783
C      -0.99665423     -1.51044584     -2.01087380
O      -1.57232097     -1.85953232     -1.02077788
O      -1.52769447     -1.82673231     -3.22371632
H       1.95710286      0.02713648     -1.03701687
H       0.42032251      0.26367132     -0.31816125
H       1.07693299     -1.19134587     -0.10679025
H       0.12064158      0.02181400     -2.74552797
H       0.94124661     -1.58027313     -2.75053853
H      -0.94852759     -1.40045125     -3.88259279
11
Frame 225  Energy = -268.5717086855 Hartree
C       0.99432807     -0.45782456     -0.84616796
C       0.33095481     -0.88232089     -2.14914810
C      -0.99781191     -1.50873305     -2.01288298
O      -1.57185388     -1.85985051     -1.01904298
O      -1.52944997     -1.82636679     -3.22413133
H       1.94574110      0.02626312     -1.02923793
H       0.42639403      0.26384047     -0.32330335
H       1.08148352     -1.19373487     -0.10746411
H       0.11632574      0.00883789     -2.74370984
H       0.92871785     -1.57112018     -2.75932084
H      -0.94582945     -1.41150268     -3.87337744
11
Frame 230  Energy = -268.5716838599 Hartree
C       0.99727878     -0.45740562     -0.84592424
C       0.33336485     -0.88171302     -2.15049727
C      -0.99914316     -1.50732618     -2.01481539
O      -1.57144644     -1.86008741     -1.01726651
O      -1.53126319     -1.82593799     -3.22465821
H       1.93498118      0.02462421     -1.02192941
H       0.43038827      0.26662857     -0.32807841
H       1.08707186     -1.20021006     -0.10688060
H       0.11315943     -0.00394487     -2.74202908
H       0.91648410     -1.56156271     -2.76762675
H      -0.94356196     -1.42273870     -3.86532707
11
Frame 235  Energy = -268.5716914696 Hartree
C       1.00022190     -0.45691736     -0.84581838
C       0.33590815     -0.88094661     -2.15162759
C      -1.00063379     -1.50628806     -2.01663385
O      -1.57103701     -1.86026380     -1.01548504
O      -1.53319660     -1.82547373     -3.22522559
H       1.92593784      0.02313387     -1.01509402
H       0.43178651      0.27215634     -0.33224943
H       1.09354060     -1.20980056     -0.10531380
H       0.11110324     -0.01558469     -2.74104253
H       0.90516673     -1.55178899     -2.77579925
H      -0.94128286     -1.43399065     -3.85897034
11
Frame 240  Energy = -268.5717588678 Hartree
C       1.00314259     -0.45647963     -0.84575905
C       0.33854255     -0.88009508     -2.15263317
C      -1.00228241     -1.50559106     -2.01827811
O      -1.57056006     -1.86039933     -1.01367928
O      -1.53517258     -1.82503085     -3.22571765
H       1.91978791      0.02204741     -1.00922536
H       0.43069547      0.27979811     -0.33579741
H       1.10034847     -1.22186271     -0.10318864
H       0.10995986     -0.02533652     -2.74124433
H       0.89534475     -1.54197971     -2.78392065
H      -0.93849944     -1.44491289     -3.85505633
11
Frame 245  Energy = -268.5717415477 Hartree
C       1.00583323     -0.45615162     -0.84570187
C       0.34118738     -0.87911778     -2.15332833
C      -1.00420444     -1.50521381     -2.01966351
O      -1.57006088     -1.86043531     -1.01191874
O      -1.53734345     -1.82467159     -3.22613764
H       1.91744303      0.02185250     -1.00468296
H       0.42760031      0.28893727     -0.33900136
H       1.10746336     -1.23567370     -0.10101602
H       0.10945721     -0.03258099     -2.74262446
H       0.88714351     -1.53267537     -2.79222101
H      -0.93476885     -1.45489928     -3.85390795
11
Frame 250  Energy = -268.5716005259 Hartree
C       1.00830002     -0.45600430     -0.84563509
C       0.34389681     -0.87810880     -2.15372210
C      -1.00623002     -1.50524000     -2.02076573
O      -1.56953533     -1.86034721     -1.01017533
O      -1.53966848     -1.82436168     -3.22643963
H       1.91940782      0.02232612     -1.00113713
H       0.42294814      0.29909413     -0.34183760
H       1.11479918     -1.25046422     -0.09947328
H       0.10952196     -0.03683643     -2.74588432
H       0.88094142     -1.52457337     -2.80091731
H      -0.92989353     -1.46459016     -3.85565113
11
Frame 255  Energy = -268.5716296986 Hartree
C       1.01036732     -0.45589575     -0.84548080
C       0.34646413     -0.87707883     -2.15383309
C      -1.00837789     -1.50553363     -2.02158439
O      -1.56895270     -1.86021371     -1.00852708
O      -1.54212655     -1.82405254     -3.22667197
H       1.92553739      0.02364717     -0.99878151
H       0.41707629      0.30976986     -0.34458846
H       1.12250384     -1.26553671     -0.09906221
H       0.11021623     -0.03767432     -2.75089083
H       0.87687021     -1.51823492     -2.81028389
H      -0.92408119     -1.47409630     -3.86006915
11
Frame 260  Energy = -268.5716517825 Hartree
C       1.01209902     -0.45584821     -0.84506190
C       0.34890613     -0.87590946     -2.15363571
C      -1.01057706     -1.50616736     -2.02215394
O      -1.56834283     -1.85997524     -1.00700742
O      -1.54468013     -1.82373717     -3.22683229
H       1.93527833      0.02584530     -0.99767720
H       0.41027020      0.31932517     -0.34762469
H       1.13015387     -1.27979057     -0.09999003
H       0.11129905     -0.03488269     -2.75735243
H       0.87544939     -1.51347219     -2.82041614
H      -0.91762891     -1.48350240     -3.86725848
11
Frame 265  Energy = -268.5717429119 Hartree
C       1.01368980     -0.45587066     -0.84436257
C       0.35115545     -0.87463433     -2.15325271
C      -1.01274474     -1.50712785     -2.02254724
O      -1.56775592     -1.85966943     -1.00562073
O      -1.54733194     -1.82337732     -3.22696955
H       1.94821717      0.02830414     -0.99757388
H       0.40357353      0.32722758     -0.35120063
H       1.13746123     -1.29258147     -0.10287237
H       0.11265113     -0.02889690     -2.76508058
H       0.87657836     -1.51021553     -2.83110332
H      -0.91116181     -1.49326038     -3.87611057
11
Frame 270  Energy = -268.5717414277 Hartree
C       1.01505211     -0.45584801     -0.84347467
C       0.35333041     -0.87323923     -2.15265452
C      -1.01486217     -1.50839396     -2.02275625
O      -1.56714893     -1.85916897     -1.00442410
O      -1.54998956     -1.82296974     -3.22700232
H       1.96299726      0.03048157     -0.99808832
H       0.39728102      0.33354267     -0.35525267
H       1.14433081     -1.30334937     -0.10822988
H       0.11449157     -0.02050131     -2.77384554
H       0.88041932     -1.50840425     -2.84187897
H      -0.90554070     -1.50315155     -3.88620965
11
Frame 275  Energy = -268.5718976362 Hartree
C       1.01633668     -0.45587820     -0.84235099
C       0.35525262     -0.87166398     -2.15192934
C      -1.01687527     -1.50977769     -2.02274949
O      -1.56648331     -1.85852879     -1.00347556
O      -1.55268224     -1.82240152     -3.22696478
H       1.97875174      0.03216826     -0.99906727
H       0.39172947      0.33777051     -0.35999055
H       1.15065109     -1.31199665     -0.11594774
H       0.11704229     -0.01069797     -2.78262528
H       0.88667055     -1.50755053     -2.85200131
H      -0.90149073     -1.51354717     -3.89652490
11
Frame 280  Energy = -268.5718630677 Hartree
C       1.01762030     -0.45594181     -0.84117436
C       0.35705998     -0.86997885     -2.15112236
C      -1.01882374     -1.51127838     -2.02253072
O      -1.56578424     -1.85772092     -1.00263377
O      -1.55540167     -1.82177411     -3.22695785
H       1.99442640      0.03326083     -1.00004578
H       0.38711569      0.34001976     -0.36574746
H       1.15617301     -1.31808764     -0.12619670
H       0.12030506     -0.00019256     -2.79119129
H       0.89464295     -1.50688618     -2.86100304
H      -0.89907380     -1.52472069     -3.90605059
11
Frame 285  Energy = -268.5717839192 Hartree
C       1.01889584     -0.45600643     -0.83992789
C       0.35867041     -0.86819953     -2.15029761
C      -1.02060903     -1.51293507     -2.02207360
O      -1.56495722     -1.85680190     -1.00192848
O      -1.55811833     -1.82115498     -3.22706263
H       2.00922518      0.03329634     -1.00098125
H       0.38360660      0.33983857     -0.37237532
H       1.16059251     -1.32194772     -0.13850533
H       0.12474750      0.01076860     -2.79883525
H       0.90409015     -1.50604458     -2.86854739
H      -0.89881831     -1.53663584     -3.91413903
11
Frame 290  Energy = -268.5715328454 Hartree
C       1.02020712     -0.45593747     -0.83863851
C       0.36013976     -0.86633318     -2.14960128
C      -1.02236331     -1.51483103     -2.02139875
O      -1.56408173     -1.85580271     -1.00135739
O      -1.56080694     -1.82059611     -3.22729480
H       2.02219166      0.03173264     -1.00214860
H       0.38113356      0.33743482     -0.37948885
H       1.16444260     -1.32378955     -0.15263118
H       0.13057583      0.02136347     -2.80520392
H       0.91467449     -1.50504025     -2.87455292
H      -0.90116511     -1.54932742     -3.92059733
11
Frame 295  Energy = -268.5716174984 Hartree
C       1.02160940     -0.45575350     -0.83720646
C       0.36157918     -0.86433187     -2.14911513
C      -1.02397390     -1.51692357     -2.02056221
O      -1.56322978     -1.85466253     -1.00087141
O      -1.56348435     -1.81990489     -3.22769234
H       2.03268081      0.02844773     -1.00341928
H       0.37999346      0.33296724     -0.38654350
H       1.16726943     -1.32395643     -0.16812534
H       0.13790877      0.03121931     -2.80956690
H       0.92576480     -1.50323808     -2.87824498
H      -0.90583884     -1.56247869     -3.92542025
11
Frame 300  Energy = -268.5714518183 Hartree
C       1.02325211     -0.45539400     -0.83575984
C       0.36300827     -0.86212730     -2.14893717
C      -1.02536900     -1.51916075     -2.01965889
O      -1.56244111     -1.85337780     -1.00047654
O      -1.56618779     -1.81914958     -3.22823714
H       2.04041210      0.02367954     -1.00453640
H       0.38024847      0.32658165     -0.39335658
H       1.16930016     -1.32275845     -0.18423461
H       0.14643906      0.03958422     -2.81172138
H       0.93670858     -1.50050784     -2.87939565
H      -0.91233102     -1.57594045     -3.92864082
