11
Frame 5  Energy = -268.5654956057 Hartree
C       0.77731964     -0.48541719     -0.63626868
C       0.41247542     -0.87646825     -2.05591746
C      -0.92280233     -1.53494542     -2.08251782
O      -1.54117596     -1.85053249     -1.12041369
O      -1.38063362     -1.83682396     -3.32629794
H       1.66759548      0.09635706     -0.66997683
H      -0.07189294      0.11024040     -0.24225733
H       1.02118071     -1.41030313     -0.03141677
H       0.38872856      0.04355974     -2.68566178
H       1.19432518     -1.51179050     -2.50265242
H      -0.83628606     -1.39214448     -4.02539533
11
Frame 10  Energy = -268.5653406058 Hartree
C       0.77620707     -0.48617542     -0.63899322
C       0.41247584     -0.87821212     -2.05865684
C      -0.92353968     -1.53401255     -2.07819302
O      -1.54009690     -1.85018910     -1.11956315
O      -1.38251548     -1.83710778     -3.32635196
H       1.66837464      0.10064153     -0.66594380
H      -0.08178372      0.11253518     -0.25121772
H       1.02218066     -1.41624476     -0.02396280
H       0.38836736      0.05813843     -2.68008133
H       1.20130479     -1.51466621     -2.50449961
H      -0.83078914     -1.39262570     -4.01544984
11
Frame 15  Energy = -268.5652779840 Hartree
C       0.77504740     -0.48717738     -0.64161745
C       0.41275085     -0.87977009     -2.06150478
C      -0.92415131     -1.53306842     -2.07407509
O      -1.53915091     -1.84984163     -1.11863599
O      -1.38446209     -1.83733914     -3.32647758
H       1.66994561      0.10628015     -0.66186766
H      -0.08943263      0.11354569     -0.25947373
H       1.02149404     -1.41928517     -0.01783137
H       0.38746552      0.07076256     -2.67404333
H       1.20670995     -1.51741296     -2.50596121
H      -0.82629730     -1.39436451     -4.00322659
11
Frame 20  Energy = -268.5653041526 Hartree
C       0.77383648     -0.48838860     -0.64406984
C       0.41323386     -0.88106504     -2.06441908
C      -0.92466170     -1.53213390     -2.07036382
O      -1.53825073     -1.84949493     -1.11753771
O      -1.38639918     -1.83747406     -3.32665752
H       1.67219630      0.11309299     -0.65768113
H      -0.09455908      0.11273895     -0.26741327
H       1.01861760     -1.41873868     -0.01342007
H       0.38609070      0.08091148     -2.66709541
H       1.21030643     -1.51953259     -2.50710662
H      -0.82285257     -1.39705735     -3.98952593
11
Frame 25  Energy = -268.5654422980 Hartree
C       0.77265318     -0.48980436     -0.64635374
C       0.41391228     -0.88207296     -2.06738814
C      -0.92505513     -1.53134644     -2.06704051
O      -1.53749131     -1.84916211     -1.11622047
O      -1.38832774     -1.83749252     -3.32690091
H       1.67495060      0.12065726     -0.65314817
H      -0.09708313      0.11011138     -0.27471042
H       1.01399913     -1.41440145     -0.01117028
H       0.38421996      0.08821739     -2.65963492
H       1.21191615     -1.52065770     -2.50794729
H      -0.82021436     -1.40029800     -3.97495424
11
Frame 30  Energy = -268.5654657031 Hartree
C       0.77154477     -0.49141270     -0.64853648
C       0.41473250     -0.88277605     -2.07045301
C      -0.92534956     -1.53067844     -2.06429255
O      -1.53700494     -1.84893791     -1.11476072
O      -1.39024345     -1.83749812     -3.32710767
H       1.67766484      0.12839965     -0.64812948
H      -0.09685944      0.10574221     -0.28106941
H       1.00792780     -1.40667243     -0.01065452
H       0.38195219      0.09250376     -2.65162633
H       1.21141809     -1.52111153     -2.50827290
H      -0.81774371     -1.40359295     -3.96020485
11
Frame 35  Energy = -268.5653997934 Hartree
C       0.77051806     -0.49319575     -0.65050108
C       0.41580997     -0.88309584     -2.07357285
C      -0.92557136     -1.53006496     -2.06207806
O      -1.53669747     -1.84880928     -1.11305609
O      -1.39223319     -1.83747914     -3.32722097
H       1.67956835      0.13581480     -0.64288003
H      -0.09447978      0.09999556     -0.28664862
H       1.00032000     -1.39533252     -0.01184033
H       0.37931509      0.09356051     -2.64325789
H       1.20908915     -1.52082354     -2.50826498
H      -0.81473220     -1.40674077     -3.94606469
11
Frame 40  Energy = -268.5652800406 Hartree
C       0.76948266     -0.49490717     -0.65233198
C       0.41706468     -0.88308696     -2.07665387
C      -0.92561883     -1.52955100     -2.06038499
O      -1.53652236     -1.84875427     -1.11107068
O      -1.39433270     -1.83747580     -3.32715569
H       1.68044287      0.14235485     -0.63698858
H      -0.09020038      0.09303713     -0.29149126
H       0.99158966     -1.38140554     -0.01435892
H       0.37670457      0.09153753     -2.63475317
H       1.20478767     -1.51996231     -2.50847426
H      -0.81005318     -1.40958003     -3.93353251
11
Frame 45  Energy = -268.5650379507 Hartree
C       0.76853316     -0.49655517     -0.65405566
C       0.41844813     -0.88270764     -2.07970660
C      -0.92556157     -1.52916117     -2.05907904
O      -1.53655866     -1.84874807     -1.10887169
O      -1.39652637     -1.83743987     -3.32686090
H       1.67952214      0.14796517     -0.63083562
H      -0.08445638      0.08499055     -0.29532366
H       0.98136990     -1.36549543     -0.01760713
H       0.37357895      0.08667358     -2.62646583
H       1.19935000     -1.51902776     -2.50902667
H      -0.80401510     -1.41175682     -3.92307874
11
Frame 50  Energy = -268.5649386948 Hartree
C       0.76783460     -0.49813609     -0.65588527
C       0.42005284     -0.88200761     -2.08269653
C      -0.92542452     -1.52887114     -2.05823035
O      -1.53679850     -1.84876690     -1.10653462
O      -1.39882908     -1.83745635     -3.32636271
H       1.67687430      0.15218812     -0.62455885
H      -0.07805368      0.07686011     -0.29823516
H       0.97028200     -1.34864159     -0.02127234
H       0.37018049      0.07967908     -2.61881251
H       1.19316633     -1.51779126     -2.50977689
H      -0.79645762     -1.41300922     -3.91507616
11
Frame 55  Energy = -268.5646980877 Hartree
C       0.76736821     -0.49951360     -0.65779867
C       0.42180425     -0.88108945     -2.08549563
C      -0.92515197     -1.52874460     -2.05793116
O      -1.53719700     -1.84883228     -1.10402067
O      -1.40115551     -1.83754287     -3.32566647
H       1.67257785      0.15530273     -0.61838309
H      -0.07138267      0.06906279     -0.30009072
H       0.95858296     -1.33192429     -0.02491032
H       0.36643289      0.07117853     -2.61184003
H       1.18619395     -1.51703870     -2.51113665
H      -0.78751623     -1.41330386     -3.90961378
11
Frame 60  Energy = -268.5647393556 Hartree
C       0.76720057     -0.50060003     -0.65979148
C       0.42364025     -0.87994313     -2.08811014
C      -0.92479881     -1.52894197     -2.05803939
O      -1.53775338     -1.84895982     -1.10137603
O      -1.40353524     -1.83753850     -3.32478555
H       1.66651175      0.15716883     -0.61242540
H      -0.06535715      0.06234498     -0.30024066
H       0.94683921     -1.31663888     -0.02734457
H       0.36212463      0.06208769     -2.60633810
H       1.17893448     -1.51705488     -2.51310653
H      -0.77755798     -1.41291477     -3.90646500
11
Frame 65  Energy = -268.5648458164 Hartree
C       0.76726496     -0.50133935     -0.66190667
C       0.42550227     -0.87870408     -2.09038060
C      -0.92448232     -1.52938055     -2.05853925
O      -1.53843527     -1.84912622     -1.09861658
O      -1.40596964     -1.83746352     -3.32380737
H       1.65915567      0.15776764     -0.60654349
H      -0.06019721      0.05647956     -0.29867508
H       0.93517217     -1.30430273     -0.02783854
H       0.35755568      0.05319281     -2.60285431
H       1.17221557     -1.51757427     -2.51618612
H      -0.76721772     -1.41215253     -3.90545527
11
Frame 70  Energy = -268.5649160409 Hartree
C       0.76746509     -0.50170955     -0.66421739
C       0.42734966     -0.87744208     -2.09224509
C      -0.92429797     -1.53003597     -2.05945372
O      -1.53925625     -1.84936467     -1.09576892
O      -1.40827120     -1.83733827     -3.32268971
H       1.65056891      0.15710665     -0.60130908
H      -0.05599463      0.05190740     -0.29568421
H       0.92364347     -1.29649429     -0.02592328
H       0.35277912      0.04526726     -2.60214345
H       1.16630057     -1.51854675     -2.52069111
H      -0.75750510     -1.41149213     -3.90567664
11
Frame 75  Energy = -268.5648974611 Hartree
C       0.76777106     -0.50171738     -0.66667914
C       0.42922028     -0.87623416     -2.09370645
C      -0.92421223     -1.53090661     -2.06065743
O      -1.54012994     -1.84964875     -1.09277368
O      -1.41044515     -1.83706087     -3.32156562
H       1.64128610      0.15531378     -0.59633200
H      -0.05323722      0.04871910     -0.29128527
H       0.91260795     -1.29319320     -0.02129549
H       0.34804808      0.03890081     -2.60405949
H       1.16131784     -1.52020071     -2.52629543
H      -0.74896661     -1.41159715     -3.90645023
11
Frame 80  Energy = -268.5649322989 Hartree
C       0.76824770     -0.50139281     -0.66932493
C       0.43105260     -0.87520398     -2.09472575
C      -0.92433151     -1.53186374     -2.06201945
O      -1.54102574     -1.84987222     -1.08969942
O      -1.41245889     -1.83662340     -3.32038640
H       1.63203919      0.15268032     -0.59160267
H      -0.05204287      0.04736368     -0.28532887
H       0.90228482     -1.29443440     -0.01386902
H       0.34314218      0.03485977     -2.60889175
H       1.15742458     -1.52265938     -2.53283123
H      -0.74238105     -1.41299929     -3.90733607
11
Frame 85  Energy = -268.5650287830 Hartree
C       0.76884888     -0.50070142     -0.67211515
C       0.43272363     -0.87421733     -2.09526890
C      -0.92457950     -1.53296869     -2.06356656
O      -1.54180063     -1.85005211     -1.08661529
O      -1.41432433     -1.83601448     -3.31919436
H       1.62354873      0.15021929     -0.58702442
H      -0.05254648      0.04770247     -0.27806757
H       0.89259155     -1.29943130     -0.00439572
H       0.33838203      0.03321484     -2.61721304
H       1.15467446     -1.52604273     -2.54045714
H      -0.73819438     -1.41599531     -3.90794350
11
Frame 90  Energy = -268.5649497200 Hartree
C       0.76956463     -0.49977126     -0.67502216
C       0.43427998     -0.87334889     -2.09537807
C      -0.92492521     -1.53431346     -2.06531679
O      -1.54251061     -1.85018609     -1.08356782
O      -1.41606547     -1.83520033     -3.31802853
H       1.61620609      0.14822094     -0.58265800
H      -0.05439737      0.04938708     -0.27000222
H       0.88352864     -1.30780909      0.00630137
H       0.33365813      0.03380015     -2.62853506
H       1.15301411     -1.53000756     -2.54880677
H      -0.73658256     -1.42078824     -3.90845275
11
Frame 95  Energy = -268.5650143474 Hartree
C       0.77033923     -0.49869012     -0.67789037
C       0.43564013     -0.87249976     -2.09515468
C      -0.92538212     -1.53579255     -2.06717663
O      -1.54317588     -1.85023957     -1.08057903
O      -1.41763622     -1.83425360     -3.31684670
H       1.61042127      0.14646710     -0.57882894
H      -0.05737186      0.05216989     -0.26161060
H       0.87521163     -1.31897385      0.01703256
H       0.32936658      0.03628816     -2.64239902
H       1.15241304     -1.53463881     -2.55772846
H      -0.73780580     -1.42732507     -3.90869123
11
Frame 100  Energy = -268.5650435342 Hartree
C       0.77109393     -0.49757059     -0.68054174
C       0.43682134     -0.87175474     -2.09473598
C      -0.92602832     -1.53748010     -2.06909465
O      -1.54372162     -1.85027251     -1.07779248
O      -1.41903778     -1.83324042     -3.31574299
H       1.60674180      0.14573287     -0.57548644
H      -0.06115750      0.05562093     -0.25284188
H       0.86769120     -1.33153107      0.02709325
H       0.32539629      0.04014723     -2.65835269
H       1.15232693     -1.53968716     -2.56685752
H      -0.74157466     -1.43506205     -3.90890515
11
Frame 105  Energy = -268.5650935401 Hartree
C       0.77171117     -0.49646475     -0.68291312
C       0.43782024     -0.87103817     -2.09415990
C      -0.92680782     -1.53941806     -2.07092026
O      -1.54417533     -1.85024529     -1.07525489
O      -1.42033320     -1.83215492     -3.31465254
H       1.60556016      0.14592926     -0.57227539
H      -0.06545438      0.05976673     -0.24423539
H       0.86096869     -1.34412502      0.03575171
H       0.32174291      0.04426604     -2.67530770
H       1.15234635     -1.54461835     -2.57637743
H      -0.74773981     -1.44441132     -3.90927188
11
Frame 110  Energy = -268.5652064820 Hartree
C       0.77226482     -0.49536468     -0.68499918
C       0.43865297     -0.87033691     -2.09360103
C      -0.92769433     -1.54142787     -2.07258667
O      -1.54449757     -1.85017370     -1.07290939
O      -1.42147447     -1.83104424     -3.31358019
H       1.60723219      0.14697864     -0.56906898
H      -0.06950225      0.06428009     -0.23612409
H       0.85488490     -1.35574364      0.04186107
H       0.31894876      0.04799444     -2.69283378
H       1.15206936     -1.54909442     -2.58589508
H      -0.75544209     -1.45484274     -3.90974239
11
Frame 115  Energy = -268.5652371635 Hartree
C       0.77274052     -0.49442452     -0.68659317
C       0.43933907     -0.86962331     -2.09306247
C      -0.92869750     -1.54360420     -2.07407033
O      -1.54471392     -1.85011133     -1.07075784
O      -1.42259462     -1.82982771     -3.31249066
H       1.61129918      0.14877896     -0.56610529
H      -0.07251036      0.06847956     -0.22899606
H       0.84912863     -1.36582948      0.04493586
H       0.31700692      0.05058557     -2.71043816
H       1.15120814     -1.55253119     -2.59492310
H      -0.76383881     -1.46618168     -3.91079936
11
Frame 120  Energy = -268.5651826297 Hartree
C       0.77310680     -0.49357499     -0.68762929
C       0.43981545     -0.86886855     -2.09255696
C      -0.92977345     -1.54588312     -2.07543761
O      -1.54488498     -1.84990608     -1.06885073
O      -1.42363215     -1.82860626     -3.31137321
H       1.61745453      0.15099329     -0.56346113
H      -0.07432717      0.07193912     -0.22280227
H       0.84420090     -1.37343793      0.04465878
H       0.31547114      0.05139668     -2.72748571
H       1.14988112     -1.55483480     -2.60328518
H      -0.77240443     -1.47785585     -3.91324445
11
Frame 125  Energy = -268.5648648977 Hartree
C       0.77340448     -0.49279731     -0.68807813
C       0.44012056     -0.86803742     -2.09219824
C      -0.93096472     -1.54846701     -2.07672292
O      -1.54488994     -1.84966879     -1.06715616
O      -1.42466130     -1.82746108     -3.31009089
H       1.62534023      0.15391358     -0.56094094
H      -0.07494214      0.07466596     -0.21781542
H       0.83951946     -1.37844863      0.04109695
H       0.31458042      0.05009677     -2.74331700
H       1.14766619     -1.55583608     -2.61060368
H      -0.78044275     -1.48993151     -3.91753723
11
Frame 130  Energy = -268.5648467520 Hartree
C       0.77351975     -0.49196862     -0.68791809
C       0.44027450     -0.86715150     -2.09204133
C      -0.93222265     -1.55123384     -2.07778428
O      -1.54485332     -1.84935830     -1.06571184
O      -1.42571432     -1.82632018     -3.30864670
H       1.63469556      0.15673628     -0.55908469
H      -0.07362895      0.07642902     -0.21447562
H       0.83521665     -1.38101856      0.03400494
H       0.31424127      0.04687064     -2.75780350
H       1.14446006     -1.55577266     -2.61694168
H      -0.78752764     -1.50174630     -3.92385657
11
Frame 135  Energy = -268.5650657886 Hartree
C       0.77345516     -0.49109204     -0.68720902
C       0.44024136     -0.86631153     -2.09210507
C      -0.93358362     -1.55410124     -2.07857585
O      -1.54473567     -1.84894968     -1.06456166
O      -1.42683025     -1.82519623     -3.30708734
H       1.64474004      0.15910996     -0.55819801
H      -0.07047338      0.07756694     -0.21293923
H       0.83132513     -1.38157981      0.02374151
H       0.31487254      0.04184766     -2.77069722
H       1.14017033     -1.55429027     -2.62174562
H      -0.79302177     -1.51291463     -3.93278984
11
Frame 140  Energy = -268.5650736551 Hartree
C       0.77329513     -0.49026494     -0.68607667
C       0.43995030     -0.86545678     -2.09248167
C      -0.93507169     -1.55703004     -2.07903615
O      -1.54448226     -1.84843122     -1.06370784
O      -1.42806972     -1.82409104     -3.30546614
H       1.65462480      0.16055194     -0.55802165
H      -0.06552689      0.07786564     -0.21293403
H       0.82840089     -1.37983058      0.01047816
H       0.31629235      0.03466378     -2.78171679
H       1.13546420     -1.55171827     -2.62504863
H      -0.79678540     -1.52328567     -3.94383270
11
Frame 145  Energy = -268.5651216870 Hartree
C       0.77307967     -0.48939285     -0.68452023
C       0.43945754     -0.86446093     -2.09314188
C      -0.93668432     -1.56006081     -2.07920299
O      -1.54409626     -1.84788989     -1.06313061
O      -1.42936095     -1.82298686     -3.30372442
H       1.66421679      0.16101760     -0.55823501
H      -0.05897419      0.07765400     -0.21463366
H       0.82630286     -1.37603306     -0.00537018
H       0.31826923      0.02574659     -2.79071453
H       1.13031717     -1.54831530     -2.62700956
H      -0.79915782     -1.53334039     -3.95655034
11
Frame 150  Energy = -268.5651783395 Hartree
C       0.77287499     -0.48844510     -0.68267105
C       0.43859988     -0.86344276     -2.09406004
C      -0.93831416     -1.56315702     -2.07912869
O      -1.54351688     -1.84726972     -1.06282794
O      -1.43081098     -1.82195909     -3.30190029
H       1.67251709      0.15985046     -0.55904484
H      -0.05153565      0.07733277     -0.21737207
H       0.82456386     -1.37080379     -0.02301145
H       0.32091002      0.01497861     -2.79730124
H       1.12498815     -1.54436431     -2.62728725
H      -0.80087213     -1.54300523     -3.97010260
11
Frame 155  Energy = -268.5650755391 Hartree
C       0.77275265     -0.48726294     -0.68045982
C       0.43747140     -0.86233202     -2.09520120
C      -0.93989325     -1.56621059     -2.07878145
O      -1.54291625     -1.84658993     -1.06277761
O      -1.43240782     -1.82104722     -3.30009442
H       1.67973269      0.15663052     -0.56040194
H      -0.04368237      0.07716958     -0.22142173
H       0.82372800     -1.36494531     -0.04190215
H       0.32456082      0.00300500     -2.80162732
H       1.11943131     -1.53996920     -2.62596105
H      -0.80210224     -1.55278101     -3.98397398
11
Frame 160  Energy = -268.5649297474 Hartree
C       0.77281972     -0.48568471     -0.67808401
C       0.43608827     -0.86118846     -2.09657026
C      -0.94145628     -1.56921812     -2.07816170
O      -1.54225530     -1.84602138     -1.06291625
O      -1.43407036     -1.82021201     -3.29832846
H       1.68562211      0.15136420     -0.56259125
H      -0.03579730      0.07735469     -0.22668944
H       0.82371355     -1.35952040     -0.06094407
H       0.32810450     -0.01002273     -2.80414932
H       1.11385103     -1.53543499     -2.62325702
H      -0.80375416     -1.56263269     -3.99742427
11
Frame 165  Energy = -268.5650449282 Hartree
C       0.77312330     -0.48381547     -0.67570222
C       0.43449971     -0.86003131     -2.09809532
C      -0.94290520     -1.57207376     -2.07740656
O      -1.54143471     -1.84548405     -1.06322129
O      -1.43576554     -1.81940852     -3.29664695
H       1.69014769      0.14448400     -0.56532930
H      -0.02820360      0.07802674     -0.23269221
H       0.82467527     -1.35548189     -0.07964857
H       0.33198932     -0.02320105     -2.80500185
H       1.10875020     -1.53117951     -2.61993119
H      -0.80616776     -1.57285898     -4.00975763
11
Frame 170  Energy = -268.5651542787 Hartree
C       0.77361680     -0.48167434     -0.67337714
C       0.43269343     -0.85896812     -2.09969556
C      -0.94417932     -1.57472539     -2.07645004
O      -1.54056321     -1.84495710     -1.06364053
O      -1.43743079     -1.81862065     -3.29515402
H       1.69340900      0.13613915     -0.56854918
H      -0.02153314      0.07970151     -0.23863546
H       0.82657853     -1.35383304     -0.09707918
H       0.33645019     -0.03610791     -2.80465066
H       1.10489286     -1.52750392     -2.61596160
H      -0.80967221     -1.58346718     -4.02000401
11
Frame 175  Energy = -268.5650173392 Hartree
C       0.77444372     -0.47920964     -0.67122553
C       0.43070012     -0.85787961     -2.10136072
C      -0.94518879     -1.57724058     -2.07530933
O      -1.53963048     -1.84437293     -1.06422281
O      -1.43914353     -1.81788714     -3.29397129
H       1.69509346      0.12650297     -0.57229708
H      -0.01628739      0.08265535     -0.24411285
H       0.82961887     -1.35517390     -0.11235083
H       0.34120273     -0.04808579     -2.80348115
H       1.10246501     -1.52442681     -2.61107249
H      -0.81415658     -1.59434448     -4.02775949
11
Frame 180  Energy = -268.5647696536 Hartree
C       0.77560418     -0.47640067     -0.66928429
C       0.42840145     -0.85686009     -2.10309794
C      -0.94602110     -1.57954568     -2.07395433
O      -1.53869944     -1.84365178     -1.06500425
O      -1.44092289     -1.81727160     -3.29304035
H       1.69590916      0.11543744     -0.57660318
H      -0.01270366      0.08710613     -0.24912684
H       0.83406752     -1.35973177     -0.12537776
H       0.34601461     -0.05816068     -2.80216519
H       1.10167970     -1.52255144     -2.60556067
H      -0.81970627     -1.60521495     -4.03295649
11
Frame 185  Energy = -268.5648922815 Hartree
C       0.77696534     -0.47339183     -0.66757775
C       0.42587297     -0.85604208     -2.10471158
C      -0.94657002     -1.58162952     -2.07242346
O      -1.53776373     -1.84282800     -1.06593272
O      -1.44270049     -1.81671052     -3.29235909
H       1.69638810      0.10341339     -0.58113338
H      -0.01118730      0.09297940     -0.25312134
H       0.83957955     -1.36779222     -0.13597904
H       0.35050527     -0.06589823     -2.80143251
H       1.10265132     -1.52186992     -2.59998061
H      -0.82638226     -1.61651024     -4.03530698
11
Frame 190  Energy = -268.5648778406 Hartree
C       0.77852567     -0.47016852     -0.66620420
C       0.42316851     -0.85550110     -2.10600686
C      -0.94673764     -1.58336932     -2.07074392
O      -1.53683838     -1.84208278     -1.06696099
O      -1.44451681     -1.81626537     -3.29186674
H       1.69728494      0.09107976     -0.58596916
H      -0.01185843      0.10017569     -0.25648002
H       0.84602445     -1.37891295     -0.14395807
H       0.35466576     -0.07061803     -2.80195340
H       1.10517039     -1.52251663     -2.59443154
H      -0.83388056     -1.62767000     -4.03488446
11
Frame 195  Energy = -268.5650757961 Hartree
C       0.78016556     -0.46689562     -0.66516435
C       0.42027322     -0.85522654     -2.10703578
C      -0.94651757     -1.58485559     -2.06901230
O      -1.53595319     -1.84145159     -1.06801257
O      -1.44642753     -1.81588962     -3.29157600
H       1.69857504      0.07870925     -0.59126364
H      -0.01436831      0.10875632     -0.25890515
H       0.85342438     -1.39232360     -0.14921616
H       0.35809761     -0.07167080     -2.80414136
H       1.10940724     -1.52435385     -2.58863235
H      -0.84175872     -1.63877127     -4.03187299
11
Frame 200  Energy = -268.5651851819 Hartree
C       0.78181622     -0.46369226     -0.66452730
C       0.41719932     -0.85515633     -2.10780134
C      -0.94594892     -1.58606132     -2.06730102
O      -1.53507398     -1.84097800     -1.06901011
O      -1.44843381     -1.81558523     -3.29137168
H       1.70093438      0.06686198     -0.59686389
H      -0.01812443      0.11837486     -0.26050304
H       0.86117962     -1.40648057     -0.15242043
H       0.36073480     -0.06946721     -2.80800748
H       1.11515115     -1.52764947     -2.58262771
H      -0.84946295     -1.64967595     -4.02725897
11
Frame 205  Energy = -268.5652128156 Hartree
C       0.78343172     -0.46069395     -0.66419679
C       0.41394643     -0.85536125     -2.10820074
C      -0.94501693     -1.58702578     -2.06581620
O      -1.53428846     -1.84059902     -1.07000511
O      -1.45070450     -1.81531971     -3.29119568
H       1.70485090      0.05617243     -0.60261310
H      -0.02245359      0.12860592     -0.26102034
H       0.86885960     -1.42065832     -0.15390396
H       0.36254882     -0.06429035     -2.81320083
H       1.12220480     -1.53201690     -2.57635457
H      -0.85642299     -1.65991479     -4.02164963
11
Frame 210  Energy = -268.5653767507 Hartree
C       0.78491777     -0.45786519     -0.66403193
C       0.41070830     -0.85570826     -2.10836182
C      -0.94371921     -1.58771372     -2.06457983
O      -1.53356519     -1.84028401     -1.07095415
O      -1.45321634     -1.81519904     -3.29099646
H       1.71088392      0.04700231     -0.60854232
H      -0.02717486      0.13888466     -0.26081639
H       0.87669043     -1.43359395     -0.15415860
H       0.36342700     -0.05628037     -2.81962751
H       1.12996939     -1.53688206     -2.56960075
H      -0.86210147     -1.66916512     -4.01615012
11
Frame 215  Energy = -268.5655287085 Hartree
C       0.78630531     -0.45532650     -0.66405008
C       0.40750273     -0.85626708     -2.10844307
C      -0.94198451     -1.58815434     -2.06368070
O      -1.53286535     -1.84004246     -1.07177251
O      -1.45597978     -1.81522726     -3.29067711
H       1.71900111      0.03967221     -0.61454447
H      -0.03173907      0.14846680     -0.26000753
H       0.88400019     -1.44447990     -0.15370225
H       0.36379172     -0.04624592     -2.82603830
H       1.13795899     -1.54187413     -2.56226709
H      -0.86565582     -1.67766310     -4.01161826
11
Frame 220  Energy = -268.5655888665 Hartree
C       0.78756370     -0.45315847     -0.66430322
C       0.40431122     -0.85694699     -2.10835830
C      -0.93996026     -1.58826844     -2.06290543
O      -1.53220064     -1.83982197     -1.07254261
O      -1.45896249     -1.81539568     -3.29021137
H       1.72913382      0.03391184     -0.62036200
H      -0.03520607      0.15713505     -0.25865200
H       0.89067371     -1.45282042     -0.15302691
H       0.36362466     -0.03513097     -2.83172641
H       1.14607179     -1.54648511     -2.55429364
H      -0.86646786     -1.68536115     -4.00835452
11
Frame 225  Energy = -268.5655798767 Hartree
C       0.78869090     -0.45134133     -0.66470285
C       0.40126282     -0.85769301     -2.10818077
C      -0.93765430     -1.58802617     -2.06230954
O      -1.53160297     -1.83959480     -1.07316843
O      -1.46216430     -1.81569749     -3.28959862
H       1.74068646      0.02957379     -0.62637064
H      -0.03719237      0.16473702     -0.25691857
H       0.89697124     -1.45785031     -0.15220612
H       0.36304714     -0.02375339     -2.83655507
H       1.15365713     -1.55076165     -2.54571765
H      -0.86442119     -1.69185305     -4.00656324
11
Frame 230  Energy = -268.5656931468 Hartree
C       0.78974591     -0.44984382     -0.66519249
C       0.39837931     -0.85844142     -2.10794215
C      -0.93516334     -1.58751474     -2.06207609
O      -1.53118172     -1.83936272     -1.07365431
O      -1.46560608     -1.81615785     -3.28883524
H       1.75319555      0.02654677     -0.63245676
H      -0.03733715      0.17123900     -0.25481961
H       0.90251315     -1.45910243     -0.15130372
H       0.36214573     -0.01290859     -2.84029080
H       1.16040460     -1.55416744     -2.53648167
H      -0.86022589     -1.69758884     -4.00657405
11
Frame 235  Energy = -268.5656541139 Hartree
C       0.79069512     -0.44868255     -0.66577982
C       0.39565784     -0.85920474     -2.10770146
C      -0.93246143     -1.58679262     -2.06220713
O      -1.53085219     -1.83918347     -1.07400650
O      -1.46914561     -1.81663051     -3.28803205
H       1.76631468      0.02444072     -0.63829658
H      -0.03534724      0.17619713     -0.25267062
H       0.90705091     -1.45639288     -0.15093874
H       0.36086720     -0.00336435     -2.84218334
H       1.16603375     -1.55653962     -2.52622325
H      -0.85381104     -1.70255024     -4.00744464
11
Frame 240  Energy = -268.5655755632 Hartree
C       0.79154547     -0.44786547     -0.66651319
C       0.39317528     -0.85989917     -2.10758477
C      -0.92959392     -1.58581373     -2.06269441
O      -1.53061578     -1.83909142     -1.07429657
O      -1.47288798     -1.81714661     -3.28714606
H       1.77933387      0.02320040     -0.64389895
H      -0.03082723      0.17965012     -0.25070059
H       0.91067548     -1.44972030     -0.15083486
H       0.35927873      0.00419476     -2.84202039
H       1.17013245     -1.55798997     -2.51531101
H      -0.84592589     -1.70678616     -4.00894504
11
Frame 245  Energy = -268.5652597981 Hartree
C       0.79239740     -0.44725819     -0.66724222
C       0.39099088     -0.86054103     -2.10759912
C      -0.92662308     -1.58461237     -2.06352941
O      -1.53050444     -1.83909152     -1.07457086
O      -1.47672125     -1.81779103     -3.28623224
H       1.79150763      0.02237184     -0.64980800
H      -0.02370308      0.18179034     -0.24872204
H       0.91340230     -1.43968438     -0.15079550
H       0.35747780      0.00965285     -2.83933372
H       1.17283280     -1.55831804     -2.50362842
H      -0.83729821     -1.71054411     -4.01035126
11
Frame 250  Energy = -268.5653565370 Hartree
C       0.79326694     -0.44689513     -0.66800720
C       0.38898295     -0.86109798     -2.10769644
C      -0.92370423     -1.58323933     -2.06462410
O      -1.53035756     -1.83925425     -1.07473314
O      -1.48057289     -1.81849127     -3.28541083
H       1.80199805      0.02189815     -0.65593001
H      -0.01411875      0.18290359     -0.24637922
H       0.91527012     -1.42648565     -0.15072420
H       0.35540347      0.01296481     -2.83427651
H       1.17384071     -1.55750638     -2.49125649
H      -0.82883100     -1.71390807     -4.01062261
11
Frame 255  Energy = -268.5657473835 Hartree
C       0.79419985     -0.44673233     -0.66884766
C       0.38725346     -0.86153898     -2.10785114
C      -0.92090672     -1.58181627     -2.06587995
O      -1.53021946     -1.83955281     -1.07481163
O      -1.48437998     -1.81914487     -3.28463442
H       1.81011210      0.02137572     -0.66217490
H      -0.00240810      0.18303160     -0.24388222
H       0.91588335     -1.41138237     -0.15051382
H       0.35326894      0.01382219     -2.82745023
H       1.17348666     -1.55554916     -2.47903191
H      -0.82119562     -1.71691327     -4.00916668
11
Frame 260  Energy = -268.5656067607 Hartree
C       0.79521016     -0.44670320     -0.66985273
C       0.38588859     -0.86185021     -2.10795757
C      -0.91828210     -1.58026474     -2.06737744
O      -1.53006675     -1.83992949     -1.07481216
O      -1.48812138     -1.81990139     -3.28396504
H       1.81555232      0.02066224     -0.66841959
H       0.01082042      0.18231152     -0.24109997
H       0.91574025     -1.39504492     -0.14937333
H       0.35076297      0.01212423     -2.81887571
H       1.17228970     -1.55256342     -2.46723895
H      -0.81453540     -1.71980299     -4.00583119
11
Frame 265  Energy = -268.5656748395 Hartree
C       0.79648454     -0.44666417     -0.67105146
C       0.38483278     -0.86193372     -2.10808539
C      -0.91576212     -1.57855885     -2.06910590
O      -1.52990611     -1.84042128     -1.07478225
O      -1.49169640     -1.82074627     -3.28340701
H       1.81830780      0.01970010     -0.67475225
H       0.02494884      0.18091897     -0.23785297
H       0.91494634     -1.37803633     -0.14717837
H       0.34805315      0.00815212     -2.80893755
H       1.16998382     -1.54889228     -2.45596301
H      -0.80966237     -1.72281196     -4.00004901
11
Frame 270  Energy = -268.5657487162 Hartree
C       0.79803844     -0.44656504     -0.67241173
C       0.38406611     -0.86184435     -2.10799316
C      -0.91345627     -1.57677328     -2.07093829
O      -1.52981038     -1.84104143     -1.07480103
O      -1.49515487     -1.82163436     -3.28296590
H       1.81847688      0.01867892     -0.68147035
H       0.03951689      0.17964874     -0.23408826
H       0.91401824     -1.36144787     -0.14348837
H       0.34552092      0.00210870     -2.79832799
H       1.16689043     -1.54492917     -2.44573482
H      -0.80692672     -1.72580748     -3.99205628
11
Frame 275  Energy = -268.5655202146 Hartree
C       0.79973344     -0.44638135     -0.67400781
C       0.38361676     -0.86161773     -2.10769586
C      -0.91144956     -1.57494131     -2.07275025
O      -1.52980175     -1.84166625     -1.07490889
O      -1.49840453     -1.82247001     -3.28264815
H       1.81598622      0.01743034     -0.68840180
H       0.05421836      0.17938488     -0.22961189
H       0.91307047     -1.34616812     -0.13747146
H       0.34274470     -0.00523067     -2.78712449
H       1.16326613     -1.54097446     -2.43640494
H      -0.80656510     -1.72876589     -3.98191503
11
Frame 280  Energy = -268.5654640249 Hartree
C       0.80164401     -0.44620681     -0.67590908
C       0.38338794     -0.86124831     -2.10723116
C      -0.90976358     -1.57311004     -2.07451718
O      -1.52972249     -1.84231605     -1.07508575
O      -1.50151140     -1.82333594     -3.28238500
H       1.81101122      0.01596951     -0.69510350
H       0.06876103      0.18019072     -0.22398630
H       0.91178256     -1.33284738     -0.12935148
H       0.33982425     -0.01312379     -2.77556297
H       1.15941098     -1.53743768     -2.42825156
H      -0.80809721     -1.73207662     -3.97006661
11
Frame 285  Energy = -268.5654712089 Hartree
C       0.80378444     -0.44599891     -0.67819329
C       0.38337221     -0.86091952     -2.10653437
C      -0.90856584     -1.57130220     -2.07625495
O      -1.52959383     -1.84297288     -1.07536864
O      -1.50452132     -1.82423552     -3.28225824
H       1.80409770      0.01405429     -0.70142737
H       0.08258196      0.18201192     -0.21766524
H       0.91056643     -1.32231819     -0.11896421
H       0.33698226     -0.02070684     -2.76438350
H       1.15581257     -1.53454709     -2.42160710
H      -0.81114890     -1.73530782     -3.95755423
11
Frame 290  Energy = -268.5655150678 Hartree
C       0.80616790     -0.44570670     -0.68089723
C       0.38354485     -0.86057627     -2.10561052
C      -0.90783838     -1.56959958     -2.07787218
O      -1.52943512     -1.84363717     -1.07573019
O      -1.50734846     -1.82514083     -3.28222883
H       1.79611334      0.01217014     -0.70803201
H       0.09516896      0.18472744     -0.21018419
H       0.90928797     -1.31501655     -0.10637780
H       0.33444496     -0.02709171     -2.75456253
H       1.15295926     -1.53245475     -2.41651223
H      -0.81507835     -1.73845001     -3.94515674
11
Frame 295  Energy = -268.5655293517 Hartree
C       0.80868492     -0.44540045     -0.68387441
C       0.38382873     -0.86010253     -2.10435198
C      -0.90764694     -1.56803578     -2.07932910
O      -1.52926317     -1.84436011     -1.07623446
O      -1.51003095     -1.82611740     -3.28213555
H       1.78773102      0.01074079     -0.71487708
H       0.10621070      0.18906682     -0.20191830
H       0.90806150     -1.31041006     -0.09145775
H       0.33181675     -0.03159425     -2.74664171
H       1.15088598     -1.53161554     -2.41312604
H      -0.81932913     -1.74121888     -3.93369788
11
Frame 300  Energy = -268.5655179084 Hartree
C       0.81128170     -0.44506946     -0.68704647
C       0.38431027     -0.85956869     -2.10277810
C      -0.90798375     -1.56664572     -2.08062786
O      -1.52908987     -1.84508173     -1.07692130
O      -1.51269125     -1.82713064     -3.28195496
H       1.77947450      0.01016673     -0.72198296
H       0.11560960      0.19456819     -0.19319425
H       0.90684517     -1.30810023     -0.07500076
H       0.32914082     -0.03370650     -2.74142688
H       1.14996455     -1.53216487     -2.41150749
H      -0.82309787     -1.74369520     -3.92414890
