11
Frame 5  Energy = -268.5553288966 Hartree
C       0.76953774     -0.58104810     -0.52136296
C       0.39337480     -0.80414949     -1.97244607
C      -0.90662015     -1.55880619     -2.11198716
O      -1.61264991     -1.95449430     -1.19329276
O      -1.20627584     -1.73417818     -3.42116374
H       1.71609966     -0.02988587     -0.45867109
H       0.01457332     -0.00845231     -0.00135448
H       0.87785396     -1.51234374     -0.00040372
H       0.29048730      0.14375706     -2.48620735
H       1.16688917     -1.38281281     -2.46898046
H      -0.53019870     -1.35743655     -4.00997920
11
Frame 10  Energy = -268.5553267691 Hartree
C       0.77019314     -0.58099279     -0.52261754
C       0.39480712     -0.80241282     -1.97071106
C      -0.90548315     -1.56171477     -2.11272745
O      -1.61404190     -1.95386297     -1.19288826
O      -1.20658510     -1.73340159     -3.41933198
H       1.71687158     -0.02527925     -0.46480897
H       0.02873766     -0.01653270     -0.00278338
H       0.87271302     -1.49272485     -0.00923114
H       0.29091931      0.12671947     -2.49679671
H       1.15402441     -1.38051434     -2.47120034
H      -0.53775456     -1.37018813     -4.00834509
11
Frame 15  Energy = -268.5548831984 Hartree
C       0.77086514     -0.58059500     -0.52399097
C       0.39613769     -0.80071008     -1.96885561
C      -0.90450029     -1.56471484     -2.11317269
O      -1.61520361     -1.95300473     -1.19287542
O      -1.20708935     -1.73268196     -3.41750327
H       1.71735077     -0.02110438     -0.47077005
H       0.04192168     -0.02371207     -0.00376895
H       0.86815515     -1.47599661     -0.01690847
H       0.29158446      0.11065258     -2.50830878
H       1.14212409     -1.37861323     -2.47391226
H      -0.54563796     -1.38286699     -4.00581808
11
Frame 20  Energy = -268.5550998006 Hartree
C       0.77173155     -0.57975478     -0.52563295
C       0.39736901     -0.79907790     -1.96690306
C      -0.90356750     -1.56777194     -2.11335018
O      -1.61616076     -1.95200378     -1.19322383
O      -1.20774808     -1.73213324     -3.41561018
H       1.71733802     -0.01778362     -0.47687508
H       0.05303752     -0.02930959     -0.00412137
H       0.86451312     -1.46368392     -0.02226532
H       0.29218068      0.09624731     -2.52074802
H       1.13163826     -1.37757702     -2.47747488
H      -0.55232942     -1.39483600     -4.00343168
11
Frame 25  Energy = -268.5553920276 Hartree
C       0.77299095     -0.57845461     -0.52754000
C       0.39840377     -0.79749364     -1.96474490
C      -0.90270587     -1.57077202     -2.11326757
O      -1.61687970     -1.95097706     -1.19393677
O      -1.20860892     -1.73182949     -3.41366260
H       1.71662908     -0.01542477     -0.48285397
H       0.06098207     -0.03239950     -0.00289220
H       0.86207153     -1.45734631     -0.02459820
H       0.29266311      0.08480294     -2.53422146
H       1.12320617     -1.37771047     -2.48216090
H      -0.55711125     -1.40600138     -4.00199327
11
Frame 30  Energy = -268.5553813853 Hartree
C       0.77454105     -0.57670248     -0.52978279
C       0.39934440     -0.79605719     -1.96245244
C      -0.90201411     -1.57369596     -2.11297394
O      -1.61738565     -1.94985251     -1.19499828
O      -1.20969108     -1.73176054     -3.41159160
H       1.71531612     -0.01381560     -0.48890264
H       0.06540438     -0.03276257      0.00009599
H       0.86077162     -1.45689844     -0.02393551
H       0.29313518      0.07640931     -2.54887224
H       1.11677628     -1.37904882     -2.48819449
H      -0.55942126     -1.41601238     -4.00161683
11
Frame 35  Energy = -268.5554711935 Hartree
C       0.77645261     -0.57460865     -0.53231247
C       0.40009488     -0.79486180     -1.95993692
C      -0.90144537     -1.57649079     -2.11232014
O      -1.61766653     -1.94870124     -1.19638223
O      -1.21108027     -1.73180812     -3.40937269
H       1.71386126     -0.01260385     -0.49467868
H       0.06645547     -0.03053524      0.00488988
H       0.86055145     -1.46254952     -0.02047049
H       0.29340786      0.07113067     -2.56414941
H       1.11264549     -1.38173458     -2.49496844
H      -0.55910852     -1.42511196     -4.00282719
11
Frame 40  Energy = -268.5556249505 Hartree
C       0.77861419     -0.57218664     -0.53511264
C       0.40060103     -0.79395161     -1.95738276
C      -0.90097687     -1.57904354     -2.11142178
O      -1.61772703     -1.94747204     -1.19809365
O      -1.21285505     -1.73203849     -3.40710116
H       1.71237857     -0.01204237     -0.50023828
H       0.06441053     -0.02555102      0.01129814
H       0.86142214     -1.47340259     -0.01504114
H       0.29324011      0.06856607     -2.57973851
H       1.11071986     -1.38536485     -2.50229993
H      -0.55618311     -1.43324160     -4.00534344
11
Frame 45  Energy = -268.5556333813 Hartree
C       0.78093699     -0.56954992     -0.53803107
C       0.40088460     -0.79314963     -1.95493442
C      -0.90053132     -1.58146119     -2.11029112
O      -1.61754088     -1.94606525     -1.19997471
O      -1.21491760     -1.73243310     -3.40481064
H       1.71124715     -0.01202367     -0.50505255
H       0.05968110     -0.01860637      0.01849056
H       0.86327308     -1.48804175     -0.00843484
H       0.29299468      0.06860969     -2.59531577
H       1.11056615     -1.38993672     -2.50988881
H      -0.55086821     -1.44043460     -4.00881789
11
Frame 50  Energy = -268.5556461192 Hartree
C       0.78332043     -0.56681537     -0.54093182
C       0.40090232     -0.79254451     -1.95252234
C      -0.90011435     -1.58380781     -2.10890214
O      -1.61725034     -1.94461028     -1.20205090
O      -1.21721283     -1.73296182     -3.40241229
H       1.71028253     -0.01230245     -0.50901233
H       0.05344163     -0.01043659      0.02573508
H       0.86581955     -1.50463561     -0.00155967
H       0.29295358      0.07022202     -2.61015100
H       1.11196886     -1.39515793     -2.51733958
H      -0.54354081     -1.44624491     -4.01240755
11
Frame 55  Energy = -268.5552880467 Hartree
C       0.78572478     -0.56400889     -0.54371892
C       0.40075616     -0.79216203     -1.95039963
C      -0.89963423     -1.58597598     -2.10721644
O      -1.61690542     -1.94311079     -1.20439571
O      -1.21966889     -1.73361294     -3.40005614
H       1.70997272     -0.01289761     -0.51218494
H       0.04618603     -0.00168763      0.03294478
H       0.86899851     -1.52184189      0.00520316
H       0.29275478      0.07287462     -2.62376945
H       1.11466127     -1.40036519     -2.52426268
H      -0.53531616     -1.45155545     -4.01548449
11
Frame 60  Energy = -268.5550336835 Hartree
C       0.78813206     -0.56122695     -0.54630681
C       0.40044391     -0.79204353     -1.94858154
C      -0.89923072     -1.58799021     -2.10531739
O      -1.61649124     -1.94157574     -1.20686714
O      -1.22232294     -1.73440902     -3.39785717
H       1.71132424     -0.01339224     -0.51486704
H       0.03860932      0.00701612      0.03943778
H       0.87282902     -1.53791519      0.01089985
H       0.29249045      0.07588403     -2.63551333
H       1.11826790     -1.40574472     -2.52977105
H      -0.52707477     -1.45703223     -4.01747557
11
Frame 65  Energy = -268.5550303585 Hartree
C       0.79048298     -0.55848573     -0.54850820
C       0.39997462     -0.79224700     -1.94721047
C      -0.89884998     -1.58980203     -2.10324694
O      -1.61594700     -1.94003086     -1.20946122
O      -1.22511873     -1.73522544     -3.39580976
H       1.71383479     -0.01337772     -0.51682751
H       0.03193053      0.01537982      0.04430862
H       0.87723268     -1.55157736      0.01479306
H       0.29184249      0.07900174     -2.64482457
H       1.12261079     -1.41051961     -2.53362432
H      -0.51960158     -1.46293584     -4.01788345
11
Frame 70  Energy = -268.5551208411 Hartree
C       0.79271175     -0.55589624     -0.55020954
C       0.39931532     -0.79262903     -1.94637666
C      -0.89849484     -1.59132912     -2.10110370
O      -1.61535303     -1.93849592     -1.21219077
O      -1.22792713     -1.73608540     -3.39386183
H       1.71750919     -0.01339485     -0.51801392
H       0.02647844      0.02268806      0.04706262
H       0.88172845     -1.56201472      0.01648615
H       0.29130752      0.08143190     -2.65161230
H       1.12711695     -1.41454283     -2.53574509
H      -0.51361492     -1.46929319     -4.01616669
11
Frame 75  Energy = -268.5551611093 Hartree
C       0.79478861     -0.55350636     -0.55150523
C       0.39854567     -0.79316186     -1.94612216
C      -0.89812142     -1.59262720     -2.09890416
O      -1.61476265     -1.93696482     -1.21496362
O      -1.23073927     -1.73700599     -3.39206670
H       1.72246240     -0.01323495     -0.51839541
H       0.02282538      0.02845231      0.04780730
H       0.88662640     -1.56821192      0.01606032
H       0.29092922      0.08293312     -2.65534767
H       1.13119246     -1.41739155     -2.53598402
H      -0.50932663     -1.47629609     -4.01217756
11
Frame 80  Energy = -268.5552048826 Hartree
C       0.79675903     -0.55124270     -0.55235965
C       0.39771919     -0.79391168     -1.94646010
C      -0.89758001     -1.59357538     -2.09677457
O      -1.61416356     -1.93547938     -1.21778879
O      -1.23351794     -1.73798202     -3.39052445
H       1.72840501     -0.01298291     -0.51829793
H       0.02128115      0.03270737      0.04656633
H       0.89185552     -1.56982266      0.01307449
H       0.29092223      0.08341747     -2.65601483
H       1.13449646     -1.41859352     -2.53414293
H      -0.50697252     -1.48401053     -4.00605436
11
Frame 85  Energy = -268.5555045816 Hartree
C       0.79861118     -0.54911231     -0.55275129
C       0.39684883     -0.79477139     -1.94735549
C      -0.89687310     -1.59425343     -2.09468452
O      -1.61357761     -1.93408891     -1.22049221
O      -1.23635415     -1.73904913     -3.38923921
H       1.73519904     -0.01201803     -0.51789731
H       0.02199639      0.03510931      0.04273762
H       0.89718021     -1.56678515      0.00776104
H       0.29110740      0.08236673     -2.65344591
H       1.13700143     -1.41841882     -2.53042391
H      -0.50679327     -1.49200728     -3.99774824
11
Frame 90  Energy = -268.5555797640 Hartree
C       0.80042029     -0.54720853     -0.55263594
C       0.39590780     -0.79574827     -1.94872669
C      -0.89599931     -1.59459698     -2.09274058
O      -1.61310554     -1.93280217     -1.22298070
O      -1.23914258     -1.74018356     -3.38818087
H       1.74267949     -0.01098275     -0.51698323
H       0.02457207      0.03562229      0.03646636
H       0.90249527     -1.55922134      0.00004110
H       0.29142656      0.08043861     -2.64792240
H       1.13860568     -1.41694705     -2.52499928
H      -0.50860934     -1.50030961     -3.98763922
11
Frame 95  Energy = -268.5556365721 Hartree
C       0.80213674     -0.54553494     -0.55207724
C       0.39488343     -0.79682813     -1.95058190
C      -0.89487358     -1.59463494     -2.09101005
O      -1.61265821     -1.93165236     -1.22536893
O      -1.24199292     -1.74145257     -3.38722572
H       1.74999076     -0.01007722     -0.51566132
H       0.02926488      0.03425282      0.02819201
H       0.90747971     -1.54769420     -0.00997890
H       0.29179479      0.07772761     -2.63962931
H       1.13954367     -1.41410927     -2.51769516
H      -0.51207657     -1.50876163     -3.97612379
11
Frame 100  Energy = -268.5557998685 Hartree
C       0.80370890     -0.54395391     -0.55107797
C       0.39387057     -0.79803499     -1.95284657
C      -0.89350115     -1.59433921     -2.08949070
O      -1.61229610     -1.93053447     -1.22757625
O      -1.24498510     -1.74283568     -3.38633388
H       1.75700377     -0.00922917     -0.51405852
H       0.03553780      0.03161090      0.01867289
H       0.91244662     -1.53274043     -0.02152472
H       0.29233728      0.07478759     -2.62921505
H       1.13980350     -1.41023800     -2.50900836
H      -0.51625909     -1.51738305     -3.96371570
11
Frame 105  Energy = -268.5558971351 Hartree
C       0.80517322     -0.54239817     -0.54971578
C       0.39289990     -0.79940637     -1.95545887
C      -0.89191517     -1.59368818     -2.08827105
O      -1.61211113     -1.92954569     -1.22954799
O      -1.24792084     -1.74433219     -3.38557537
H       1.76349293     -0.00915722     -0.51225002
H       0.04346999      0.02800012      0.00793052
H       0.91772269     -1.51544490     -0.03402977
H       0.29271629      0.07169556     -2.61684945
H       1.13970096     -1.40548116     -2.49939128
H      -0.52027514     -1.52588602     -3.95171072
11
Frame 110  Energy = -268.5558168966 Hartree
C       0.80659646     -0.54083923     -0.54814748
C       0.39197963     -0.80092068     -1.95829067
C      -0.89014105     -1.59274939     -2.08737302
O      -1.61207386     -1.92879956     -1.23130757
O      -1.25095576     -1.74581395     -3.38487964
H       1.76895745     -0.00929366     -0.51038416
H       0.05233456      0.02402979     -0.00370637
H       0.92331684     -1.49684101     -0.04678055
H       0.29319607      0.06855551     -2.60318369
H       1.13962257     -1.40020746     -2.48911637
H      -0.52345731     -1.53393332     -3.94053930
11
Frame 115  Energy = -268.5554529598 Hartree
C       0.80809383     -0.53914554     -0.54653241
C       0.39107978     -0.80263477     -1.96132373
C      -0.88829870     -1.59161132     -2.08677327
O      -1.61222630     -1.92824365     -1.23285229
O      -1.25416392     -1.74738987     -3.38412646
H       1.77335148     -0.00969104     -0.50841232
H       0.06152720      0.02031999     -0.01542511
H       0.92915540     -1.47804879     -0.05912487
H       0.29345881      0.06653989     -2.58872805
H       1.13991550     -1.39526139     -2.47844344
H      -0.52486556     -1.54109582     -3.93111029
11
Frame 120  Energy = -268.5552840422 Hartree
C       0.80969371     -0.53722192     -0.54489431
C       0.39028041     -0.80455827     -1.96451500
C      -0.88632406     -1.59020585     -2.08642886
O      -1.61259843     -1.92781262     -1.23418230
O      -1.25752215     -1.74906161     -3.38326526
H       1.77679344     -0.01033155     -0.50614239
H       0.06987562      0.01730501     -0.02713056
H       0.93518891     -1.46043465     -0.06980319
H       0.29334175      0.06593151     -2.57429063
H       1.14140857     -1.39058405     -2.46759146
H      -0.52380025     -1.54709562     -3.92382128
11
Frame 125  Energy = -268.5551521641 Hartree
C       0.81140416     -0.53505211     -0.54339967
C       0.38965421     -0.80666110     -1.96773010
C      -0.88417478     -1.58846338     -2.08641663
O      -1.61316686     -1.92747201     -1.23527766
O      -1.26106006     -1.75080416     -3.38237779
H       1.77940208     -0.01077467     -0.50407172
H       0.07644827      0.01561975     -0.03762582
H       0.94158958     -1.44599572     -0.07811259
H       0.29282675      0.06708386     -2.56061321
H       1.14437572     -1.38681684     -2.45724409
H      -0.52045531     -1.55214977     -3.91904086
11
Frame 130  Energy = -268.5552886413 Hartree
C       0.81326108     -0.53264452     -0.54205658
C       0.38912109     -0.80884116     -1.97075581
C      -0.88191944     -1.58659303     -2.08676093
O      -1.61388831     -1.92734325     -1.23609465
O      -1.26474719     -1.75254777     -3.38148878
H       1.78098992     -0.01129712     -0.50197830
H       0.08081673      0.01610316     -0.04617963
H       0.94878675     -1.43594438     -0.08358674
H       0.29191061      0.07050353     -2.54800468
H       1.14902192     -1.38371405     -2.44792382
H      -0.51495923     -1.55629031     -3.91658979
11
Frame 135  Energy = -268.5554827068 Hartree
C       0.81534039     -0.52992205     -0.54103305
C       0.38862338     -0.81111200     -1.97360943
C      -0.87974776     -1.58460129     -2.08745484
O      -1.61468816     -1.92730563     -1.23662438
O      -1.26852069     -1.75428948     -3.38063788
H       1.78139139     -0.01205519     -0.50012021
H       0.08237373      0.01910409     -0.05255491
H       0.95634029     -1.43122338     -0.08566851
H       0.29059714      0.07633004     -2.53694091
H       1.15503457     -1.38161486     -2.43963453
H      -0.50819221     -1.56025250     -3.91653656
11
Frame 140  Energy = -268.5554790106 Hartree
C       0.81759451     -0.52697598     -0.54057996
C       0.38823576     -0.81344813     -1.97618719
C      -0.87767317     -1.58242538     -2.08848674
O      -1.61552439     -1.92738339     -1.23698764
O      -1.27228980     -1.75612567     -3.37978209
H       1.78112899     -0.01254296     -0.49847433
H       0.08099966      0.02461855     -0.05639140
H       0.96408068     -1.43197851     -0.08392642
H       0.28871779      0.08473047     -2.52745887
H       1.16261293     -1.38079627     -2.43269377
H      -0.50091551     -1.56382460     -3.91807461
11
Frame 145  Energy = -268.5555560668 Hartree
C       0.81998173     -0.52390544     -0.54054951
C       0.38792740     -0.81578259     -1.97846462
C      -0.87574622     -1.58008432     -2.08971605
O      -1.61647374     -1.92764048     -1.23710731
O      -1.27598346     -1.75796025     -3.37887810
H       1.78031713     -0.01269688     -0.49726570
H       0.07688205      0.03229796     -0.05799946
H       0.97199799     -1.43793292     -0.07849823
H       0.28660191      0.09499869     -2.51929598
H       1.17161578     -1.38145490     -2.42761679
H      -0.49400212     -1.56720616     -3.92081068
11
Frame 150  Energy = -268.5555607361 Hartree
C       0.82242985     -0.52065071     -0.54092650
C       0.38775801     -0.81802765     -1.98044364
C      -0.87415813     -1.57770036     -2.09109349
O      -1.61741372     -1.92795830     -1.23703646
O      -1.27945951     -1.75978928     -3.37801178
H       1.77914959     -0.01230913     -0.49693260
H       0.07037630      0.04141322     -0.05743963
H       0.97985740     -1.44833701     -0.06992227
H       0.28460086      0.10695295     -2.51237359
H       1.18216006     -1.38318315     -2.42438325
H      -0.48800931     -1.57093398     -3.92404150
11
Frame 155  Energy = -268.5556908798 Hartree
C       0.82498142     -0.51742942     -0.54155695
C       0.38773805     -0.82021209     -1.98200115
C      -0.87297527     -1.57529730     -2.09267419
O      -1.61838125     -1.92829861     -1.23681006
O      -1.28261846     -1.76158536     -3.37730606
H       1.77797896     -0.01086409     -0.49711029
H       0.06236006      0.05156862     -0.05495528
H       0.98759698     -1.46122707     -0.05894459
H       0.28259687      0.11975421     -2.50657675
H       1.19360629     -1.38573842     -2.42284304
H      -0.48427416     -1.57503389     -3.92683312
11
Frame 160  Energy = -268.5555707916 Hartree
C       0.82748664     -0.51433251     -0.54233541
C       0.38798638     -0.82228314     -1.98327368
C      -0.87218066     -1.57282951     -2.09435558
O      -1.61931098     -1.92867013     -1.23648980
O      -1.28549270     -1.76338022     -3.37681379
H       1.77700012     -0.00868460     -0.49761716
H       0.05403076      0.06226832     -0.05112223
H       0.99483993     -1.47521789     -0.04636481
H       0.28049002      0.13291447     -2.50158178
H       1.20511346     -1.38867518     -2.42277548
H      -0.48364133     -1.57961337     -3.92910314
11
Frame 165  Energy = -268.5556539097 Hartree
C       0.82988256     -0.51141001     -0.54328359
C       0.38858069     -0.82420280     -1.98436455
C      -0.87175592     -1.57043346     -2.09602217
O      -1.62022580     -1.92901336     -1.23604681
O      -1.28805415     -1.76508909     -3.37650743
H       1.77671525     -0.00600111     -0.49866422
H       0.04594954      0.07289558     -0.04654658
H       1.00125722     -1.48846389     -0.03283403
H       0.27826424      0.14532845     -2.49710979
H       1.21604899     -1.39159774     -2.42403560
H      -0.48632259     -1.58465065     -3.93085345
11
Frame 170  Energy = -268.5557609597 Hartree
C       0.83207897     -0.50880784     -0.54407203
C       0.38949575     -0.82591030     -1.98522291
C      -0.87178860     -1.56807875     -2.09769521
O      -1.62115109     -1.92928109     -1.23548442
O      -1.29029365     -1.76663911     -3.37641675
H       1.77714693     -0.00224985     -0.49999477
H       0.03898213      0.08275953     -0.04154024
H       1.00665016     -1.49993238     -0.01920274
H       0.27615199      0.15643757     -2.49323761
H       1.22583297     -1.39427639     -2.42626352
H      -0.49209433     -1.58993739     -3.93201652
11
Frame 175  Energy = -268.5555464062 Hartree
C       0.83417511     -0.50641920     -0.54474787
C       0.39082362     -0.82736147     -1.98588351
C      -0.87227616     -1.56583715     -2.09937355
O      -1.62190908     -1.92948057     -1.23478775
O      -1.29227132     -1.76814504     -3.37650421
H       1.77827101      0.00309598     -0.50164715
H       0.03391438      0.09125227     -0.03694395
H       1.01092436     -1.50831345     -0.00611949
H       0.27421844      0.16573133     -2.48975076
H       1.23447430     -1.39662125     -2.42932953
H      -0.50088222     -1.59512758     -3.93281456
11
Frame 180  Energy = -268.5556867284 Hartree
C       0.83608836     -0.50439427     -0.54526974
C       0.39254797     -0.82850984     -1.98632130
C      -0.87318814     -1.56372246     -2.10095967
O      -1.62250998     -1.92955596     -1.23398441
O      -1.29400396     -1.76961030     -3.37681732
H       1.77985740      0.00957175     -0.50375043
H       0.03138342      0.09795991     -0.03301203
H       1.01374435     -1.51267081      0.00581847
H       0.27280260      0.17276654     -2.48596628
H       1.24175563     -1.39838046     -2.43299644
H      -0.51219825     -1.60058487     -3.93353902
11
Frame 185  Energy = -268.5557248008 Hartree
C       0.83775733     -0.50269397     -0.54560101
C       0.39463230     -0.82939113     -1.98665448
C      -0.87456577     -1.56179247     -2.10237695
O      -1.62296957     -1.92957138     -1.23316253
O      -1.29553085     -1.77108116     -3.37730168
H       1.78162334      0.01691847     -0.50626597
H       0.03154768      0.10284983     -0.03006836
H       1.01513059     -1.51253017      0.01613253
H       0.27198504      0.17683255     -2.48222851
H       1.24711359     -1.39897438     -2.43690764
H      -0.52528867     -1.60620256     -3.93460933
11
Frame 190  Energy = -268.5557766290 Hartree
C       0.83917615     -0.50142454     -0.54565069
C       0.39720347     -0.83000013     -1.98685069
C      -0.87640267     -1.56000429     -2.10371162
O      -1.62328387     -1.92945992     -1.23228809
O      -1.29685876     -1.77263751     -3.37781751
H       1.78369071      0.02484309     -0.50930854
H       0.03429920      0.10575435     -0.02818716
H       1.01521016     -1.50755400      0.02467097
H       0.27129280      0.17805604     -2.47839942
H       1.24998700     -1.39853635     -2.44092467
H      -0.53952735     -1.61206772     -3.93675672
11
Frame 195  Energy = -268.5558389527 Hartree
C       0.84033332     -0.50053759     -0.54548934
C       0.40028715     -0.83037577     -1.98692640
C      -0.87877618     -1.55842126     -2.10501456
O      -1.62334571     -1.92933785     -1.23140462
O      -1.29808624     -1.77423087     -3.37842659
H       1.78564194      0.03299230     -0.51280537
H       0.03947421      0.10668743     -0.02741272
H       1.01374958     -1.49797882      0.03155142
H       0.27053982      0.17656118     -2.47468966
H       1.25038908     -1.39690417     -2.44496231
H      -0.55359224     -1.61784142     -3.94018816
11
Frame 200  Energy = -268.5559949545 Hartree
C       0.84124068     -0.50000485     -0.54514975
C       0.40380404     -0.83052727     -1.98694383
C      -0.88162653     -1.55713282     -2.10630623
O      -1.62327613     -1.92912982     -1.23053053
O      -1.29929161     -1.77587094     -3.37911730
H       1.78720215      0.04146189     -0.51659063
H       0.04666425      0.10547304     -0.02779859
H       1.01110461     -1.48419519      0.03651603
H       0.27007397      0.17231908     -2.47130888
H       1.24869345     -1.39419069     -2.44930766
H      -0.56632698     -1.62324013     -3.94569143
11
Frame 205  Energy = -268.5562011014 Hartree
C       0.84192353     -0.49973904     -0.54452640
C       0.40766415     -0.83037273     -1.98684951
C      -0.88484274     -1.55607347     -2.10743720
O      -1.62298193     -1.92886031     -1.22958080
O      -1.30046001     -1.77754435     -3.37973240
H       1.78816114      0.04995721     -0.52071776
H       0.05590645      0.10245198     -0.02931835
H       1.00756417     -1.46657494      0.03934835
H       0.26969051      0.16539855     -2.46801562
H       1.24518909     -1.39041454     -2.45391096
H      -0.57723029     -1.62770378     -3.95366693
11
Frame 210  Energy = -268.5563395648 Hartree
C       0.84243386     -0.49966845     -0.54374093
C       0.41181536     -0.82995615     -1.98659268
C      -0.88837028     -1.55521263     -2.10842376
O      -1.62253888     -1.92863310     -1.22866634
O      -1.30171135     -1.77926619     -3.38018969
H       1.78872982      0.05817326     -0.52537143
H       0.06675354      0.09838077     -0.03207410
H       1.00318097     -1.44580437      0.04095046
H       0.26954898      0.15668677     -2.46515838
H       1.24008032     -1.38581302     -2.45871084
H      -0.58568424     -1.63144738     -3.96423757
11
Frame 215  Energy = -268.5564037883 Hartree
C       0.84284825     -0.49973166     -0.54289604
C       0.41619292     -0.82939989     -1.98615401
C      -0.89218525     -1.55457937     -2.10921391
O      -1.62187928     -1.92831167     -1.22772269
O      -1.30303684     -1.78099959     -3.38047634
H       1.78837823      0.06564944     -0.53083674
H       0.07881050      0.09336302     -0.03574017
H       0.99828653     -1.42313485      0.04135723
H       0.26981577      0.14671605     -2.46253765
H       1.23350087     -1.38058691     -2.46406101
H      -0.59191088     -1.63465350     -3.97725638
11
Frame 220  Energy = -268.5561497796 Hartree
C       0.84316409     -0.49985423     -0.54197781
C       0.42075559     -0.82866265     -1.98548209
C      -0.89627736     -1.55415780     -2.10993108
O      -1.62109003     -1.92790430     -1.22679645
O      -1.30444950     -1.78278665     -3.38066953
H       1.78641493      0.07235260     -0.53653179
H       0.09076359      0.08791036     -0.03980501
H       0.99328201     -1.39957029      0.04116432
H       0.27063774      0.13585275     -2.46075428
H       1.22603540     -1.37512067     -2.47027976
H      -0.59650099     -1.63714614     -3.99227956
11
Frame 225  Energy = -268.5561939692 Hartree
C       0.84356805     -0.49998839     -0.54106178
C       0.42537360     -0.82782746     -1.98456983
C      -0.90055485     -1.55394426     -2.11057280
O      -1.62024749     -1.92743500     -1.22591561
O      -1.30586473     -1.78456867     -3.38080441
H       1.78313118      0.07835127     -0.54226007
H       0.10189134      0.08270272     -0.04372549
H       0.98860499     -1.37634741      0.04145831
H       0.27185006      0.12465152     -2.46028322
H       1.21833635     -1.37006770     -2.47753593
H      -0.60021115     -1.63913147     -4.00841342
11
Frame 230  Energy = -268.5561146708 Hartree
C       0.84406835     -0.50008952     -0.54027788
C       0.42991656     -0.82689199     -1.98349184
C      -0.90503798     -1.55388515     -2.11118977
O      -1.61932059     -1.92691563     -1.22507758
O      -1.30728577     -1.78629248     -3.38104380
H       1.77869875      0.08384841     -0.54799325
H       0.11188875      0.07844670     -0.04704747
H       0.98442704     -1.35516290      0.04274660
H       0.27356339      0.11403492     -2.46130286
H       1.21095000     -1.36564504     -2.48590469
H      -0.60330669     -1.64066358     -4.02453028
11
Frame 235  Energy = -268.5561877703 Hartree
C       0.84473565     -0.50009485     -0.53978912
C       0.43438164     -0.82591631     -1.98221209
C      -0.90963581     -1.55391208     -2.11175008
O      -1.61821416     -1.92631694     -1.22419476
O      -1.30869200     -1.78805440     -3.38138986
H       1.77346496      0.08881829     -0.55329247
H       0.11971547      0.07565802     -0.04955177
H       0.98117821     -1.33740316      0.04573347
H       0.27565230      0.10499506     -2.46411169
H       1.20426990     -1.36208806     -2.49505843
H      -0.60642350     -1.64165493     -4.03976249
11
Frame 240  Energy = -268.5563043066 Hartree
C       0.84551040     -0.49986105     -0.53965039
C       0.43864973     -0.82498978     -1.98055561
C      -0.91413588     -1.55409257     -2.11217316
O      -1.61699425     -1.92567177     -1.22330435
O      -1.30997371     -1.78985295     -3.38186855
H       1.76764364      0.09286455     -0.55797555
H       0.12493842      0.07511588     -0.05090293
H       0.97912558     -1.32429309      0.05134585
H       0.27801865      0.09803559     -2.46904912
H       1.19870011     -1.35944276     -2.50501555
H      -0.61090250     -1.64242700     -4.05376083
11
Frame 245  Energy = -268.5565636342 Hartree
C       0.84650200     -0.49938319     -0.53993484
C       0.44263682     -0.82408810     -1.97859018
C      -0.91844867     -1.55430437     -2.11258438
O      -1.61568969     -1.92493456     -1.22235435
O      -1.31118691     -1.79167718     -3.38246544
H       1.76142476      0.09622940     -0.56233159
H       0.12726281      0.07678938     -0.05089187
H       0.97855942     -1.31674915      0.05997608
H       0.28012136      0.09340950     -2.47593117
H       1.19443158     -1.35797353     -2.51563445
H      -0.61659100     -1.64331573     -4.06562746
11
Frame 250  Energy = -268.5562509973 Hartree
C       0.84768545     -0.49866491     -0.54052162
C       0.44642948     -0.82334233     -1.97632488
C      -0.92264288     -1.55460401     -2.11303812
O      -1.61438069     -1.92416650     -1.22131879
O      -1.31232122     -1.79349770     -3.38328153
H       1.75495700      0.09903188     -0.56699218
H       0.12639004      0.08100258     -0.04980708
H       0.97943434     -1.31469282      0.07163890
H       0.28223234      0.09140157     -2.48474257
H       1.19173709     -1.35774205     -2.52681681
H      -0.62390660     -1.64423517     -4.07494976
11
Frame 255  Energy = -268.5562585574 Hartree
C       0.84900830     -0.49774884     -0.54152104
C       0.45004398     -0.82269824     -1.97388580
C      -0.92651702     -1.55489604     -2.11358096
O      -1.61304021     -1.92339414     -1.22017759
O      -1.31335713     -1.79529436     -3.38440414
H       1.74894008      0.10173425     -0.57150150
H       0.12277633      0.08710666     -0.04782063
H       0.98144140     -1.31786476      0.08586165
H       0.28425356      0.09174005     -2.49531033
H       1.19030082     -1.35848444     -2.53854262
H      -0.63288703     -1.64456913     -4.08112162
11
Frame 260  Energy = -268.5563138517 Hartree
C       0.85046610     -0.49668164     -0.54290138
C       0.45324348     -0.82208692     -1.97124378
C      -0.93004929     -1.55517938     -2.11416287
O      -1.61176569     -1.92264046     -1.21898240
O      -1.31432123     -1.79703702     -3.38570270
H       1.74383596      0.10460842     -0.57587689
H       0.11641614      0.09508493     -0.04496389
H       0.98443484     -1.32496014      0.10176492
H       0.28661131      0.09437945     -2.50729044
H       1.18973055     -1.35975190     -2.55014210
H      -0.64352498     -1.64455765     -4.08440914
11
Frame 265  Energy = -268.5562597781 Hartree
C       0.85185569     -0.49556016     -0.54438692
C       0.45607432     -0.82156009     -1.96856029
C      -0.93316173     -1.55532451     -2.11480386
O      -1.61051815     -1.92187634     -1.21769222
O      -1.31528903     -1.79882877     -3.38714919
H       1.73962220      0.10752812     -0.57992099
H       0.10819276      0.10411008     -0.04174279
H       0.98814147     -1.33482690      0.11819527
H       0.28911368      0.09805006     -2.52017593
H       1.18997389     -1.36162668     -2.56147220
H      -0.65535896     -1.64442849     -4.08489871
11
Frame 270  Energy = -268.5562835225 Hartree
C       0.85316153     -0.49439972     -0.54581994
C       0.45854184     -0.82114043     -1.96604350
C      -0.93576425     -1.55538362     -2.11551725
O      -1.60933100     -1.92106104     -1.21628164
O      -1.31619813     -1.80061290     -3.38869736
H       1.73676889      0.11039676     -0.58331482
H       0.09924490      0.11372967     -0.03877592
H       0.99246518     -1.34615683      0.13412983
H       0.29210431      0.10217687     -2.53356543
H       1.19076101     -1.36410359     -2.57185695
H      -0.66756144     -1.64374968     -4.08327685
11
Frame 275  Energy = -268.5563628047 Hartree
C       0.85432795     -0.49324968     -0.54708535
C       0.46060892     -0.82080697     -1.96372773
C      -0.93783191     -1.55543992     -2.11634910
O      -1.60822609     -1.92023210     -1.21473995
O      -1.31719717     -1.80240033     -3.39016396
H       1.73540005      0.11354602     -0.58637778
H       0.09000278      0.12299200     -0.03623316
H       0.99716279     -1.35762649      0.14832264
H       0.29577429      0.10611868     -2.54655663
H       1.19178470     -1.36673432     -2.58134856
H      -0.67958569     -1.64223924     -4.08031334
11
Frame 280  Energy = -268.5563245830 Hartree
C       0.85531324     -0.49217918     -0.54815449
C       0.46228581     -0.82047854     -1.96166815
C      -0.93934279     -1.55539946     -2.11722324
O      -1.60722118     -1.91938450     -1.21320397
O      -1.31837025     -1.80424427     -3.39158589
H       1.73554570      0.11685015     -0.58870623
H       0.08147163      0.13133025     -0.03469400
H       1.00196935     -1.36786554      0.16003087
H       0.29976771      0.10945193     -2.55854261
H       1.19304048     -1.36932144     -2.58988125
H      -0.69045398     -1.63942537     -4.07680212
11
Frame 285  Energy = -268.5564541538 Hartree
C       0.85610513     -0.49115226     -0.54894111
C       0.46367404     -0.82016682     -1.96003759
C      -0.94035082     -1.55515929     -2.11816947
O      -1.60632516     -1.91846623     -1.21160004
O      -1.31972408     -1.80615900     -3.39300606
H       1.73744524      0.12045440     -0.59034285
H       0.07404032      0.13797065     -0.03469407
H       1.00660864     -1.37596019      0.16867938
H       0.30438255      0.11216199     -2.56927928
H       1.19400207     -1.37161731     -2.59667573
H      -0.69909428     -1.63582672     -4.07372207
11
Frame 290  Energy = -268.5566572095 Hartree
C       0.85668798     -0.49012858     -0.54932338
C       0.46457191     -0.81991575     -1.95893854
C      -0.94092269     -1.55475350     -2.11921027
O      -1.60552843     -1.91754669     -1.21001566
O      -1.32128002     -1.80813625     -3.39426741
H       1.74101802      0.12390424     -0.59132786
H       0.06848215      0.14256853     -0.03619921
H       1.01098616     -1.38127436      0.17340059
H       0.30952476      0.11331784     -2.57841644
H       1.19487925     -1.37396865     -2.60133502
H      -0.70511725     -1.63131808     -4.07167835
11
Frame 295  Energy = -268.5568234548 Hartree
C       0.85709217     -0.48917967     -0.54924705
C       0.46510314     -0.81978492     -1.95829059
C      -0.94109471     -1.55423635     -2.12032603
O      -1.60478363     -1.91660135     -1.20831475
O      -1.32305477     -1.81019010     -3.39531767
H       1.74569229      0.12718105     -0.59182725
H       0.06493896      0.14529976     -0.03956203
H       1.01538300     -1.38350579      0.17391714
H       0.31515103      0.11305898     -2.58547973
H       1.19498721     -1.37619423     -2.60345565
H      -0.70799685     -1.62548536     -4.07124544
11
Frame 300  Energy = -268.5568461368 Hartree
C       0.85730810     -0.48821634     -0.54877742
C       0.46530996     -0.81971486     -1.95822743
C      -0.94092878     -1.55356054     -2.12137277
O      -1.60410037     -1.91560711     -1.20652195
O      -1.32502790     -1.81234929     -3.39605324
H       1.75090010      0.13009487     -0.59175257
H       0.06335164      0.14593696     -0.04451651
H       1.01951419     -1.38244992      0.17071013
H       0.32114000      0.11151394     -2.59031505
H       1.19416476     -1.37785790     -2.60287827
H      -0.70780908     -1.61838353     -4.07265073
