11
Frame 5  Energy = -268.5697267747 Hartree
C       0.81393632     -0.44476730     -0.69030676
C       0.38505030     -0.85913996     -2.10073473
C      -0.90883113     -1.56537322     -2.08165442
O      -1.52875691     -1.84576077     -1.07778534
O      -1.51536282     -1.82814684     -3.28163170
H       1.77246432      0.01044471     -0.72929224
H       0.12366972      0.20142519     -0.18420866
H       0.90604200     -1.30747684     -0.05749631
H       0.32646288     -0.03328601     -2.73908110
H       1.15031050     -1.53425126     -2.41154842
H      -0.82523954     -1.74549481     -3.91708984
11
Frame 10  Energy = -268.5696083209 Hartree
C       0.81654828     -0.44454729     -0.69357002
C       0.38597392     -0.85877803     -2.09832282
C      -0.91017412     -1.56420432     -2.08239576
O      -1.52829270     -1.84638275     -1.07875121
O      -1.51802741     -1.82922900     -3.28108576
H       1.76747242      0.01189468     -0.73659862
H       0.13081931      0.20904786     -0.17510999
H       0.90531041     -1.30835100     -0.03938383
H       0.32379699     -0.02997203     -2.73961153
H       1.15166315     -1.53778734     -2.41372666
H      -0.82557061     -1.74668883     -3.91385720
11
Frame 15  Energy = -268.5696694721 Hartree
C       0.81900569     -0.44444059     -0.69684618
C       0.38702652     -0.85854895     -2.09553958
C      -0.91204205     -1.56318507     -2.08292899
O      -1.52780074     -1.84692255     -1.07990940
O      -1.52076879     -1.83030760     -3.28030911
H       1.76492862      0.01495480     -0.74364127
H       0.13743298      0.21728897     -0.16657411
H       0.90454176     -1.30984166     -0.02171273
H       0.32170366     -0.02397842     -2.74254065
H       1.15367769     -1.54248551     -2.41769107
H      -0.82407446     -1.74799727     -3.91416747
11
Frame 20  Energy = -268.5695213722 Hartree
C       0.82129637     -0.44450929     -0.69995232
C       0.38820606     -0.85845141     -2.09232286
C      -0.91434851     -1.56228350     -2.08316037
O      -1.52738645     -1.84741962     -1.08121213
O      -1.52347199     -1.83139045     -3.27939027
H       1.76509100      0.01940445     -0.75083704
H       0.14398676      0.22588385     -0.15863107
H       0.90383666     -1.31088301     -0.00518063
H       0.32001380     -0.01610125     -2.74732620
H       1.15603943     -1.54782598     -2.42338183
H      -0.82116900     -1.74921205     -3.91747653
11
Frame 25  Energy = -268.5695235962 Hartree
C       0.82331412     -0.44472605     -0.70280151
C       0.38945928     -0.85837885     -2.08878281
C      -0.91701111     -1.56155568     -2.08307367
O      -1.52692643     -1.84788838     -1.08254042
O      -1.52613607     -1.83252124     -3.27847195
H       1.76791452      0.02539852     -0.75813325
H       0.15059613      0.23444833     -0.15210481
H       0.90329106     -1.31077606      0.00967656
H       0.31829327     -0.00695749     -2.75311654
H       1.15820653     -1.55281295     -2.43072998
H      -0.81756483     -1.75040609     -3.92339033
11
Frame 30  Energy = -268.5694665561 Hartree
C       0.82517862     -0.44506289     -0.70534571
C       0.39080758     -0.85827285     -2.08508770
C      -0.92003420     -1.56085597     -2.08273626
O      -1.52638478     -1.84829944     -1.08388234
O      -1.52870171     -1.83366882     -3.27753551
H       1.77337372      0.03218248     -0.76545164
H       0.15750806      0.24268898     -0.14731597
H       0.90288572     -1.30941960      0.02196324
H       0.31654475      0.00252473     -2.75948738
H       1.16009775     -1.55785567     -2.43895855
H      -0.81390082     -1.75165969     -3.93141988
11
Frame 35  Energy = -268.5694734965 Hartree
C       0.82679283     -0.44558491     -0.70748239
C       0.39229870     -0.85811946     -2.08133530
C      -0.92329087     -1.56011666     -2.08220998
O      -1.52585966     -1.84864694     -1.08521640
O      -1.53110692     -1.83474857     -3.27663802
H       1.78065434      0.03975581     -0.77298046
H       0.16466522      0.25010043     -0.14466647
H       0.90254766     -1.30605687      0.03122377
H       0.31517570      0.01137450     -2.76578277
H       1.16128251     -1.56228773     -2.44820434
H      -0.81130028     -1.75279732     -3.94039733
11
Frame 40  Energy = -268.5692694826 Hartree
C       0.82818852     -0.44630400     -0.70918422
C       0.39404985     -0.85792699     -2.07763508
C      -0.92688505     -1.55944130     -2.08150761
O      -1.52528264     -1.84900738     -1.08655521
O      -1.53327555     -1.83579444     -3.27581739
H       1.78930714      0.04799568     -0.78028009
H       0.17223036      0.25638199     -0.14425004
H       0.90262562     -1.30077195      0.03727149
H       0.31437512      0.01902533     -2.77145721
H       1.16148038     -1.56587306     -2.45844748
H      -0.81029356     -1.75384382     -3.94901590
11
Frame 45  Energy = -268.5691993202 Hartree
C       0.82963793     -0.44709095     -0.71038198
C       0.39593862     -0.85769644     -2.07411533
C      -0.93077225     -1.55878483     -2.08069346
O      -1.52469249     -1.84945795     -1.08794739
O      -1.53519198     -1.83672645     -3.27508287
H       1.79850292      0.05621452     -0.78729874
H       0.18003465      0.26178169     -0.14621581
H       0.90307322     -1.29367654      0.04032557
H       0.31416019      0.02484854     -2.77597488
H       1.16043061     -1.56821153     -2.46960042
H      -0.81165504     -1.75504940     -3.95682104
11
Frame 50  Energy = -268.5692655881 Hartree
C       0.83120775     -0.44783759     -0.71106038
C       0.39785676     -0.85750724     -2.07077857
C      -0.93480139     -1.55811431     -2.07993065
O      -1.52410512     -1.84993191     -1.08926352
O      -1.53683985     -1.83757445     -3.27448007
H       1.80739395      0.06382787     -0.79396592
H       0.18809499      0.26639914     -0.15082753
H       0.90351518     -1.28486843      0.04054446
H       0.31452328      0.02871384     -2.77888820
H       1.15793695     -1.56948777     -2.48113710
H      -0.81567433     -1.75630066     -3.96318982
11
Frame 55  Energy = -268.5691582603 Hartree
C       0.83294632     -0.44850786     -0.71128301
C       0.39977393     -0.85730543     -2.06777029
C      -0.93889975     -1.55742922     -2.07915147
O      -1.52350099     -1.85050416     -1.09038320
O      -1.53815957     -1.83839816     -3.27408848
H       1.81539888      0.07072931     -0.80006940
H       0.19635834      0.27030838     -0.15768202
H       0.90437986     -1.27472259      0.03801131
H       0.31560661      0.02995095     -2.77994987
H       1.15403525     -1.56930306     -2.49264067
H      -0.82261912     -1.75793367     -3.96799135
11
Frame 60  Energy = -268.5690180682 Hartree
C       0.83497845     -0.44903675     -0.71107673
C       0.40173171     -0.85702768     -2.06517252
C      -0.94305791     -1.55666778     -2.07842214
O      -1.52291830     -1.85113820     -1.09134232
O      -1.53920456     -1.83922605     -3.27392091
H       1.82218276      0.07638239     -0.80554366
H       0.20483098      0.27348353     -0.16662191
H       0.90601318     -1.26341237      0.03287759
H       0.31713737      0.02837060     -2.77908918
H       1.14851472     -1.56761870     -2.50375265
H      -0.83210033     -1.75985832     -3.97114365
11
Frame 65  Energy = -268.5691451010 Hartree
C       0.83724986     -0.44935284     -0.71042702
C       0.40364843     -0.85666231     -2.06300228
C      -0.94725816     -1.55589519     -2.07772813
O      -1.52247945     -1.85179887     -1.09220588
O      -1.53995710     -1.84003017     -3.27393957
H       1.82717613      0.08056195     -0.81065968
H       0.21286060      0.27614007     -0.17755805
H       0.90812765     -1.25158930      0.02583118
H       0.31971636      0.02416290     -2.77626232
H       1.14182409     -1.56434356     -2.51437704
H      -0.84380510     -1.76181309     -3.97263482
11
Frame 70  Energy = -268.5691548699 Hartree
C       0.83979044     -0.44942979     -0.70941460
C       0.40540926     -0.85631244     -2.06132060
C      -0.95134020     -1.55510644     -2.07718472
O      -1.52226784     -1.85253363     -1.09281907
O      -1.54047977     -1.84081274     -3.27410006
H       1.83009147      0.08314611     -0.81522232
H       0.22003425      0.27846314     -0.18961042
H       0.91089301     -1.24004976      0.01771394
H       0.32289670      0.01714050     -2.77166384
H       1.13376486     -1.55989369     -2.52449213
H      -0.85730954     -1.76372934     -3.97311001
11
Frame 75  Energy = -268.5692060603 Hartree
C       0.84267477     -0.44917667     -0.70819680
C       0.40707976     -0.85607341     -2.06001251
C      -0.95528814     -1.55423791     -2.07686810
O      -1.52209029     -1.85332181     -1.09313600
O      -1.54081721     -1.84156468     -3.27425263
H       1.83071574      0.08402002     -0.81911134
H       0.22633019      0.28085467     -0.20257723
H       0.91443805     -1.22981272      0.00922136
H       0.32671988      0.00804878     -2.76550790
H       1.12476820     -1.55456015     -2.53410810
H      -0.87194643     -1.76539945     -3.97294203
11
Frame 80  Energy = -268.5690956464 Hartree
C       0.84577667     -0.44864557     -0.70683122
C       0.40850102     -0.85597066     -2.05908887
C      -0.95914258     -1.55331412     -2.07669142
O      -1.52213412     -1.85407179     -1.09318252
O      -1.54110036     -1.84232489     -3.27436930
H       1.82897852      0.08296275     -0.82241917
H       0.23100285      0.28388530     -0.21637970
H       0.91864384     -1.22190275      0.00135399
H       0.33092369     -0.00266479     -2.75795672
H       1.11525255     -1.54860159     -2.54304824
H      -0.88717706     -1.76680448     -3.97314786
11
Frame 85  Energy = -268.5689787265 Hartree
C       0.84914060     -0.44768143     -0.70544590
C       0.40980448     -0.85600592     -2.05853580
C      -0.96279805     -1.55238425     -2.07669887
O      -1.52238823     -1.85485172     -1.09296690
O      -1.54138009     -1.84301221     -3.27445704
H       1.82535092      0.08025530     -0.82492919
H       0.23405021      0.28762571     -0.23055173
H       0.92367372     -1.21731650     -0.00551240
H       0.33578873     -0.01415833     -2.74955273
H       1.10555873     -1.54213495     -2.55161825
H      -0.90175731     -1.76754863     -3.97419322
11
Frame 90  Energy = -268.5690538446 Hartree
C       0.85287089     -0.44632021     -0.70423060
C       0.41088844     -0.85605122     -2.05825936
C      -0.96613615     -1.55142958     -2.07699605
O      -1.52287194     -1.85577055     -1.09237728
O      -1.54171928     -1.84367919     -3.27441481
H       1.82014501      0.07615014     -0.82683605
H       0.23516000      0.29206205     -0.24463740
H       0.92968681     -1.21629366     -0.01056136
H       0.34066723     -0.02525373     -2.74057035
H       1.09632010     -1.53547212     -2.55988837
H      -0.91493474     -1.76777455     -3.97673468
11
Frame 95  Energy = -268.5692256923 Hartree
C       0.85675485     -0.44453520     -0.70317858
C       0.41179800     -0.85620740     -2.05822984
C      -0.96906174     -1.55040419     -2.07756889
O      -1.52357730     -1.85673799     -1.09144396
O      -1.54216208     -1.84438808     -3.27424970
H       1.81402004      0.07095711     -0.82813904
H       0.23423356      0.29769912     -0.25896138
H       0.93677628     -1.21925543     -0.01352636
H       0.34550592     -0.03525744     -2.73209695
H       1.08820241     -1.52951634     -2.56769604
H      -0.92587670     -1.76730981     -3.98123917
11
Frame 100  Energy = -268.5693178197 Hartree
C       0.86084742     -0.44245387     -0.70231497
C       0.41243393     -0.85656351     -2.05834961
C      -0.97154484     -1.54929270     -2.07834746
O      -1.52450026     -1.85781152     -1.09020626
O      -1.54269785     -1.84508916     -3.27394834
H       1.80805366      0.06549718     -0.82890071
H       0.23131563      0.30447608     -0.27288986
H       0.94491002     -1.22561147     -0.01430106
H       0.35030525     -0.04283895     -2.72516721
H       1.08124701     -1.52423062     -2.57505223
H      -0.93416762     -1.76574508     -3.98808260
11
Frame 105  Energy = -268.5693934100 Hartree
C       0.86506827     -0.44010957     -0.70162456
C       0.41271351     -0.85708910     -2.05858224
C      -0.97356907     -1.54821309     -2.07936767
O      -1.52558555     -1.85905438     -1.08867815
O      -1.54331993     -1.84584742     -3.27356280
H       1.80300326      0.06006169     -0.82901854
H       0.22706933      0.31238747     -0.28635030
H       0.95356161     -1.23470108     -0.01329821
H       0.35503529     -0.04720177     -2.71973611
H       1.07566977     -1.51998463     -2.58197990
H      -0.93984887     -1.76319593     -3.99711035
11
Frame 110  Energy = -268.5693026376 Hartree
C       0.86930697     -0.43757114     -0.70102699
C       0.41261986     -0.85783776     -2.05889613
C      -0.97525786     -1.54698484     -2.08055799
O      -1.52689027     -1.86037176     -1.08689810
O      -1.54403027     -1.84671383     -3.27310878
H       1.79978271      0.05467514     -0.82868446
H       0.22181029      0.32078410     -0.29887555
H       0.96265792     -1.24593381     -0.01051112
H       0.35929925     -0.04814127     -2.71642787
H       1.07150016     -1.51688112     -2.58872914
H      -0.94365131     -1.75976527     -4.00754625
11
Frame 115  Energy = -268.5693423266 Hartree
C       0.87353633     -0.43507657     -0.70049402
C       0.41215570     -0.85884353     -2.05936570
C      -0.97672445     -1.54567360     -2.08185328
O      -1.52842599     -1.86177329     -1.08491047
O      -1.54481009     -1.84761301     -3.27268875
H       1.79894279      0.05022155     -0.82798138
H       0.21520516      0.32930571     -0.31059327
H       0.97217004     -1.25836835     -0.00708391
H       0.36305563     -0.04525740     -2.71572360
H       1.06894843     -1.51516988     -2.59523193
H      -0.94597934     -1.75567667     -4.01890660
11
Frame 120  Energy = -268.5692176203 Hartree
C       0.87772250     -0.43264230     -0.70000897
C       0.41130359     -0.86013074     -2.05997413
C      -0.97790430     -1.54440801     -2.08324588
O      -1.53016164     -1.86319246     -1.08280729
O      -1.54558140     -1.84847824     -3.27221092
H       1.80148765      0.04681558     -0.82711788
H       0.20766681      0.33755639     -0.32137371
H       0.98150366     -1.27075687     -0.00400718
H       0.36607482     -0.03849391     -2.71721366
H       1.06818772     -1.51480606     -2.60157979
H      -0.94750817     -1.75105163     -4.03045252
11
Frame 125  Energy = -268.5690926401 Hartree
C       0.88169518     -0.43030674     -0.69948777
C       0.41016079     -0.86169883     -2.06064937
C      -0.97891049     -1.54307612     -2.08471966
O      -1.53206221     -1.86458806     -1.08065074
O      -1.54631502     -1.84931258     -3.27182469
H       1.80748069      0.04436043     -0.82672922
H       0.19963837      0.34511269     -0.33131414
H       0.99021450     -1.28266812     -0.00127200
H       0.36866002     -0.02835063     -2.72046009
H       1.06842789     -1.51590437     -2.60770512
H      -0.94884864     -1.74578836     -4.04108328
11
Frame 130  Energy = -268.5689808716 Hartree
C       0.88543392     -0.42815472     -0.69886103
C       0.40872050     -0.86348203     -2.06140007
C      -0.97972744     -1.54166220     -2.08612066
O      -1.53409183     -1.86595147     -1.07842473
O      -1.54703530     -1.85012868     -3.27151348
H       1.81719988      0.04316998     -0.82607999
H       0.19196511      0.35169664     -0.34056668
H       0.99803696     -1.29327409      0.00069802
H       0.37066769     -0.01589500     -2.72500731
H       1.07018920     -1.51845737     -2.61354449
H      -0.95057908     -1.73982782     -4.04992073
11
Frame 135  Energy = -268.5688536132 Hartree
C       0.88894637     -0.42617077     -0.69811009
C       0.40700058     -0.86537128     -2.06242401
C      -0.98031703     -1.54019603     -2.08732451
O      -1.53615749     -1.86726554     -1.07615835
O      -1.54778191     -1.85103156     -3.27122545
H       1.83045329      0.04341095     -0.82530453
H       0.18532998      0.35651930     -0.34895339
H       1.00479225     -1.30160482      0.00130519
H       0.37164569     -0.00199739     -2.73040935
H       1.07337648     -1.52225417     -2.61882756
H      -0.95276704     -1.73337745     -4.05685148
11
Frame 140  Energy = -268.5690141334 Hartree
C       0.89228752     -0.42435458     -0.69738473
C       0.40512445     -0.86722171     -2.06351971
C      -0.98073402     -1.53883141     -2.08825100
O      -1.53824854     -1.86858699     -1.07390665
O      -1.54848239     -1.85196471     -3.27117545
H       1.84620584      0.04432959     -0.82423535
H       0.17974698      0.35935949     -0.35645402
H       1.01046501     -1.30750956      0.00060127
H       0.37176396      0.01221613     -2.73582857
H       1.07771267     -1.52680325     -2.62353212
H      -0.95584176     -1.72652013     -4.06113393
11
Frame 145  Energy = -268.5692401798 Hartree
C       0.89537735     -0.42264691     -0.69670358
C       0.40312511     -0.86896801     -2.06484130
C      -0.98108336     -1.53745663     -2.08891978
O      -1.54035388     -1.86982780     -1.07161412
O      -1.54913936     -1.85287290     -3.27132485
H       1.86281842      0.04571776     -0.82299423
H       0.17564326      0.36020196     -0.36322024
H       1.01506731     -1.31003992     -0.00194407
H       0.37094790      0.02544939     -2.74054959
H       1.08263711     -1.53146572     -2.62729908
H      -0.96024220     -1.71930062     -4.06234341
11
Frame 150  Energy = -268.5693441067 Hartree
C       0.89840183     -0.42110803     -0.69598026
C       0.40104444     -0.87053421     -2.06662105
C      -0.98137064     -1.53616256     -2.08935772
O      -1.54240484     -1.87105654     -1.06938971
O      -1.54975092     -1.85376264     -3.27173047
H       1.87948999      0.04663514     -0.82156288
H       0.17306672      0.35891168     -0.36931750
H       1.01868572     -1.30911610     -0.00585245
H       0.36935650      0.03718415     -2.74387501
H       1.08733918     -1.53563147     -2.62983865
H      -0.96551589     -1.71194180     -4.06044643
11
Frame 155  Energy = -268.5692413658 Hartree
C       0.90130929     -0.41974363     -0.69527936
C       0.39897906     -0.87194021     -2.06878975
C      -0.98156773     -1.53498835     -2.08957176
O      -1.54448904     -1.87223195     -1.06727951
O      -1.55031615     -1.85456457     -3.27233147
H       1.89556142      0.04703870     -0.81990959
H       0.17227449      0.35557809     -0.37422965
H       1.02114473     -1.30489777     -0.01118585
H       0.36691723      0.04701529     -2.74529464
H       1.09140736     -1.53955706     -2.63094513
H      -0.97191438     -1.70411990     -4.05608692
11
Frame 160  Energy = -268.5692331349 Hartree
C       0.90428801     -0.41840949     -0.69452385
C       0.39699528     -0.87319253     -2.07128406
C      -0.98170828     -1.53391999     -2.08950646
O      -1.54654207     -1.87331351     -1.06534166
O      -1.55080483     -1.85537035     -3.27311670
H       1.91048022      0.04695442     -0.81821246
H       0.17322395      0.35018560     -0.37813606
H       1.02283863     -1.29789287     -0.01760810
H       0.36385379      0.05452511     -2.74514362
H       1.09472997     -1.54311443     -2.63057966
H      -0.97863988     -1.69589713     -4.04971634
11
Frame 165  Energy = -268.5691625347 Hartree
C       0.90730243     -0.41717612     -0.69386197
C       0.39507424     -0.87428801     -2.07414785
C      -0.98184553     -1.53301699     -2.08908411
O      -1.54847833     -1.87434633     -1.06355184
O      -1.55115345     -1.85625306     -3.27395176
H       1.92305406      0.04630718     -0.81619158
H       0.17607364      0.34296740     -0.38084465
H       1.02356550     -1.28867194     -0.02459133
H       0.36056143      0.05906418     -2.74363126
H       1.09753385     -1.54589408     -2.62875029
H      -0.98511444     -1.68712055     -4.04133518
11
Frame 170  Energy = -268.5691305301 Hartree
C       0.91049450     -0.41599722     -0.69325000
C       0.39326729     -0.87524296     -2.07737269
C      -0.98202194     -1.53235297     -2.08828945
O      -1.55037213     -1.87526051     -1.06194542
O      -1.55146220     -1.85710792     -3.27484515
H       1.93310132      0.04463627     -0.81374844
H       0.18043108      0.33451949     -0.38219213
H       1.02329777     -1.27772100     -0.03202501
H       0.35694005      0.06008316     -2.74034922
H       1.09920097     -1.54821703     -2.62536996
H      -0.99085945     -1.67777988     -4.03212457
11
Frame 175  Energy = -268.5694751556 Hartree
C       0.91384965     -0.41485705     -0.69288220
C       0.39162756     -0.87596535     -2.08085710
C      -0.98215537     -1.53193879     -2.08708896
O      -1.55210346     -1.87603692     -1.06066640
O      -1.55171418     -1.85794229     -3.27577371
H       1.94010616      0.04190521     -0.81074246
H       0.18564537      0.32527347     -0.38186626
H       1.02180573     -1.26576227     -0.03910108
H       0.35294819      0.05834580     -2.73566257
H       1.09932301     -1.54977789     -2.62085742
H      -0.99534642     -1.66795428     -4.02320956
11
Frame 180  Energy = -268.5694583909 Hartree
C       0.91725980     -0.41364012     -0.69287907
C       0.39009946     -0.87642507     -2.08448394
C      -0.98228965     -1.53162858     -2.08556180
O      -1.55373130     -1.87664766     -1.05971508
O      -1.55204762     -1.85872739     -3.27662206
H       1.94422389      0.03843735     -0.80764074
H       0.19175190      0.31563445     -0.37999086
H       1.01954976     -1.25383696     -0.04520758
H       0.34885582      0.05379905     -2.72953849
H       1.09815809     -1.55062591     -2.61551496
H      -0.99789153     -1.65733443     -4.01545842
11
Frame 185  Energy = -268.5694538304 Hartree
C       0.92076715     -0.41243278     -0.69321180
C       0.38868290     -0.87665054     -2.08825799
C      -0.98252435     -1.53155077     -2.08370283
O      -1.55533930     -1.87711695     -1.05897771
O      -1.55245347     -1.85953097     -3.27726673
H       1.94525321      0.03444781     -0.80433283
H       0.19789185      0.30631129     -0.37607161
H       1.01694797     -1.24288338     -0.04957709
H       0.34459201      0.04656431     -2.72237949
H       1.09570295     -1.55079513     -2.60919846
H      -0.99852103     -1.64551060     -4.00936607
11
Frame 190  Energy = -268.5692184571 Hartree
C       0.92452273     -0.41113653     -0.69395808
C       0.38744849     -0.87670387     -2.09212771
C      -0.98289428     -1.53164674     -2.08135395
O      -1.55687035     -1.87743903     -1.05854298
O      -1.55304410     -1.86031383     -3.27761578
H       1.94346223      0.02994252     -0.80074948
H       0.20385556      0.29793943     -0.37038133
H       1.01374589     -1.23379654     -0.05214628
H       0.34007692      0.03739728     -2.71443309
H       1.09252868     -1.55043350     -2.60219294
H      -0.99702449     -1.63249040     -4.00515054
11
Frame 195  Energy = -268.5693223138 Hartree
C       0.92839950     -0.40987562     -0.69525833
C       0.38635077     -0.87656590     -2.09601723
C      -0.98331337     -1.53190847     -2.07854956
O      -1.55833133     -1.87756073     -1.05827176
O      -1.55377648     -1.86098954     -3.27776107
H       1.93992254      0.02501121     -0.79700211
H       0.20934962      0.29090409     -0.36276617
H       1.01029088     -1.22715346     -0.05233505
H       0.33532878      0.02702792     -2.70675654
H       1.08894597     -1.54985394     -2.59479059
H      -0.99344521     -1.61851805     -4.00288931
11
Frame 200  Energy = -268.5693448087 Hartree
C       0.93242125     -0.40862153     -0.69719114
C       0.38540455     -0.87625794     -2.09991113
C      -0.98389822     -1.53227180     -2.07539327
O      -1.55965050     -1.87751061     -1.05827392
O      -1.55449443     -1.86160487     -3.27771154
H       1.93487166      0.02019893     -0.79357974
H       0.21399339      0.28584266     -0.35334363
H       1.00640530     -1.22334960     -0.05010224
H       0.33036558      0.01647048     -2.69999079
H       1.08466531     -1.54915376     -2.58711896
H      -0.98806765     -1.60376422     -4.00202360
11
Frame 205  Energy = -268.5692612816 Hartree
C       0.93648003     -0.40734862     -0.69961752
C       0.38449136     -0.87582532     -2.10366842
C      -0.98462867     -1.53286949     -2.07195369
O      -1.56082097     -1.87731502     -1.05842448
O      -1.55519522     -1.86219005     -3.27757333
H       1.92897879      0.01567278     -0.79047982
H       0.21781446      0.28270691     -0.34190952
H       1.00198740     -1.22253132     -0.04556612
H       0.32513185      0.00642102     -2.69461058
H       1.08064554     -1.54874060     -2.57963538
H      -0.98139231     -1.58839472     -4.00190750
11
Frame 210  Energy = -268.5690009627 Hartree
C       0.94047022     -0.40614404     -0.70243409
C       0.38370793     -0.87526476     -2.10715278
C      -0.98546313     -1.53370038     -2.06825796
O      -1.56185417     -1.87704350     -1.05870226
O      -1.55587951     -1.86279115     -3.27736888
H       1.92318904      0.01200019     -0.78777964
H       0.22091000      0.28161785     -0.32888775
H       0.99758340     -1.22445068     -0.03897123
H       0.31964957     -0.00229481     -2.69124455
H       1.07729430     -1.54931330     -2.57271032
H      -0.97411671     -1.57290787     -4.00203179
11
Frame 215  Energy = -268.5689612289 Hartree
C       0.94425897     -0.40507880     -0.70570429
C       0.38296263     -0.87477757     -2.11029649
C      -0.98639526     -1.53470843     -2.06423750
O      -1.56278582     -1.87670828     -1.05909972
O      -1.55645710     -1.86336062     -3.27709155
H       1.91832795      0.00901229     -0.78548532
H       0.22352671      0.28219620     -0.31465214
H       0.99328341     -1.22881845     -0.03041028
H       0.31388201     -0.00859831     -2.69051727
H       1.07441164     -1.55126753     -2.56673374
H      -0.96695765     -1.55763447     -4.00175539
11
Frame 220  Energy = -268.5689680627 Hartree
C       0.94771175     -0.40424769     -0.70934328
C       0.38228443     -0.87433052     -2.11305558
C      -0.98738744     -1.53593230     -2.06012805
O      -1.56359187     -1.87622320     -1.05953039
O      -1.55686821     -1.86381547     -3.27681419
H       1.91525916      0.00726640     -0.78397647
H       0.22607157      0.28399236     -0.29960038
H       0.98903838     -1.23475078     -0.02063277
H       0.30817888     -0.01183709     -2.69300518
H       1.07227033     -1.55431302     -2.56163480
H      -0.96085051     -1.54284339     -4.00031647
11
Frame 225  Energy = -268.5691515368 Hartree
C       0.95067626     -0.40363410     -0.71313694
C       0.38169704     -0.87393663     -2.11537180
C      -0.98843267     -1.53739403     -2.05604158
O      -1.56434097     -1.87557710     -1.06001676
O      -1.55711221     -1.86416444     -3.27655469
H       1.91462025      0.00698234     -0.78322491
H       0.22868390      0.28655008     -0.28407836
H       0.98468835     -1.24139561     -0.01056266
H       0.30254467     -0.01149718     -2.69903218
H       1.07099095     -1.55833761     -2.55761924
H      -0.95638828     -1.52874052     -3.99722191
11
Frame 230  Energy = -268.5692902570 Hartree
C       0.95305538     -0.40334717     -0.71699155
C       0.38109815     -0.87349000     -2.11716177
C      -0.98947486     -1.53899746     -2.05213698
O      -1.56505427     -1.87485452     -1.06051654
O      -1.55718234     -1.86434075     -3.27640165
H       1.91669772      0.00853518     -0.78363034
H       0.23193713      0.28968490     -0.26860833
H       0.98030623     -1.24771925     -0.00116615
H       0.29698889     -0.00774112     -2.70817405
H       1.07047576     -1.56355851     -2.55511325
H      -0.95400740     -1.51524948     -3.99221496
11
Frame 235  Energy = -268.5692285419 Hartree
C       0.95493053     -0.40342921     -0.72074337
C       0.38046267     -0.87302150     -2.11858143
C      -0.99053600     -1.54074426     -2.04842842
O      -1.56575734     -1.87409270     -1.06088986
O      -1.55699023     -1.86435980     -3.27635174
H       1.92135498      0.01176318     -0.78494412
H       0.23608380      0.29288564     -0.25348139
H       0.97570010     -1.25333101      0.00667799
H       0.29169715     -0.00147662     -2.71996657
H       1.07106723     -1.56991233     -2.55375490
H      -0.95376578     -1.50303638     -3.98487349
11
Frame 240  Energy = -268.5691425565 Hartree
C       0.95635942     -0.40392566     -0.72443920
C       0.37984674     -0.87244395     -2.11967377
C      -0.99155378     -1.54255223     -2.04483113
O      -1.56651653     -1.87334975     -1.06113344
O      -1.55650589     -1.86419293     -3.27630724
H       1.92825414      0.01624351     -0.78664043
H       0.24135631      0.29566521     -0.23917135
H       0.97123528     -1.25737520      0.01260511
H       0.28632132      0.00607686     -2.73406047
H       1.07240174     -1.57710762     -2.55368406
H      -0.95546880     -1.49202354     -3.97526927
11
Frame 245  Energy = -268.5687710352 Hartree
C       0.95738352     -0.40484417     -0.72808153
C       0.37933317     -0.87181559     -2.12036831
C      -0.99252833     -1.54438888     -2.04133502
O      -1.56735235     -1.87261755     -1.06127469
O      -1.55580460     -1.86386894     -3.27630134
H       1.93678675      0.02159929     -0.78876680
H       0.24763511      0.29791232     -0.22573515
H       0.96697306     -1.25949849      0.01609615
H       0.28131639      0.01403197     -2.74968792
H       1.07399654     -1.58478289     -2.55451504
H      -0.95893165     -1.48234057     -3.96377588
11
Frame 250  Energy = -268.5684388847 Hartree
C       0.95806696     -0.40591738     -0.73166209
C       0.37890074     -0.87111464     -2.12067449
C      -0.99343730     -1.54630548     -2.03812089
O      -1.56835460     -1.87185151     -1.06128976
O      -1.55487819     -1.86339698     -3.27626366
H       1.94636554      0.02751563     -0.79166493
H       0.25559166      0.29926524     -0.21352364
H       0.96307319     -1.25990880      0.01677639
H       0.27688333      0.02142026     -2.76607692
H       1.07565272     -1.59251426     -2.55610477
H      -0.96364081     -1.47346869     -3.95099652
11
Frame 255  Energy = -268.5685000113 Hartree
C       0.95840238     -0.40718969     -0.73514629
C       0.37838983     -0.87016243     -2.12067220
C      -0.99420975     -1.54811450     -2.03530894
O      -1.56947362     -1.87107521     -1.06109836
O      -1.55380896     -1.86279624     -3.27616896
H       1.95566929      0.03368102     -0.79528647
H       0.26538064      0.29988493     -0.20343263
H       0.95966562     -1.25837401      0.01519544
H       0.27286425      0.02769093     -2.78222068
H       1.07722549     -1.60000184     -2.55821444
H      -0.96916775     -1.46517346     -3.93790288
11
Frame 260  Energy = -268.5685113958 Hartree
C       0.95846066     -0.40861659     -0.73851851
C       0.37788292     -0.86897272     -2.12042542
C      -0.99479226     -1.54998801     -2.03297773
O      -1.57068001     -1.87033596     -1.06074550
O      -1.55267246     -1.86210514     -3.27592702
H       1.96413336      0.03986059     -0.79937497
H       0.27657670      0.29993281     -0.19558334
H       0.95667773     -1.25531330      0.01070935
H       0.26977391      0.03165583     -2.79738873
H       1.07824271     -1.60675978     -2.56076413
H      -0.97519015     -1.45704033     -3.92525921
11
Frame 265  Energy = -268.5685105874 Hartree
C       0.95832041     -0.41009078     -0.74165961
C       0.37752326     -0.86753935     -2.11999304
C      -0.99520248     -1.55191886     -2.03107107
O      -1.57189984     -1.86964024     -1.06019770
O      -1.55150324     -1.86129975     -3.27553400
H       1.97108798      0.04533036     -0.80391595
H       0.28906382      0.29911202     -0.18999489
H       0.95411920     -1.25091107      0.00341152
H       0.26750943      0.03256032     -2.81143253
H       1.07803505     -1.61205818     -2.56366475
H      -0.98078034     -1.44862686     -3.91402315
11
Frame 270  Energy = -268.5685488887 Hartree
C       0.95800450     -0.41159330     -0.74446809
C       0.37730048     -0.86589471     -2.11950281
C      -0.99541106     -1.55383907     -2.02945351
O      -1.57317106     -1.86903893     -1.05941995
O      -1.55030536     -1.86037308     -3.27498173
H       1.97603088      0.05000377     -0.80941621
H       0.30248919      0.29771109     -0.18659944
H       0.95240180     -1.24555294     -0.00642479
H       0.26595119      0.03043611     -2.82380729
H       1.07655736     -1.61582741     -2.56642263
H      -0.98501411     -1.43968436     -3.90487820
11
Frame 275  Energy = -268.5687061644 Hartree
C       0.95766890     -0.41312158     -0.74709261
C       0.37715137     -0.86401100     -2.11898334
C      -0.99541868     -1.55572153     -2.02833249
O      -1.57447209     -1.86850636     -1.05847201
O      -1.54904914     -1.85951473     -3.27416703
H       1.97861398      0.05338324     -0.81552022
H       0.31665795      0.29571271     -0.18566254
H       0.95141968     -1.23936528     -0.01819650
H       0.26519318      0.02509421     -2.83418469
H       1.07356619     -1.61765198     -2.56889006
H      -0.98755741     -1.42991600     -3.89838104
11
Frame 280  Energy = -268.5689233973 Hartree
C       0.95723917     -0.41461159     -0.74961023
C       0.37706371     -0.86195165     -2.11845792
C      -0.99523355     -1.55748113     -2.02764473
O      -1.57583985     -1.86805170     -1.05730835
O      -1.54779240     -1.85867851     -3.27307081
H       1.97860753      0.05502405     -0.82186212
H       0.33089528      0.29367006     -0.18695140
H       0.95152511     -1.23315872     -0.03127304
H       0.26493934      0.01702897     -2.84231530
H       1.06941039     -1.61754623     -2.57119895
H      -0.98850447     -1.41893831     -3.89494762
11
Frame 285  Energy = -268.5689025213 Hartree
C       0.95683544     -0.41598824     -0.75207276
C       0.37692414     -0.85981931     -2.11784189
C      -0.99485967     -1.55912878     -2.02730393
O      -1.57732605     -1.86767820     -1.05587273
O      -1.54658295     -1.85785196     -3.27173677
H       1.97615983      0.05514183     -0.82825347
H       0.34493546      0.29185492     -0.19027872
H       0.95295518     -1.22763949     -0.04542827
H       0.26552771      0.00639578     -2.84777670
H       1.06403533     -1.61584504     -2.57307769
H      -0.98797373     -1.40656189     -3.89439157
11
Frame 290  Energy = -268.5685999946 Hartree
C       0.95643627     -0.41728821     -0.75457346
C       0.37689039     -0.85756774     -2.11728896
C      -0.99432664     -1.56073833     -2.02734777
O      -1.57892995     -1.86734855     -1.05426098
O      -1.54537863     -1.85706925     -3.27018345
H       1.97178487      0.05339623     -0.83475860
H       0.35853042      0.29032649     -0.19562259
H       0.95557495     -1.22347563     -0.05986981
H       0.26714846     -0.00663620     -2.85105268
H       1.05720542     -1.61253532     -2.57419147
H      -0.98629634     -1.39340989     -3.89612227
11
Frame 295  Energy = -268.5684292320 Hartree
C       0.95597873     -0.41834890     -0.75715550
C       0.37686377     -0.85519243     -2.11670496
C      -0.99368397     -1.56229637     -2.02772633
O      -1.58055679     -1.86707441     -1.05256437
O      -1.54397246     -1.85626566     -3.26846240
H       1.96528747      0.04985967     -0.84148627
H       0.37132899      0.28962284     -0.20203054
H       0.95926348     -1.22146575     -0.07402492
H       0.26967487     -0.02147281     -2.85245041
H       1.04930173     -1.60773303     -2.57471855
H      -0.98430615     -1.38012526     -3.89943037
11
Frame 300  Energy = -268.5682914890 Hartree
C       0.95551066     -0.41928066     -0.75984237
C       0.37671386     -0.85291876     -2.11608654
C      -0.99299127     -1.56379897     -2.02854521
O      -1.58219018     -1.86688655     -1.05065758
O      -1.54242111     -1.85537112     -3.26659454
H       1.95675150      0.04492234     -0.84885781
H       0.38286131      0.29054336     -0.20944046
H       0.96419090     -1.22235653     -0.08750010
H       0.27275411     -0.03749153     -2.85237862
H       1.04092795     -1.60208965     -2.57511713
H      -0.98272155     -1.36734019     -3.90317712
