11
Frame 5  Energy = -268.5607390421 Hartree
C       0.85742409     -0.48722513     -0.54788290
C       0.46518173     -0.81978597     -1.95868062
C      -0.94031172     -1.55287367     -2.12243505
O      -1.60342512     -1.91465964     -1.20451704
O      -1.32723430     -1.81459397     -3.39666411
H       1.75621584      0.13295024     -0.59114015
H       0.06350277      0.14481079     -0.05090072
H       1.02353168     -1.37802068      0.16406290
H       0.32764193      0.10872572     -2.59296860
H       1.19231369     -1.37917180     -2.59964125
H      -0.70471195     -1.60991263     -4.07555172
11
Frame 10  Energy = -268.5609053062 Hartree
C       0.85750223     -0.48621986     -0.54668360
C       0.46474383     -0.81990040     -1.95955748
C      -0.93924983     -1.55214027     -2.12350617
O      -1.60286099     -1.91375561     -1.20251399
O      -1.32964858     -1.81691975     -3.39718562
H       1.76139627      0.13471080     -0.58985402
H       0.06544770      0.14208729     -0.05859186
H       1.02703090     -1.37049112      0.15418579
H       0.33444825      0.10461337     -2.59376669
H       1.18958628     -1.38008236     -2.59406382
H      -0.69933392     -1.60023597     -4.07935841
11
Frame 15  Energy = -268.5608665396 Hartree
C       0.85762598     -0.48520914     -0.54523469
C       0.46395949     -0.81998051     -1.96082791
C      -0.93772760     -1.55139104     -2.12445775
O      -1.60234230     -1.91282740     -1.20053539
O      -1.33221764     -1.81920624     -3.39764607
H       1.76640964      0.13559743     -0.58794962
H       0.06884418      0.13789786     -0.06768112
H       1.03019389     -1.36026025      0.14143039
H       0.34124286      0.09927709     -2.59288255
H       1.18639189     -1.38088206     -2.58626327
H      -0.69240236     -1.58963751     -4.08301259
11
Frame 20  Energy = -268.5608437231 Hartree
C       0.85773839     -0.48406491     -0.54360195
C       0.46279097     -0.82011325     -1.96239285
C      -0.93577090     -1.55064204     -2.12527174
O      -1.60187084     -1.91188962     -1.19859376
O      -1.33488911     -1.82141119     -3.39808977
H       1.77115527      0.13571163     -0.58576559
H       0.07319640      0.13235112     -0.07748502
H       1.03269542     -1.34828068      0.12663772
H       0.34805573      0.09301732     -2.59017107
H       1.18312393     -1.38194542     -2.57656750
H      -0.68496160     -1.57850088     -4.08525590
11
Frame 25  Energy = -268.5609487761 Hartree
C       0.85786364     -0.48284387     -0.54189902
C       0.46137283     -0.82037390     -1.96435868
C      -0.93352615     -1.54986716     -2.12601726
O      -1.60146059     -1.91095300     -1.19671739
O      -1.33760134     -1.82363409     -3.39853045
H       1.77508565      0.13511585     -0.58301773
H       0.07804601      0.12612196     -0.08763864
H       1.03457427     -1.33561487      0.11024184
H       0.35459921      0.08623225     -2.58633919
H       1.18021854     -1.38358752     -2.56546375
H      -0.67813416     -1.56715440     -4.08567182
11
Frame 30  Energy = -268.5607672911 Hartree
C       0.85799006     -0.48150769     -0.54028140
C       0.45961939     -0.82073089     -1.96658937
C      -0.93097977     -1.54913668     -2.12659468
O      -1.60112312     -1.90996792     -1.19491139
O      -1.34025160     -1.82579313     -3.39909941
H       1.77814326      0.13370630     -0.58009273
H       0.08302891      0.11978100     -0.09746346
H       1.03624690     -1.32338495      0.09286492
H       0.36094898      0.07936616     -2.58154269
H       1.17804483     -1.38601118     -2.55345117
H      -0.67268693     -1.55599351     -4.08350939
11
Frame 35  Energy = -268.5609028764 Hartree
C       0.85816750     -0.48010950     -0.53885288
C       0.45757493     -0.82108531     -1.96905691
C      -0.92821191     -1.54843299     -2.12690743
O      -1.60084285     -1.90891799     -1.19312932
O      -1.34274455     -1.82784575     -3.39978102
H       1.78022485      0.13142162     -0.57676065
H       0.08713300      0.11385473     -0.10675805
H       1.03804822     -1.31263785      0.07581774
H       0.36748881      0.07307649     -2.57634515
H       1.17637494     -1.38934619     -2.54110327
H      -0.66900594     -1.54531011     -4.07826781
11
Frame 40  Energy = -268.5608006790 Hartree
C       0.85851619     -0.47861329     -0.53773873
C       0.45525394     -0.82151181     -1.97173492
C      -0.92531268     -1.54782100     -2.12697574
O      -1.60055304     -1.90776138     -1.19136402
O      -1.34507905     -1.82973505     -3.40057493
H       1.78124993      0.12830204     -0.57334694
H       0.09022643      0.10849113     -0.11503227
H       1.04037717     -1.30477633      0.06045971
H       0.37361557      0.06794196     -2.57117783
H       1.17537667     -1.39417848     -2.52841955
H      -0.66740589     -1.53528741     -4.07013696
11
Frame 45  Energy = -268.5607454134 Hartree
C       0.85900861     -0.47681258     -0.53699177
C       0.45256721     -0.82207135     -1.97444188
C      -0.92227588     -1.54736105     -2.12681159
O      -1.60021064     -1.90643663     -1.18973864
O      -1.34725448     -1.83147260     -3.40140883
H       1.78141661      0.12447433     -0.56999780
H       0.09156209      0.10407152     -0.12204244
H       1.04306432     -1.30076216      0.04758836
H       0.37959949      0.06429913     -2.56670530
H       1.17555876     -1.40038281     -2.51564514
H      -0.66775033     -1.52609010     -4.05947140
11
Frame 50  Energy = -268.5606927288 Hartree
C       0.85960169     -0.47477741     -0.53669908
C       0.44950848     -0.82273626     -1.97716624
C      -0.91917738     -1.54705229     -2.12646366
O      -1.59978505     -1.90505559     -1.18833490
O      -1.34932623     -1.83309224     -3.40225605
H       1.78096248      0.12037289     -0.56679048
H       0.09071450      0.10134856     -0.12742313
H       1.04611210     -1.30170660      0.03771712
H       0.38536045      0.06268181     -2.56307675
H       1.17686370     -1.40827694     -2.50270620
H      -0.67042426     -1.51761076     -4.04675876
11
Frame 55  Energy = -268.5609002735 Hartree
C       0.86035221     -0.47247531     -0.53691857
C       0.44616829     -0.82352852     -1.97979344
C      -0.91616351     -1.54697750     -2.12595198
O      -1.59916387     -1.90361523     -1.18712653
O      -1.35123812     -1.83451989     -3.40305721
H       1.77977081      0.11621526     -0.56331287
H       0.08777343      0.10051186     -0.13071768
H       1.04952798     -1.30779633      0.03075600
H       0.39066700      0.06320332     -2.56040596
H       1.17950155     -1.41750982     -2.49014032
H      -0.67493480     -1.51012305     -4.03273815
11
Frame 60  Energy = -268.5610256777 Hartree
C       0.86122837     -0.47001447     -0.53759094
C       0.44269636     -0.82444458     -1.98229958
C      -0.91332397     -1.54710873     -2.12522145
O      -1.59844361     -1.90212903     -1.18604574
O      -1.35293266     -1.83587815     -3.40381273
H       1.77787526      0.11207221     -0.55988287
H       0.08245243      0.10183403     -0.13189030
H       1.05365373     -1.31828304      0.02650483
H       0.39562715      0.06578460     -2.55940640
H       1.18364122     -1.42798869     -2.47778087
H      -0.68082202     -1.50344572     -4.01767758
11
Frame 65  Energy = -268.5609662301 Hartree
C       0.86213518     -0.46747556     -0.53862122
C       0.43919105     -0.82545215     -1.98467790
C      -0.91068826     -1.54738985     -2.12419472
O      -1.59755414     -1.90053925     -1.18511732
O      -1.35446866     -1.83712677     -3.40449391
H       1.77577544      0.10802206     -0.55666164
H       0.07520926      0.10513854     -0.13073109
H       1.05809065     -1.33229646      0.02473145
H       0.40026834      0.07072963     -2.56009281
H       1.18852894     -1.43955076     -2.46548845
H      -0.68727718     -1.49725007     -4.00290310
11
Frame 70  Energy = -268.5612222935 Hartree
C       0.86295555     -0.46498646     -0.53999584
C       0.43565563     -0.82650952     -1.98683511
C      -0.90831728     -1.54780213     -2.12287095
O      -1.59645196     -1.89890198     -1.18439569
O      -1.35592862     -1.83829146     -3.40496946
H       1.77378870      0.10437862     -0.55360200
H       0.06646291      0.10987619     -0.12732360
H       1.06220010     -1.34843801      0.02468710
H       0.40433830      0.07745261     -2.56206455
H       1.19351053     -1.45185493     -2.45360842
H      -0.69353345     -1.49063568     -3.98928818
11
Frame 75  Energy = -268.5609465280 Hartree
C       0.86363192     -0.46257215     -0.54168158
C       0.43212033     -0.82769848     -1.98885895
C      -0.90616831     -1.54833888     -2.12135360
O      -1.59521969     -1.89721793     -1.18378113
O      -1.35731896     -1.83933680     -3.40513172
H       1.77240218      0.10134951     -0.55051800
H       0.05723276      0.11547217     -0.12229329
H       1.06574208     -1.36579442      0.02553104
H       0.40801793      0.08557395     -2.56541003
H       1.19845092     -1.46465420     -2.44197685
H      -0.69891440     -1.48345731     -3.97754110
11
Frame 80  Energy = -268.5609455183 Hartree
C       0.86409188     -0.46032164     -0.54355497
C       0.42868573     -0.82893604     -1.99078359
C      -0.90435110     -1.54914711     -2.11960152
O      -1.59380763     -1.89549331     -1.18327903
O      -1.35869253     -1.84025268     -3.40500904
H       1.77197166      0.09940173     -0.54775982
H       0.04789294      0.12133047     -0.11604391
H       1.06855352     -1.38324674      0.02663658
H       0.41099924      0.09399413     -2.56990050
H       1.20304338     -1.47751446     -2.43037454
H      -0.70271166     -1.47566871     -3.96842092
11
Frame 85  Energy = -268.5608922567 Hartree
C       0.86441403     -0.45831449     -0.54556166
C       0.42554765     -0.83024718     -1.99255659
C      -0.90284924     -1.55021374     -2.11766646
O      -1.59226107     -1.89368679     -1.18299071
O      -1.36006630     -1.84112752     -3.40462041
H       1.77259214      0.09854099     -0.54502275
H       0.03927406      0.12703079     -0.10910603
H       1.07017466     -1.39923989      0.02705635
H       0.41311055      0.10221027     -2.57514691
H       1.20667075     -1.49026590     -2.41908700
H      -0.70470532     -1.46676037     -3.96261474
11
Frame 90  Energy = -268.5607890729 Hartree
C       0.86437283     -0.45648234     -0.54761133
C       0.42258758     -0.83154510     -1.99441114
C      -0.90168286     -1.55137407     -2.11559580
O      -1.59058577     -1.89179001     -1.18281194
O      -1.36148421     -1.84191960     -3.40384298
H       1.77432205      0.09884583     -0.54255270
H       0.03217719      0.13206663     -0.10171720
H       1.07075571     -1.41304648      0.02633214
H       0.41462029      0.10957230     -2.58077715
H       1.20898222     -1.50222355     -2.40804130
H      -0.70480946     -1.45696690     -3.95993295
11
Frame 95  Energy = -268.5607647837 Hartree
C       0.86401424     -0.45503594     -0.54964615
C       0.41979503     -0.83278305     -1.99633959
C      -0.90086981     -1.55263278     -2.11341283
O      -1.58876281     -1.88982101     -1.18267674
O      -1.36287171     -1.84269032     -3.40281734
H       1.77703224      0.10011370     -0.54063479
H       0.02696239      0.13567749     -0.09413319
H       1.07013401     -1.42376195      0.02460120
H       0.41539459      0.11532444     -2.58671711
H       1.20983302     -1.51254504     -2.39674689
H      -0.70341528     -1.44650769     -3.96030743
11
Frame 100  Energy = -268.5608433910 Hartree
C       0.86330885     -0.45399076     -0.55167622
C       0.41718632     -0.83389267     -1.99838576
C      -0.90047439     -1.55407730     -2.11118824
O      -1.58686851     -1.88779506     -1.18267749
O      -1.36423859     -1.84346750     -3.40160441
H       1.78039914      0.10243571     -0.53895005
H       0.02429354      0.13733617     -0.08654951
H       1.06798398     -1.43034423      0.02123364
H       0.41566222      0.11885553     -2.59242916
H       1.20915113     -1.52135362     -2.38587947
H      -0.70110301     -1.43564878     -3.96310602
11
Frame 105  Energy = -268.5607976294 Hartree
C       0.86230900     -0.45343843     -0.55367029
C       0.41477977     -0.83486623     -2.00040649
C      -0.90049017     -1.55565917     -2.10896314
O      -1.58480727     -1.88571730     -1.18282759
O      -1.36558968     -1.84415903     -3.40026457
H       1.78372050      0.10538455     -0.53757261
H       0.02436773      0.13710773     -0.07930892
H       1.06490683     -1.43313897      0.01623129
H       0.41534164      0.11985244     -2.59766406
H       1.20696667     -1.52868344     -2.37583751
H      -0.69878161     -1.42488030     -3.96730995
11
Frame 110  Energy = -268.5607874940 Hartree
C       0.86093861     -0.45328016     -0.55564138
C       0.41270892     -0.83571518     -2.00239748
C      -0.90081541     -1.55728254     -2.10674374
O      -1.58261892     -1.88359165     -1.18298901
O      -1.36681621     -1.84467825     -3.39873222
H       1.78741177      0.10895336     -0.53646488
H       0.02714670      0.13487773     -0.07261155
H       1.06066464     -1.43187222      0.00968820
H       0.41447403      0.11811061     -2.60250448
H       1.20296473     -1.53448823     -2.36657709
H      -0.69724879     -1.41488793     -3.97245755
11
Frame 115  Energy = -268.5608845080 Hartree
C       0.85925066     -0.45346791     -0.55749139
C       0.41101347     -0.83643747     -2.00433006
C      -0.90139492     -1.55897187     -2.10459208
O      -1.58039571     -1.88151379     -1.18315438
O      -1.36785484     -1.84499488     -3.39708123
H       1.79112482      0.11283773     -0.53587734
H       0.03287460      0.13062341     -0.06686415
H       1.05503979     -1.42657575      0.00198204
H       0.41361336      0.11378886     -2.60683062
H       1.19726659     -1.53869183     -2.35808377
H      -0.69752394     -1.40632832     -3.97801654
11
Frame 120  Energy = -268.5609723896 Hartree
C       0.85728223     -0.45385609     -0.55913688
C       0.40972655     -0.83694383     -2.00623560
C      -0.90218522     -1.56077612     -2.10264967
O      -1.57807380     -1.87951486     -1.18325126
O      -1.36866255     -1.84511435     -3.39533777
H       1.79452135      0.11655101     -0.53570600
H       0.04088233      0.12456194     -0.06192729
H       1.04816998     -1.41775913     -0.00650580
H       0.41244811      0.10698658     -2.61042359
H       1.19026802     -1.54110997     -2.35046496
H      -0.69969260     -1.39948750     -3.98323667
11
Frame 125  Energy = -268.5611053330 Hartree
C       0.85507872     -0.45444830     -0.56077154
C       0.40879432     -0.83729223     -2.00798777
C      -0.90313786     -1.56249776     -2.10107513
O      -1.57580825     -1.87760384     -1.18322612
O      -1.36918127     -1.84495565     -3.39350402
H       1.79689125      0.12023176     -0.53620978
H       0.05100204      0.11698159     -0.05739542
H       1.04040825     -1.40628327     -0.01545182
H       0.41109823      0.09797088     -2.61390737
H       1.18216168     -1.54196917     -2.34405920
H      -0.70463008     -1.39472281     -3.98739348
11
Frame 130  Energy = -268.5610144327 Hartree
C       0.85266328     -0.45516158     -0.56253121
C       0.40817937     -0.83750289     -2.00962032
C      -0.90422766     -1.56410482     -2.09977836
O      -1.57358959     -1.87575539     -1.18302786
O      -1.36934107     -1.84461336     -3.39160311
H       1.79760006      0.12333316     -0.53725872
H       0.06252121      0.10834409     -0.05355545
H       1.03203021     -1.39231342     -0.02457613
H       0.40957241      0.08697480     -2.61722468
H       1.17303201     -1.54182460     -2.33939345
H      -0.71237647     -1.39177494     -3.99011397
11
Frame 135  Energy = -268.5609794317 Hartree
C       0.85019952     -0.45593141     -0.56437085
C       0.40776993     -0.83759618     -2.01109978
C      -0.90540813     -1.56551460     -2.09887426
O      -1.57141015     -1.87388444     -1.18262497
O      -1.36918962     -1.84413054     -3.38988199
H       1.79641703      0.12533888     -0.53883900
H       0.07506963      0.09943669     -0.05031003
H       1.02346619     -1.37727703     -0.03352233
H       0.40809876      0.07448387     -2.62051778
H       1.16371523     -1.54115491     -2.33590367
H      -0.72274461     -1.39054622     -3.99158014
11
Frame 140  Energy = -268.5608246406 Hartree
C       0.84777612     -0.45671723     -0.56638680
C       0.40762345     -0.83754115     -2.01240114
C      -0.90660662     -1.56677130     -2.09833079
O      -1.56928095     -1.87209117     -1.18197556
O      -1.36876531     -1.84349494     -3.38814261
H       1.79319970      0.12635323     -0.54097800
H       0.08750707      0.09068381     -0.04677077
H       1.01486235     -1.36275664     -0.04157280
H       0.40638308      0.06073520     -2.62453951
H       1.15489688     -1.54057356     -2.33394875
H      -0.73530267     -1.39121783     -3.99205381
11
Frame 145  Energy = -268.5608951430 Hartree
C       0.84538280     -0.45741602     -0.56872762
C       0.40767247     -0.83736541     -2.01352775
C      -0.90774197     -1.56785025     -2.09818976
O      -1.56732362     -1.87046561     -1.18105868
O      -1.36815338     -1.84280660     -3.38626899
H       1.78852976      0.12655454     -0.54393844
H       0.09874757      0.08263744     -0.04254208
H       1.00667928     -1.35007396     -0.04831074
H       0.40460023      0.04652293     -2.62928768
H       1.14702005     -1.54057917     -2.33382980
H      -0.74950708     -1.39320452     -3.99197369
11
Frame 150  Energy = -268.5611474335 Hartree
C       0.84299351     -0.45808990     -0.57128116
C       0.40777426     -0.83716020     -2.01439778
C      -0.90883980     -1.56874657     -2.09848261
O      -1.56553093     -1.86900201     -1.17993496
O      -1.36744316     -1.84206781     -3.38433178
H       1.78251520      0.12597639     -0.54761303
H       0.10802565      0.07586534     -0.03731966
H       0.99905594     -1.34037409     -0.05251862
H       0.40266256      0.03287221     -2.63535203
H       1.14031004     -1.54138318     -2.33560134
H      -0.76443572     -1.39631828     -3.99197486
11
Frame 155  Energy = -268.5612024448 Hartree
C       0.84066578     -0.45861734     -0.57406616
C       0.40800415     -0.83698431     -2.01499648
C      -0.90983146     -1.56951161     -2.09914717
O      -1.56396426     -1.86768740     -1.17850860
O      -1.36663653     -1.84114032     -3.38221607
H       1.77526396      0.12526700     -0.55202108
H       0.11496190      0.07088128     -0.03158568
H       0.99266629     -1.33463935     -0.05383561
H       0.40078527      0.02001983     -2.64305897
H       1.13512608     -1.54323658     -2.33918351
H      -0.77932446     -1.39994577     -3.99259294
11
Frame 160  Energy = -268.5611600562 Hartree
C       0.83844280     -0.45891479     -0.57721490
C       0.40829907     -0.83682135     -2.01525917
C      -0.91069579     -1.57005169     -2.10017237
O      -1.56261907     -1.86640565     -1.17684622
O      -1.36579149     -1.84018372     -3.37981526
H       1.76699511      0.12386169     -0.55673029
H       0.11936322      0.06770082     -0.02504087
H       0.98774879     -1.33360925     -0.05208953
H       0.39916699      0.00859625     -2.65245635
H       1.13126187     -1.54654208     -2.34466553
H      -0.79362462     -1.40353375     -3.99417454
11
Frame 165  Energy = -268.5612864926 Hartree
C       0.83627674     -0.45903004     -0.58067956
C       0.40860636     -0.83677090     -2.01531082
C      -0.91145669     -1.57040147     -2.10160541
O      -1.56147492     -1.86520188     -1.17491807
O      -1.36500522     -1.83927127     -3.37723144
H       1.75827401      0.12179035     -0.56159457
H       0.12122389      0.06654537     -0.01732886
H       0.98385804     -1.33728280     -0.04780738
H       0.39749043     -0.00039011     -2.66385446
H       1.12910843     -1.55051404     -2.35210778
H      -0.80698850     -1.40623613     -3.99761259
11
Frame 170  Energy = -268.5612360782 Hartree
C       0.83419431     -0.45899985     -0.58440111
C       0.40878314     -0.83685958     -2.01512163
C      -0.91218872     -1.57052031     -2.10332665
O      -1.56037166     -1.86401372     -1.17276068
O      -1.36440457     -1.83842291     -3.37445793
H       1.74954787      0.11952994     -0.56718446
H       0.12030767      0.06723272     -0.00876477
H       0.98105113     -1.34485428     -0.04096972
H       0.39585405     -0.00713173     -2.67721630
H       1.12852822     -1.55487999     -2.36110769
H      -0.81872102     -1.40790091     -4.00295801
11
Frame 175  Energy = -268.5613607645 Hartree
C       0.83213458     -0.45886297     -0.58826441
C       0.40896122     -0.83715635     -2.01478299
C      -0.91280730     -1.57048944     -2.10540075
O      -1.55936464     -1.86291512     -1.17034011
O      -1.36395244     -1.83772184     -3.37150239
H       1.74103181      0.11736061     -0.57336122
H       0.11713744      0.06930778      0.00044569
H       0.97882971     -1.35526751     -0.03249167
H       0.39423966     -0.01151298     -2.69207632
H       1.12903004     -1.55972727     -2.37107454
H      -0.82859825     -1.40827325     -4.01045497
11
Frame 180  Energy = -268.5613215192 Hartree
C       0.83002697     -0.45884741     -0.59211749
C       0.40917223     -0.83762916     -2.01430184
C      -0.91331150     -1.57018883     -2.10767986
O      -1.55853198     -1.86193862     -1.16774849
O      -1.36351610     -1.83709421     -3.36833262
H       1.73344762      0.11556552     -0.57991088
H       0.11217386      0.07239041      0.00943614
H       0.97748862     -1.36767781     -0.02308672
H       0.39250498     -0.01416634     -2.70761827
H       1.13040104     -1.56441507     -2.38161113
H      -0.83635561     -1.40750149     -4.02011306
11
Frame 185  Energy = -268.5614000393 Hartree
C       0.82768840     -0.45892721     -0.59585268
C       0.40942800     -0.83828077     -2.01369697
C      -0.91375708     -1.56972514     -2.11010974
O      -1.55799556     -1.86113898     -1.16501139
O      -1.36312033     -1.83653571     -3.36494708
H       1.72733154      0.11435326     -0.58700531
H       0.10564517      0.07623693      0.01785693
H       0.97697049     -1.38088935     -0.01347781
H       0.39059596     -0.01581661     -2.72337535
H       1.13212370     -1.56864545     -2.39260739
H      -0.84239449     -1.40555582     -4.03151758
11
Frame 190  Energy = -268.5613186531 Hartree
C       0.82525465     -0.45922398     -0.59934480
C       0.40963029     -0.83908737     -2.01300986
C      -0.91410638     -1.56911792     -2.11262149
O      -1.55756533     -1.86043239     -1.16217125
O      -1.36278417     -1.83607484     -3.36146928
H       1.72300168      0.11379734     -0.59454504
H       0.09816762      0.08041944      0.02484750
H       0.97699646     -1.39381323     -0.00481944
H       0.38893380     -0.01676473     -2.73880893
H       1.13418837     -1.57217077     -2.40404778
H      -0.84695627     -1.40284842     -4.04334388
11
Frame 195  Energy = -268.5614079936 Hartree
C       0.82264208     -0.45973037     -0.60257658
C       0.40995469     -0.83994606     -2.01242636
C      -0.91432627     -1.56840881     -2.11521291
O      -1.55721115     -1.85981781     -1.15927423
O      -1.36258874     -1.83575074     -3.35800848
H       1.72040745      0.11396820     -0.60263045
H       0.09075745      0.08423243      0.02988043
H       0.97731939     -1.40515315      0.00214439
H       0.38714255     -0.01773016     -2.75335731
H       1.13614224     -1.57481909     -2.41533501
H      -0.85093427     -1.40026069     -4.05495940
11
Frame 200  Energy = -268.5613230143 Hartree
C       0.81985794     -0.46053894     -0.60551241
C       0.41048230     -0.84082900     -2.01204764
C      -0.91455124     -1.56762246     -2.11778003
O      -1.55685513     -1.85929183     -1.15633288
O      -1.36242077     -1.83542497     -3.35466459
H       1.71949251      0.11479407     -0.61115860
H       0.08368210      0.08712573      0.03266387
H       0.97755201     -1.41380930      0.00721372
H       0.38507702     -0.01892693     -2.76669661
H       1.13779517     -1.57619804     -2.42637954
H      -0.85463116     -1.39814026     -4.06540380
11
Frame 205  Energy = -268.5615526400 Hartree
C       0.81684534     -0.46165409     -0.60804829
C       0.41113706     -0.84185229     -2.01189544
C      -0.91479335     -1.56674395     -2.12022566
O      -1.55654711     -1.85888638     -1.15349706
O      -1.36229284     -1.83515876     -3.35145294
H       1.72001053      0.11602724     -0.62001454
H       0.07703620      0.08874595      0.03285929
H       0.97764593     -1.41958643      0.01021110
H       0.38280572     -0.02067280     -2.77802441
H       1.13902135     -1.57634030     -2.43640468
H      -0.85862912     -1.39661573     -4.07361614
11
Frame 210  Energy = -268.5616934237 Hartree
C       0.81373902     -0.46294263     -0.61017659
C       0.41183416     -0.84297166     -2.01195696
C      -0.91496097     -1.56575098     -2.12250911
O      -1.55621277     -1.85861327     -1.15077702
O      -1.36214112     -1.83493306     -3.34840937
H       1.72147995      0.11779423     -0.62879329
H       0.07123626      0.08920768      0.03029954
H       0.97751527     -1.42211492      0.01054841
H       0.38095690     -0.02355173     -2.78658899
H       1.13955322     -1.57495363     -2.44541766
H      -0.86323893     -1.39607277     -4.07907566
11
Frame 215  Energy = -268.5616815335 Hartree
C       0.81059309     -0.46437882     -0.61206545
C       0.41253236     -0.84409317     -2.01230165
C      -0.91501259     -1.56458529     -2.12457085
O      -1.55583866     -1.85832597     -1.14813429
O      -1.36200206     -1.83467747     -3.34560901
H       1.72389062      0.11957164     -0.63710421
H       0.06630801      0.08877628      0.02461707
H       0.97701178     -1.42125370      0.00834649
H       0.37960626     -0.02764070     -2.79227159
H       1.13955069     -1.57226524     -2.45371342
H      -0.86871162     -1.39667570     -4.08172765
11
Frame 220  Energy = -268.5618607124 Hartree
C       0.80740306     -0.46599789     -0.61360009
C       0.41321170     -0.84525299     -2.01309755
C      -0.91508246     -1.56329041     -2.12620168
O      -1.55537857     -1.85802568     -1.14553042
O      -1.36194642     -1.83444012     -3.34313276
H       1.72667501      0.12112896     -0.64487448
H       0.06218792      0.08782196      0.01590117
H       0.97658720     -1.41710356      0.00334462
H       0.37886363     -0.03265379     -2.79499510
H       1.13900452     -1.56807239     -2.46099614
H      -0.87492661     -1.39869464     -4.08131704
11
Frame 225  Energy = -268.5620366335 Hartree
C       0.80422656     -0.46776921     -0.61466079
C       0.41381057     -0.84643458     -2.01429969
C      -0.91519048     -1.56188796     -2.12746231
O      -1.55491499     -1.85766117     -1.14300857
O      -1.36191822     -1.83418295     -3.34097402
H       1.72940849      0.12246564     -0.65180581
H       0.05887153      0.08588559      0.00463002
H       0.97626442     -1.40991231     -0.00419507
H       0.37837266     -0.03835358     -2.79503628
H       1.13811865     -1.56273695     -2.46708935
H      -0.88156975     -1.40167352     -4.07808309
11
Frame 230  Energy = -268.5621966635 Hartree
C       0.80105897     -0.46962810     -0.61538441
C       0.41434876     -0.84770930     -2.01578891
C      -0.91524445     -1.56040454     -2.12819526
O      -1.55448405     -1.85726765     -1.14049859
O      -1.36186713     -1.83387582     -3.33911513
H       1.73171340      0.12341496     -0.65831957
H       0.05634085      0.08329252     -0.00895515
H       0.97579809     -1.40006165     -0.01364922
H       0.37827637     -0.04433442     -2.79262263
H       1.13725355     -1.55687755     -2.47204127
H      -0.88843090     -1.40519937     -4.07275691
11
Frame 235  Energy = -268.5620192790 Hartree
C       0.79801439     -0.47158410     -0.61586597
C       0.41484948     -0.84907749     -2.01757074
C      -0.91529275     -1.55880683     -2.12836937
O      -1.55402235     -1.85696145     -1.13809670
O      -1.36186340     -1.83364119     -3.33757226
H       1.73320443      0.12381759     -0.66380096
H       0.05401336      0.08062377     -0.02448448
H       0.97555886     -1.38833633     -0.02446523
H       0.37826977     -0.05038423     -2.78775261
H       1.13632809     -1.55014615     -2.47611018
H      -0.89513195     -1.40885117     -4.06549453
11
Frame 240  Energy = -268.5617791662 Hartree
C       0.79511931     -0.47354847     -0.61616517
C       0.41520759     -0.85062093     -2.01963853
C      -0.91539193     -1.55705747     -2.12806054
O      -1.55361932     -1.85668572     -1.13579150
O      -1.36201053     -1.83345208     -3.33621718
H       1.73350682      0.12331409     -0.66839370
H       0.05171411      0.07786231     -0.04198701
H       0.97542843     -1.37530432     -0.03632807
H       0.37883469     -0.05585704     -2.78070400
H       1.13523003     -1.54303125     -2.47945197
H      -0.90123207     -1.41268254     -4.05708029
11
Frame 245  Energy = -268.5618131274 Hartree
C       0.79245365     -0.47547348     -0.61629043
C       0.41550080     -0.85228619     -2.02205265
C      -0.91553075     -1.55524950     -2.12725439
O      -1.55314906     -1.85635041     -1.13367533
O      -1.36234404     -1.83331337     -3.33504244
H       1.73231325      0.12192184     -0.67262438
H       0.04921095      0.07506493     -0.06073611
H       0.97548593     -1.36253147     -0.04843750
H       0.37942340     -0.06033028     -2.77210959
H       1.13440987     -1.53576528     -2.48192566
H      -0.90633463     -1.41627879     -4.04898145
11
Frame 250  Energy = -268.5614267365 Hartree
C       0.79013162     -0.47729992     -0.61646790
C       0.41566349     -0.85400981     -2.02464516
C      -0.91564442     -1.55325480     -2.12583048
O      -1.55265757     -1.85599116     -1.13174073
O      -1.36288149     -1.83323426     -3.33406565
H       1.72916949      0.11971769     -0.67645452
H       0.04584100      0.07256960     -0.08026994
H       0.97623509     -1.35092502     -0.05968095
H       0.38017127     -0.06359550     -2.76268658
H       1.13409309     -1.52864061     -2.48371304
H      -0.90966840     -1.41890783     -4.04202886
11
Frame 255  Energy = -268.5614179152 Hartree
C       0.78809864     -0.47890915     -0.61673745
C       0.41568703     -0.85588229     -2.02739991
C      -0.91584318     -1.55122402     -2.12373711
O      -1.55198526     -1.85556189     -1.12989904
O      -1.36356647     -1.83329064     -3.33312331
H       1.72439115      0.11665122     -0.67967112
H       0.04133059      0.07112148     -0.10024268
H       0.97782433     -1.34173745     -0.06925600
H       0.38112892     -0.06522990     -2.75262044
H       1.13460260     -1.52186046     -2.48494628
H      -0.91052282     -1.42008366     -4.03666281
11
Frame 260  Energy = -268.5614656960 Hartree
C       0.78629953     -0.48025442     -0.61730816
C       0.41566917     -0.85780513     -2.03029631
C      -0.91621008     -1.54922652     -2.12107726
O      -1.55124880     -1.85505518     -1.12825191
O      -1.36449101     -1.83343532     -3.33217887
H       1.71843418      0.11278127     -0.68202794
H       0.03526010      0.07130696     -0.11951114
H       0.98019840     -1.33594443     -0.07647037
H       0.38219330     -0.06468909     -2.74255337
H       1.13593123     -1.51578891     -2.48587044
H      -0.90888659     -1.41966686     -4.03341566
11
Frame 265  Energy = -268.5618172464 Hartree
C       0.78480087     -0.48134600     -0.61817216
C       0.41554363     -0.85974091     -2.03321218
C      -0.91666939     -1.54721530     -2.11791565
O      -1.55043519     -1.85446846     -1.12689730
O      -1.36566801     -1.83370864     -3.33119914
H       1.71131499      0.10848402     -0.68329260
H       0.02739951      0.07287643     -0.13761991
H       0.98363122     -1.33436385     -0.08039745
H       0.38318957     -0.06161677     -2.73292988
H       1.13842316     -1.51070026     -2.48692896
H      -0.90449684     -1.41775519     -4.03250943
11
Frame 270  Energy = -268.5618434962 Hartree
C       0.78347895     -0.48220649     -0.61940659
C       0.41528876     -0.86170730     -2.03614473
C      -0.91728065     -1.54530398     -2.11433154
O      -1.54946419     -1.85391011     -1.12575049
O      -1.36707780     -1.83405811     -3.33024690
H       1.70341182      0.10419923     -0.68382275
H       0.01805750      0.07558419     -0.15446933
H       0.98815885     -1.33691894     -0.08113066
H       0.38437762     -0.05559495     -2.72427084
H       1.14244298     -1.50648678     -2.48799741
H      -0.89778418     -1.41457718     -4.03348979
11
Frame 275  Energy = -268.5618695942 Hartree
C       0.78230218     -0.48285222     -0.62102181
C       0.41501541     -0.86376225     -2.03910194
C      -0.91805559     -1.54347121     -2.11034440
O      -1.54837386     -1.85331911     -1.12472500
O      -1.36875158     -1.83442986     -3.32935344
H       1.69552623      0.10012237     -0.68366656
H       0.00690927      0.07937078     -0.16986443
H       0.99323811     -1.34322714     -0.07890640
H       0.38550254     -0.04660295     -2.71664102
H       1.14780228     -1.50378186     -2.48927620
H      -0.88935499     -1.41050011     -4.03561198
11
Frame 280  Energy = -268.5618867657 Hartree
C       0.78133786     -0.48334913     -0.62303280
C       0.41462465     -0.86588560     -2.04200987
C      -0.91884922     -1.54172411     -2.10598832
O      -1.54724177     -1.85278234     -1.12386521
O      -1.37060175     -1.83487119     -3.32853213
H       1.68775294      0.09656150     -0.68269287
H      -0.00574656      0.08442747     -0.18408214
H       0.99876245     -1.35286633     -0.07398167
H       0.38636553     -0.03499513     -2.71020776
H       1.15430443     -1.50254037     -2.49086688
H      -0.87970896     -1.40578857     -4.03788249
11
Frame 285  Energy = -268.5617670092 Hartree
C       0.78055417     -0.48360582     -0.62537588
C       0.41413738     -0.86806252     -2.04486245
C      -0.91965356     -1.54007864     -2.10141032
O      -1.54602530     -1.85225000     -1.12319802
O      -1.37255446     -1.83532277     -3.32779751
H       1.68079207      0.09369097     -0.68118611
H      -0.01937764      0.09016876     -0.19733483
H       1.00439515     -1.36468316     -0.06700993
H       0.38704204     -0.02114277     -2.70482856
H       1.16152052     -1.50282985     -2.49299347
H      -0.86949407     -1.40118277     -4.03952990
11
Frame 290  Energy = -268.5614398226 Hartree
C       0.77985963     -0.48388454     -0.62793374
C       0.41361091     -0.87025192     -2.04766537
C      -0.92046201     -1.53859482     -2.09664738
O      -1.54474711     -1.85176392     -1.12259722
O      -1.37460693     -1.83576470     -3.32712773
H       1.67516916      0.09201972     -0.67902419
H      -0.03335826      0.09621636     -0.20971569
H       1.00984507     -1.37756348     -0.05849573
H       0.38755900     -0.00545860     -2.70021739
H       1.16966177     -1.50430393     -2.49529406
H      -0.85957810     -1.39726751     -4.03993798
11
Frame 295  Energy = -268.5612386905 Hartree
C       0.77915684     -0.48425637     -0.63068195
C       0.41307190     -0.87246319     -2.05044506
C      -0.92124814     -1.53722445     -2.09187437
O      -1.54348760     -1.85133652     -1.12189206
O      -1.37666878     -1.83618421     -3.32662625
H       1.67077931      0.09195134     -0.67649829
H      -0.04727496      0.10198836     -0.22146816
H       1.01474080     -1.39000505     -0.04920116
H       0.38809894      0.01121564     -2.69561965
H       1.17827523     -1.50652397     -2.49775081
H      -0.85075314     -1.39456328     -4.03794838
11
Frame 300  Energy = -268.5614141776 Hartree
C       0.77830341     -0.48477461     -0.63346547
C       0.41269175     -0.87450419     -2.05317382
C      -0.92203000     -1.53601642     -2.08709851
O      -1.54229610     -1.85094720     -1.12118045
O      -1.37868710     -1.83652070     -3.32638049
H       1.66833119      0.09356214     -0.67361880
H      -0.06033891      0.10679506     -0.23232266
H       1.01866490     -1.40134070     -0.03990051
H       0.38852229      0.02776997     -2.69092766
H       1.18653634     -1.50898985     -2.50040191
H      -0.84289664     -1.39280929     -4.03294625
