7
Iteration 1  Energy = -29.6073396868
C  -0.1976925916  0.7257613799 -0.1955497921
H  -0.3801230069  1.5216950035 -0.9330453613
O  -0.5442323838  0.8867048060  1.0981129438
C   0.2838161001 -0.6093081695 -0.2541963885
H  -0.2838609957 -0.3238035844  1.0140761511
H  -0.0023964392 -1.3517620121 -1.0110804794
H   1.2442297609 -0.7679407120  0.2590196646
7
Iteration 2  Energy = -29.6073513991
C  -0.1926475483  0.7242962412 -0.2129178223
H  -0.3708041904  1.5223107759 -0.9462717295
O  -0.5406601105  0.8790924864  1.0796393942
C   0.2887865667 -0.6126647504 -0.2716372123
H  -0.2729077617 -0.3308552148  0.9961432337
H  -0.0088677543 -1.3572799984 -1.0210570682
H   1.2533911996 -0.7708074237  0.2308038301
7
Iteration 3  Energy = -29.6073514289
C  -0.1925509432  0.7257491283 -0.2138272470
H  -0.3705254807  1.5240752259 -0.9468893670
O  -0.5412718595  0.8798908730  1.0786070366
C   0.2895928957 -0.6109521708 -0.2728561920
H  -0.2725941795 -0.3298219244  0.9948991962
H  -0.0078201027 -1.3555056705 -1.0222985713
H   1.2542802459 -0.7688378170  0.2293813821
