7
Image 0
C  -0.2517334696  0.6194772482 -0.1516418713
H  -0.4039663293  1.2547000111 -1.0225832768
O  -0.7144752070  1.1880754398  0.9681749104
C   0.2330299000 -0.6232122848 -0.2785693481
H  -0.1058818495 -0.3046996805  1.4924880829
H   0.1461513655 -1.1117195590 -1.2448142423
H   1.0968755898 -1.0226211748  0.2369457451
7
Image 1
C  -0.2927239576  0.6960789913 -0.1395239999
H  -0.4025732773  1.2591661183 -1.0352593221
O  -0.6945866649  1.1589294009  0.9599590695
C   0.2543392156 -0.6705106919 -0.2711818145
H  -0.1076526962 -0.3073999019  1.4846801736
H   0.1405501312 -1.1142668276 -1.2481470254
H   1.1026472493 -1.0219970891  0.2494729188
7
Image 2
C  -0.2890056960  0.6778998507 -0.1468860416
H  -0.4057460706  1.2719836090 -1.0508915644
O  -0.6906621417  1.1540265776  0.9749045281
C   0.2410570545 -0.6498471703 -0.2656617769
H  -0.1077714754 -0.3075849726  1.4801259530
H   0.1400138933 -1.1198649949 -1.2550989072
H   1.1121144360 -1.0266128994  0.2635078089
7
Image 3
C  -0.2928600836  0.6740845010 -0.1612622108
H  -0.4038152546  1.2909261388 -1.0708298294
O  -0.6790992426  1.1360000984  0.9929878465
C   0.2327568848 -0.6371415822 -0.2469222366
H  -0.1105813353 -0.3180189890  1.4545979968
H   0.1287914199 -1.1291508040 -1.2457030174
H   1.1248076114 -1.0166993631  0.2771314510
7
Image 4
C  -0.2973109436  0.6741644836 -0.1768532528
H  -0.3990970010  1.3177150118 -1.0933909443
O  -0.6589805190  1.1036530651  1.0132186443
C   0.2220860028 -0.6282059570 -0.2256865739
H  -0.1207668535 -0.3319500723  1.4065366298
H   0.1088602530 -1.1424094518 -1.2155626225
H   1.1452090613 -0.9929670794  0.2917381194
7
Image 5
C  -0.2975355500  0.6731856096 -0.1887460146
H  -0.3926829142  1.3382601110 -1.1064639952
O  -0.6412013797  1.0725054732  1.0297642643
C   0.2141192581 -0.6223473419 -0.2069444903
H  -0.1344298325 -0.3410583537  1.3551292979
H   0.0884358345 -1.1552970357 -1.1820165512
H   1.1632945838 -0.9652484627  0.2992774891
7
Image 6
C  -0.2991739834  0.6872821775 -0.1918379812
H  -0.3923943680  1.3481666231 -1.1057129491
O  -0.6225227518  1.0431440806  1.0335902272
C   0.2129572555 -0.6267128719 -0.1931472264
H  -0.1468328164 -0.3431328245  1.3069910195
H   0.0759918903 -1.1638652447 -1.1567504524
H   1.1719747739 -0.9448819403  0.3068673624
7
Image 7
C  -0.2938534421  0.6950939039 -0.1923852471
H  -0.4068356232  1.3555294560 -1.0910465334
O  -0.5990026685  1.0194335779  1.0397469642
C   0.2226886246 -0.6352463668 -0.1777478634
H  -0.1620092829 -0.3290687364  1.2462681246
H   0.0772780875 -1.1722277568 -1.1396381052
H   1.1617343046 -0.9335140779  0.3148026602
7
Image 8
C  -0.2790885481  0.6949319855 -0.1912720647
H  -0.4331077696  1.3656796725 -1.0666819214
O  -0.5632164728  0.9853338973  1.0535593527
C   0.2279663492 -0.6399598996 -0.1679805257
H  -0.1886885487 -0.2975193576  1.1581918670
H   0.0860412244 -1.1843145146 -1.1137423980
H   1.1500937657 -0.9241517836  0.3279256901
7
Image 9
C  -0.2592037119  0.6831336171 -0.1897139381
H  -0.4549819000  1.3654552284 -1.0394400164
O  -0.5471813263  0.9818683801  1.0682355049
C   0.2335559023 -0.6415209625 -0.1808196247
H  -0.2099963517 -0.2715363436  1.1061085779
H   0.0964261527 -1.1940398278 -1.0983385193
H   1.1413812349 -0.9233600917  0.3339680158
7
Image 10
C  -0.2458772924  0.6821532351 -0.1842196137
H  -0.4657788217  1.3647153755 -1.0217469498
O  -0.5395218312  0.9842833195  1.0714571966
C   0.2353449403 -0.6335714087 -0.1879025105
H  -0.2294614153 -0.2639757351  1.0795440943
H   0.0939347340 -1.2139361563 -1.0948775180
H   1.1513596863 -0.9196686299  0.3377453010
7
Image 11
C  -0.2349840739  0.6911207577 -0.1853229867
H  -0.4735273733  1.3668042106 -1.0089783917
O  -0.5360488456  0.9918206055  1.0772605478
C   0.2448474280 -0.6309182065 -0.1977921083
H  -0.2487744383 -0.2707115422  1.0673607346
H   0.0857164095 -1.2355319978 -1.0933493389
H   1.1627708936 -0.9125838273  0.3408215433
7
Image 12
C  -0.2154702972  0.7025390685 -0.1786979948
H  -0.4945960138  1.3821658799 -0.9937872085
O  -0.5160466401  0.9881845413  1.0844681720
C   0.2659060906 -0.6243831655 -0.2124068618
H  -0.2873331597 -0.2782448645  1.0336395487
H   0.0742921191 -1.2720523329 -1.0831815133
H   1.1732479011 -0.8982091268  0.3499658577
7
Image 13
C  -0.2235940730  0.7022461074 -0.1789310015
H  -0.4867186952  1.3806244141 -1.0039708290
O  -0.5246596250  0.9922796369  1.0787460764
C   0.2609956373 -0.6246172280 -0.2095364463
H  -0.2728015827 -0.2876489911  1.0575926173
H   0.0750306267 -1.2595614891 -1.0898216379
H   1.1717477120 -0.9033224502  0.3459212211
7
Image 14
C  -0.2164074058  0.7128317097 -0.1840692213
H  -0.4983285207  1.3892248261 -0.9955557695
O  -0.5090134514  0.9826900995  1.0834941148
C   0.2695975008 -0.6227219300 -0.2165285179
H  -0.2904070877 -0.2931764153  1.0398455859
H   0.0726777085 -1.2724763671 -1.0797656763
H   1.1718812563 -0.8963719229  0.3525794844
7
Image 15
C  -0.2080482296  0.7190116028 -0.1882397698
H  -0.5111831984  1.4006375814 -0.9880944399
O  -0.4904321088  0.9698893822  1.0872733189
C   0.2763015664 -0.6174041820 -0.2244304524
H  -0.3074160729 -0.2987680315  1.0211838032
H   0.0715447672 -1.2850559617 -1.0684619955
H   1.1692332761 -0.8883103912  0.3607695356
7
Image 16
C  -0.1989790816  0.7251893496 -0.1960377155
H  -0.5262456409  1.4169773365 -0.9776281980
O  -0.4641520364  0.9498973504  1.0907605669
C   0.2834291638 -0.6100906358 -0.2356933467
H  -0.3258408758 -0.3077361918  1.0000687233
H   0.0716759727 -1.2992835539 -1.0534250708
H   1.1601124982 -0.8749536549  0.3719550409
7
Image 17
C  -0.1966439600  0.7253278756 -0.1982288393
H  -0.5283359189  1.4249950659 -0.9738181364
O  -0.4556681315  0.9426797481  1.0898855315
C   0.2849363230 -0.6065681592 -0.2408991620
H  -0.3295304017 -0.3153585144  0.9965357824
H   0.0701544542 -1.3058340452 -1.0493005098
H   1.1550876349 -0.8652419709  0.3758253335
7
Image 18
C  -0.1987208206  0.7214428278 -0.1998879066
H  -0.5208939950  1.4349803764 -0.9713069838
O  -0.4533067234  0.9361201501  1.0864026779
C   0.2826971655 -0.6054125760 -0.2465957418
H  -0.3230956432 -0.3281870221  1.0025885509
H   0.0658322924 -1.3117626642 -1.0494442484
H   1.1474877243 -0.8471810921  0.3782436516
7
Image 19
C  -0.2043069580  0.7165177434 -0.1986306529
H  -0.5082624422  1.4356959955 -0.9724438695
O  -0.4627350126  0.9376784526  1.0839493464
C   0.2768467487 -0.6091279571 -0.2466808905
H  -0.3106327853 -0.3317689697  1.0122730284
H   0.0618618478 -1.3115630986 -1.0544781265
H   1.1472286016 -0.8374321662  0.3760111648
7
Image 20
C  -0.2128823557  0.7113233549 -0.1945125950
H  -0.4968109765  1.4259812715 -0.9783476602
O  -0.4793224188  0.9478365965  1.0815324772
C   0.2698405038 -0.6152500493 -0.2384190129
H  -0.2942162997 -0.3249691536  1.0252973765
H   0.0623867064 -1.3021408611 -1.0649397082
H   1.1510048405 -0.8427811589  0.3693891226
7
Image 21
C  -0.2165711010  0.7123700222 -0.1960598029
H  -0.4909682868  1.4270161501 -0.9759590532
O  -0.4828506240  0.9461237192  1.0823117271
C   0.2675494855 -0.6174920687 -0.2391434279
H  -0.2889867447 -0.3271782988  1.0285930670
H   0.0600166794 -1.3050336296 -1.0670123592
H   1.1518105915 -0.8358058945  0.3672698492
7
Image 22
C  -0.2194503029  0.7123421095 -0.1938186255
H  -0.4851923107  1.4347470614 -0.9703907950
O  -0.4856881610  0.9386490905  1.0849556586
C   0.2647293579 -0.6174758200 -0.2431043015
H  -0.2860399557 -0.3311094758  1.0269976336
H   0.0545662616 -1.3155242619 -1.0659054867
H   1.1570751109 -0.8216287036  0.3612659166
7
Image 23
C  -0.2153815827  0.7177604615 -0.1954066450
H  -0.4859513015  1.4502544745 -0.9580425795
O  -0.4802768409  0.9231535304  1.0931458375
C   0.2694907628 -0.6157043282 -0.2535779205
H  -0.2990187435 -0.3393954544  1.0104132142
H   0.0446807887 -1.3348646166 -1.0504510643
H   1.1664569171 -0.8012040672  0.3539191576
7
Image 24
C  -0.2105735854  0.7202040898 -0.1949645475
H  -0.4867472704  1.4614354325 -0.9503067264
O  -0.4782781816  0.9115812573  1.0976934442
C   0.2743156883 -0.6124258305 -0.2582935808
H  -0.3133060303 -0.3436559544  0.9943520269
H   0.0349171487 -1.3477083317 -1.0342804195
H   1.1796722306 -0.7894306630  0.3457998031
7
Image 25
C  -0.2087186719  0.7208756306 -0.1933751802
H  -0.4813554757  1.4740572555 -0.9418323723
O  -0.4829364012  0.9003773339  1.0984952337
C   0.2819610577 -0.6103575797 -0.2614423401
H  -0.3260549852 -0.3502670424  0.9848177737
H   0.0222335420 -1.3601302739 -1.0162246802
H   1.1948709343 -0.7745553240  0.3295615654
7
Image 26
C  -0.2107286550  0.7195319426 -0.1932719893
H  -0.4796800998  1.4718183475 -0.9433732970
O  -0.4866681926  0.9043506452  1.0961554992
C   0.2814388490 -0.6112210163 -0.2593692504
H  -0.3236229045 -0.3497993056  0.9901490863
H   0.0241487381 -1.3557830197 -1.0174753536
H   1.1951122648 -0.7788975937  0.3271853048
7
Image 27
C  -0.2137431653  0.7176719662 -0.1936743962
H  -0.4761024795  1.4717192006 -0.9428926639
O  -0.4930036646  0.9085264212  1.0923935646
C   0.2807733230 -0.6113111440 -0.2578226651
H  -0.3200974998 -0.3515091742  1.0000738159
H   0.0262150977 -1.3530628095 -1.0186133703
H   1.1959583885 -0.7820344601  0.3205357149
7
Image 28
C  -0.2169613995  0.7175768452 -0.1944261546
H  -0.4687738004  1.4788434229 -0.9375988998
O  -0.5036752156  0.9074616842  1.0895526415
C   0.2819811740 -0.6114847243 -0.2588019824
H  -0.3219131905 -0.3578052559  1.0074340164
H   0.0232936736 -1.3563485729 -1.0095772534
H   1.2060487585 -0.7782433991  0.3034176323
7
Image 29
C  -0.2192038441  0.7156910440 -0.1942922315
H  -0.4669825880  1.4742283349 -0.9416634231
O  -0.5074257782  0.9127386859  1.0877417579
C   0.2789069292 -0.6118839658 -0.2563553753
H  -0.3152234741 -0.3558604179  1.0164285625
H   0.0284685555 -1.3498850798 -1.0152605779
H   1.2014601996 -0.7850286012  0.3034012873
7
Image 30
C  -0.2182106218  0.7164060755 -0.1932658653
H  -0.4659075124  1.4768047922 -0.9406982366
O  -0.5074759006  0.9085323730  1.0889986046
C   0.2797711086 -0.6103999225 -0.2560926561
H  -0.3178596127 -0.3566030980  1.0119938692
H   0.0252239978 -1.3539890846 -1.0123573730
H   1.2044585411 -0.7807511355  0.3014216572
7
Image 31
C  -0.2213157460  0.7157152335 -0.1929632674
H  -0.4649421201  1.4763063405 -0.9423960837
O  -0.5113334434  0.9114348319  1.0873600469
C   0.2764190047 -0.6115529962 -0.2528968218
H  -0.3124799323 -0.3550579747  1.0188841910
H   0.0294492682 -1.3513451717 -1.0168240101
H   1.2042029688 -0.7855002633  0.2988359452
7
Image 32
C  -0.2244479243  0.7186112628 -0.1916272658
H  -0.4614613952  1.4806967220 -0.9421744585
O  -0.5178706007  0.9073658096  1.0898979868
C   0.2730264476 -0.6150159599 -0.2499692521
H  -0.3096384131 -0.3541359002  1.0192095609
H   0.0285682603 -1.3550441811 -1.0167995736
H   1.2118236253 -0.7824777533  0.2914630024
7
Image 33
C  -0.2251092928  0.7173198011 -0.1897463897
H  -0.4603074230  1.4831387270 -0.9414155359
O  -0.5207791684  0.9057009387  1.0906426967
C   0.2732817276 -0.6153103527 -0.2492760921
H  -0.3096394352 -0.3542669032  1.0180264261
H   0.0263556433 -1.3572376605 -1.0158213931
H   1.2161979485 -0.7793445504  0.2875902881
7
Image 34
C  -0.2261831710  0.7165324441 -0.1888710733
H  -0.4604133257  1.4832375654 -0.9392080201
O  -0.5229392302  0.9047229004  1.0914876670
C   0.2756147199 -0.6158841896 -0.2484223418
H  -0.3097537216 -0.3545218792  1.0163099539
H   0.0235908023 -1.3583672107 -1.0153135413
H   1.2200839264 -0.7757196304  0.2840173555
7
Image 35
C  -0.2253441723  0.7154531484 -0.1884635417
H  -0.4627809452  1.4810938539 -0.9379195705
O  -0.5211273841  0.9052390521  1.0909498990
C   0.2772787854 -0.6151090752 -0.2502146696
H  -0.3108359542 -0.3550079216  1.0149529163
H   0.0224016970 -1.3571107316 -1.0146973239
H   1.2204079734 -0.7745583261  0.2853922904
7
Image 36
C  -0.2229130409  0.7157305115 -0.1889948986
H  -0.4675843570  1.4776436175 -0.9331315093
O  -0.5168024917  0.9016846772  1.0914752252
C   0.2826343462 -0.6122343701 -0.2537839866
H  -0.3158644593 -0.3579266871  1.0088589060
H   0.0165945540 -1.3578474211 -1.0101372335
H   1.2239354486 -0.7670503279  0.2857134968
