7
Image 0  Energy = -29.67961370
C  -0.2598259114  0.4808079854 -0.1681707189
H  -0.6304470545  1.1716989377 -0.9204230268
O  -0.5178163446  0.9545990372  1.0767522247
C   0.3552182056 -0.6574127831 -0.4783526332
H  -0.1759825156  0.3231793443  1.7246408121
H   0.5057918168 -0.9293453754 -1.5161798492
H   0.7230618037 -1.3435271460  0.2817331914
7
Image 1  Energy = -29.67096584
C  -0.2400350203  0.5029441939 -0.2107582448
H  -0.5905297837  1.2660611031 -0.9754514409
O  -0.5135137256  0.8853699951  1.1076465306
C   0.3471176398 -0.6258722745 -0.4522468528
H  -0.2217213303  0.2108963812  1.6637007870
H   0.3844849162 -1.0282714380 -1.4193642054
H   0.8341973038 -1.2111279607  0.2864734263
7
Image 2  Energy = -29.65110103
C  -0.2241128107  0.5335861160 -0.2558529020
H  -0.5306402316  1.3387763031 -1.0258483394
O  -0.5219036586  0.8101112369  1.1401908939
C   0.3367291002 -0.6006369970 -0.4491232339
H  -0.2753685543  0.1156186441  1.6220718986
H   0.2462002995 -1.1169366997 -1.3240194015
H   0.9690958556 -1.0805186034  0.2925810843
7
Image 3  Energy = -29.63589107
C  -0.2139558128  0.5793290267 -0.2624638567
H  -0.4770193160  1.4027977079 -1.0043990593
O  -0.5386756155  0.7603920224  1.1406884589
C   0.3308172703 -0.5968949239 -0.4371036184
H  -0.3254792861  0.0270070436  1.5012964513
H   0.1286912471 -1.2269805235 -1.2239551673
H   1.0956215129 -0.9456503531  0.2859367915
7
Image 4  Energy = -29.63909159
C  -0.2110294923  0.6334154744 -0.2435522351
H  -0.4470605631  1.4496945902 -0.9585451433
O  -0.5422476430  0.7649879983  1.1229851243
C   0.3196215090 -0.6000784985 -0.3910177832
H  -0.3502472625 -0.0960841788  1.3148695962
H   0.0519248262 -1.3178069680 -1.1214280040
H   1.1790386257 -0.8341284176  0.2766884450
7
Image 5  Energy = -29.61762165
C  -0.2165766718  0.6887552282 -0.2111095912
H  -0.4514827673  1.4735140536 -0.9333012788
O  -0.5260467182  0.8392191845  1.1018243797
C   0.2971430638 -0.6046363968 -0.3051382511
H  -0.3365644961 -0.2662410796  1.1048399437
H   0.0202864267 -1.3576433415 -1.0348073807
H   1.2132411628 -0.7729676485  0.2776921784
7
Image 6  Energy = -29.61721178
C  -0.2314311852  0.7408949711 -0.1632859006
H  -0.4910763473  1.4771298621 -0.9422013299
O  -0.5109778458  0.9773423281  1.0818117302
C   0.2671391726 -0.6251357324 -0.2020629725
H  -0.2876279775 -0.4458464481  0.9301411003
H   0.0177019631 -1.3457877904 -1.0033524573
H   1.2362722200 -0.7785971904  0.2989498298
7
Image 7  Energy = -29.65736843
C  -0.2526388423  0.7863636474 -0.1033578952
H  -0.5285534889  1.4636737694 -0.9752162487
O  -0.5230299362  1.1532967594  1.0570530483
C   0.2353015130 -0.6584691016 -0.0995245956
H  -0.2164447169 -0.6244997097  0.8209957747
H   0.0170686308 -1.2951236495 -1.0183080000
H   1.2682968406 -0.8252417154  0.3183579163
7
Image 8  Energy = -29.63922716
C  -0.2734813114  0.8221572413 -0.0414588182
H  -0.4940131114  1.4363290778 -1.0025218744
O  -0.5878829548  1.3221894539  1.0136527797
C   0.2083540122 -0.6828509337 -0.0085505957
H  -0.1443590570 -0.8193850913  0.7770705186
H  -0.0152399373 -1.2294710130 -1.0236231501
H   1.3066223597 -0.8489687351  0.2854311401
7
Image 9  Energy = -29.63846742
C  -0.2871089150  0.8419192090  0.0060112604
H  -0.3711559903  1.4047058689 -1.0066138825
O  -0.6960030047  1.4353279556  0.9566190190
C   0.1922886214 -0.6849466664  0.0528946164
H  -0.0919003207 -1.0017634732  0.7934657410
H  -0.0809371318 -1.1729328279 -0.9924924238
H   1.3348167410 -0.8223100660  0.1901156696
7
Image 10  Energy = -29.68742759
C  -0.2870633984  0.8382226338  0.0201559709
H  -0.1854342178  1.3820149504 -0.9802514362
O  -0.8129287122  1.4469821983  0.9041227809
C   0.1910903028 -0.6598424380  0.0643242696
H  -0.0777518321 -1.1129633046  0.8604299611
H  -0.1588173161 -1.1475408084 -0.9224947430
H   1.3309051738 -0.7468732315  0.0537131967
7
Image 11  Energy = -29.70969722
C  -0.2693499257  0.8110088608 -0.0088847497
H  -0.0035887708  1.3778155992 -0.9278238389
O  -0.8896434741  1.3439159399  0.8791695152
C   0.1987376418 -0.6188262848  0.0195244280
H  -0.1133813572 -1.0976830990  0.9498597524
H  -0.2135723673 -1.1623844497 -0.8388963658
H   1.2907982532 -0.6538465664 -0.0729487413
