7
Image 0
C  -0.2517769196  0.6202968648 -0.1512871279
H  -0.4023122674  1.2547733963 -1.0229039472
O  -0.7155565640  1.1892906806  0.9674940465
C   0.2324526432 -0.6232440162 -0.2769129466
H  -0.1057645159 -0.3080446247  1.4905252670
H   0.1439419010 -1.1126645154 -1.2426205130
H   1.0990157226 -1.0204077854  0.2357052210
7
Image 1
C  -0.2932439288  0.6989548933 -0.1503439175
H  -0.4191784589  1.2505069471 -1.0266479459
O  -0.6632844605  1.1120522792  0.9617003846
C   0.2530320839 -0.6609763794 -0.2481050590
H  -0.1179272698 -0.2634506020  1.4739278235
H   0.1626542242 -1.0991859695 -1.2626166794
H   1.0779478099 -1.0379011687  0.2520853937
7
Image 2
C  -0.2877147763  0.6753103823 -0.1464381100
H  -0.4296967237  1.2609718423 -1.0440937853
O  -0.6440504774  1.0881706775  0.9772242137
C   0.2237332230 -0.6373939593 -0.2236209905
H  -0.1257014699 -0.2460658513  1.4310372859
H   0.1717330567 -1.0904807684 -1.2562042701
H   1.0916971676 -1.0505123232  0.2620956564
7
Image 3
C  -0.2803895170  0.6526771909 -0.1568118672
H  -0.4321333267  1.2778731709 -1.0707510880
O  -0.6075939958  1.0429980826  1.0285584609
C   0.1785467947 -0.6244570183 -0.1300994985
H  -0.1569821798 -0.2376212717  1.2621017110
H   0.1599854339 -1.0736598475 -1.1865073298
H   1.1385667908 -1.0378103069  0.2535096115
7
Image 4
C  -0.2803630617  0.6544965241 -0.1375331205
H  -0.4312391191  1.2762873011 -1.0624456535
O  -0.6121335857  1.0576236083  1.0231451012
C   0.1950646950 -0.6509115752 -0.1672492065
H  -0.1639509383 -0.2343743703  1.2619272755
H   0.1541372684 -1.0726712497 -1.1712967719
H   1.1384847413 -1.0304502383  0.2534523758
7
Image 5
C  -0.2790233871  0.6559884569 -0.1287504449
H  -0.4296529483  1.2716565437 -1.0459887877
O  -0.6016930236  1.0524820671  1.0268805947
C   0.2050728429 -0.6596356331 -0.1642133757
H  -0.1848536352 -0.2241935908  1.2191330022
H   0.1415954006 -1.0801975488 -1.1591172922
H   1.1485547506 -1.0161002951  0.2520563036
7
Image 6
C  -0.2654635923  0.6541748380 -0.1355025893
H  -0.4126229800  1.2570775906 -1.0015978929
O  -0.6005284719  1.0619757512  1.0368585459
C   0.2241661284 -0.6657054614 -0.1681684487
H  -0.2256042670 -0.2269162723  1.1649751039
H   0.1001049687 -1.1088416613 -1.1369217978
H   1.1799482139 -0.9717647848  0.2403570788
7
Image 7
C  -0.2623946242  0.6571038716 -0.1248074253
H  -0.4113429728  1.2610015868 -0.9993742641
O  -0.5933945434  1.0531587330  1.0252259954
C   0.2291567250 -0.6577172276 -0.1617964668
H  -0.2403702507 -0.2298965535  1.1661541246
H   0.0889882743 -1.1228531898 -1.1398653890
H   1.1893573918 -0.9607972206  0.2344634252
7
Image 8
C  -0.2558256538  0.6573774148 -0.1253879646
H  -0.4182903662  1.2714003348 -1.0048323109
O  -0.5853074077  1.0513959899  1.0272693071
C   0.2318724165 -0.6551282686 -0.1585417910
H  -0.2541997401 -0.2375305475  1.1648072360
H   0.0854851657 -1.1309174438 -1.1370117972
H   1.1962655855 -0.9565974797  0.2336973207
7
Image 9
C  -0.2345130281  0.6660497989 -0.1383989501
H  -0.4556389467  1.3055686662 -1.0179452204
O  -0.5478582423  1.0467449808  1.0346751550
C   0.2435041516 -0.6457081949 -0.1597733964
H  -0.3014621461 -0.2621572065  1.1740781883
H   0.0892573920 -1.1550551994 -1.1335850952
H   1.2067108196 -0.9554428451  0.2409493187
7
Image 10
C  -0.2344648312  0.6663710034 -0.1376371252
H  -0.4559919888  1.3043196759 -1.0152866191
O  -0.5461686765  1.0472892185  1.0353507127
C   0.2416486855 -0.6470061692 -0.1616500611
H  -0.3027749647 -0.2620766225  1.1671221585
H   0.0890089765 -1.1548745314 -1.1299672902
H   1.2087427991 -0.9540225747  0.2420682243
7
Image 11
C  -0.2294309103  0.6673028239 -0.1377916581
H  -0.4683156065  1.3040992272 -1.0018869609
O  -0.5257888981  1.0483477185  1.0402505343
C   0.2390589088 -0.6473216091 -0.1710707980
H  -0.3196135995 -0.2642114368  1.1374249452
H   0.0919412956 -1.1611450006 -1.1172115051
H   1.2121488100 -0.9470717231  0.2502854425
7
Image 12
C  -0.2239625840  0.6723558179 -0.1391714391
H  -0.4840158284  1.3043965111 -0.9859422900
O  -0.4977788888  1.0471825092  1.0478484361
C   0.2451816549 -0.6473465626 -0.1772868989
H  -0.3426404372 -0.2679133558  1.1023893779
H   0.0929563166 -1.1748752015 -1.1083684785
H   1.2102597669 -0.9337997183  0.2605312924
7
Image 13
C  -0.2331675511  0.6669112612 -0.1357377610
H  -0.4685218983  1.2917462090 -0.9876334585
O  -0.5201798376  1.0514253540  1.0427467794
C   0.2409313862 -0.6469258751 -0.1745321565
H  -0.3141879116 -0.2603834306  1.1179382346
H   0.0949886095 -1.1627397849 -1.1192366953
H   1.2001372029 -0.9400337335  0.2564550573
7
Image 14
C  -0.2249260605  0.6701043177 -0.1355623599
H  -0.4855900112  1.2964071354 -0.9799654317
O  -0.4948633657  1.0488466429  1.0479968324
C   0.2437086260 -0.6416252424 -0.1842105399
H  -0.3344223586 -0.2670435011  1.0990087921
H   0.0969940594 -1.1772761226 -1.1160194417
H   1.1990991106 -0.9294132299  0.2687521488
7
Image 15
C  -0.2119336706  0.6786232275 -0.1407641321
H  -0.5113270472  1.3065819754 -0.9724601501
O  -0.4574318551  1.0429483385  1.0606823403
C   0.2532888554 -0.6378778754 -0.1977842079
H  -0.3645098457 -0.2800437601  1.0750499933
H   0.0971736130 -1.2024951181 -1.1126399029
H   1.1947399502 -0.9077367878  0.2879160594
7
Image 16
C  -0.2060532678  0.6789890616 -0.1377995901
H  -0.5244828122  1.3125110708 -0.9705170615
O  -0.4378700930  1.0366011529  1.0631246885
C   0.2550690598 -0.6325178204 -0.2039895410
H  -0.3741703398 -0.2857128405  1.0618120207
H   0.0980967736 -1.2152116460 -1.1127662363
H   1.1894106793 -0.8946589785  0.3001357196
7
Image 17
C  -0.2039269774  0.6809563657 -0.1409758562
H  -0.5331600840  1.3152626887 -0.9675869193
O  -0.4242410430  1.0323610099  1.0672425058
C   0.2539057723 -0.6307304474 -0.2105748018
H  -0.3759994474 -0.2909918377  1.0535754759
H   0.1003681112 -1.2226622803 -1.1133298224
H   1.1830536682 -0.8841954989  0.3116494180
7
Image 18
C  -0.2074887007  0.6826143659 -0.1439658291
H  -0.5406911268  1.3174424819 -0.9646402581
O  -0.4106592649  1.0251789418  1.0680826052
C   0.2488059823 -0.6308344588 -0.2175839441
H  -0.3647048755 -0.2963169007  1.0480277321
H   0.1066850818 -1.2262473501 -1.1173811301
H   1.1680529038 -0.8718370799  0.3274608241
7
Image 19
C  -0.2100549904  0.6792163015 -0.1484977128
H  -0.5466087676  1.3212109424 -0.9621052555
O  -0.4010428328  1.0213909993  1.0704109186
C   0.2441249712 -0.6304504975 -0.2195143273
H  -0.3565029985 -0.2992034338  1.0435758245
H   0.1127945102 -1.2274393507 -1.1208320630
H   1.1572901078 -0.8647249612  0.3369626156
7
Image 20
C  -0.2136169413  0.6782242747 -0.1482826252
H  -0.5501538423  1.3240135841 -0.9591890665
O  -0.3950727396  1.0197018867  1.0688801170
C   0.2424930982 -0.6342493813 -0.2228006455
H  -0.3518238016 -0.2995952371  1.0415645913
H   0.1176832323 -1.2272272614 -1.1215569750
H   1.1504909942 -0.8608678657  0.3413846039
7
Image 21
C  -0.2205407906  0.6735816512 -0.1475816801
H  -0.5446179106  1.3242115937 -0.9573270327
O  -0.4034939055  1.0240588444  1.0633211016
C   0.2395751551 -0.6391082683 -0.2194755482
H  -0.3412348566 -0.2963512682  1.0496087523
H   0.1218475040 -1.2202009259 -1.1235837848
H   1.1484648042 -0.8661916268  0.3350381919
7
Image 22
C  -0.2212101369  0.6717037837 -0.1483247822
H  -0.5470105337  1.3257151115 -0.9536977745
O  -0.4008393787  1.0265218560  1.0622710879
C   0.2372263116 -0.6372133574 -0.2180899809
H  -0.3414292959 -0.2974827179  1.0493075964
H   0.1249297055 -1.2239588288 -1.1263387243
H   1.1483333281 -0.8652858471  0.3348725777
7
Image 23
C  -0.2202876527  0.6736332376 -0.1501996056
H  -0.5528689218  1.3271697188 -0.9496291619
O  -0.3946324028  1.0286510965  1.0643951445
C   0.2367348395 -0.6370085945 -0.2186247502
H  -0.3470209671 -0.2979958803  1.0475982830
H   0.1289296470 -1.2305912083 -1.1286792949
H   1.1491454579 -0.8638583698  0.3351393851
7
Image 24
C  -0.2189586808  0.6749592106 -0.1491374837
H  -0.5542098277  1.3269858678 -0.9501099756
O  -0.3939155856  1.0289706305  1.0649003039
C   0.2369739070 -0.6368973151 -0.2183818581
H  -0.3498918572 -0.2976811088  1.0469838946
H   0.1291032806 -1.2316981665 -1.1282663557
H   1.1508987638 -0.8646391185  0.3340114746
7
Image 25
C  -0.2168068658  0.6767267875 -0.1479465178
H  -0.5617599482  1.3279729742 -0.9484538561
O  -0.3874543513  1.0306319763  1.0666303706
C   0.2367234722 -0.6373540768 -0.2188622123
H  -0.3555649070 -0.2977728026  1.0448612678
H   0.1340908147 -1.2359681436 -1.1283901204
H   1.1507717855 -0.8642367150  0.3321610682
7
Image 26
C  -0.2134653553  0.6804729546 -0.1469024640
H  -0.5687081562  1.3257610113 -0.9490535583
O  -0.3822946367  1.0308772676  1.0695677695
C   0.2382134807 -0.6367990253 -0.2187811497
H  -0.3623310955 -0.2975372605  1.0426357443
H   0.1370180124 -1.2372193873 -1.1261680099
H   1.1515677506 -0.8655555605  0.3287016682
7
Image 27
C  -0.2101024144  0.6817636356 -0.1446071965
H  -0.5736343769  1.3218834752 -0.9512838259
O  -0.3786162206  1.0291534493  1.0715197549
C   0.2398906147 -0.6339519087 -0.2192780075
H  -0.3667457947 -0.2973098232  1.0390955374
H   0.1369276319 -1.2347254543 -1.1222519165
H   1.1522805601 -0.8668133739  0.3268056541
7
Image 28
C  -0.2088960131  0.6822485849 -0.1444896180
H  -0.5745421679  1.3158211771 -0.9538473348
O  -0.3784319920  1.0270702663  1.0736152036
C   0.2431106504 -0.6313222866 -0.2185856941
H  -0.3665954753 -0.2979354037  1.0350601925
H   0.1329481915 -1.2279002936 -1.1182903585
H   1.1524068064 -0.8679820444  0.3265376094
7
Image 29
C  -0.2091086672  0.6786796956 -0.1440116139
H  -0.5738266640  1.3111331859 -0.9548000530
O  -0.3791925359  1.0248991232  1.0732738746
C   0.2452342461 -0.6266724289 -0.2192450485
H  -0.3632519375 -0.2981070123  1.0327780046
H   0.1281434284 -1.2216012881 -1.1177114922
H   1.1520021301 -0.8683312754  0.3297163283
7
Image 30
C  -0.2109202924  0.6768101362 -0.1440886354
H  -0.5741178840  1.3081338494 -0.9538215142
O  -0.3793283096  1.0249305654  1.0728708780
C   0.2474834672 -0.6265365951 -0.2204107137
H  -0.3587733969 -0.2991696381  1.0303442897
H   0.1249420990 -1.2164232418 -1.1189591698
H   1.1507143168 -0.8677450760  0.3340648654
7
Image 31
C  -0.2111048540  0.6766305631 -0.1441991013
H  -0.5742939292  1.3080721664 -0.9535374855
O  -0.3792430249  1.0249604292  1.0728140679
C   0.2476208011 -0.6265508606 -0.2205051657
H  -0.3583119264 -0.2992438642  1.0303069983
H   0.1247849301 -1.2162448830 -1.1194903232
H   1.1505480033 -0.8676235510  0.3346110095
7
Image 32
C  -0.2116879404  0.6759767903 -0.1442423334
H  -0.5752956735  1.3083024929 -0.9523315305
O  -0.3788521203  1.0250618161  1.0723666194
C   0.2478943538 -0.6270303671 -0.2212241096
H  -0.3562801269 -0.2996061881  1.0304095429
H   0.1243760068 -1.2156927869 -1.1217779120
H   1.1498455005 -0.8670117573  0.3367997233
7
Image 33
C  -0.2117623091  0.6758811679 -0.1443322487
H  -0.5755796919  1.3084334822 -0.9520428515
O  -0.3787229972  1.0250985995  1.0723314049
C   0.2479077269 -0.6271623514 -0.2213335845
H  -0.3557995205 -0.2996991969  1.0305204653
H   0.1243223501 -1.2156544917 -1.1223920195
H   1.1496344416 -0.8668972096  0.3372488340
7
Image 34
C  -0.2123960329  0.6752857318 -0.1443715897
H  -0.5777130885  1.3095409040 -0.9500143953
O  -0.3778284553  1.0250917128  1.0715921077
C   0.2477279233 -0.6282835786 -0.2223286936
H  -0.3518785447 -0.3003691358  1.0315936159
H   0.1240919829 -1.2151301655 -1.1266842491
H   1.1479962153 -0.8661354686  0.3402132040
7
Image 35
C  -0.2124218294  0.6754591423 -0.1453023867
H  -0.5789193176  1.3109836693 -0.9490544410
O  -0.3772195799  1.0256258635  1.0718852125
C   0.2469012821 -0.6291737475 -0.2224319999
H  -0.3498864263 -0.3007545104  1.0332848690
H   0.1244682381 -1.2159004085 -1.1295540557
H   1.1470776331 -0.8662400088  0.3411728017
7
Image 36
C  -0.2127890497  0.6767839671 -0.1450362266
H  -0.5795063688  1.3140784344 -0.9490975286
O  -0.3773420491  1.0256992522  1.0713488575
C   0.2452414838 -0.6308284173 -0.2226598252
H  -0.3479065514 -0.3011823483  1.0371703517
H   0.1251983925 -1.2177880154 -1.1322804300
H   1.1471041428 -0.8667628728  0.3405548012
7
Image 37
C  -0.2134999701  0.6758913396 -0.1452966307
H  -0.5794183829  1.3142508560 -0.9485658352
O  -0.3773321312  1.0258808341  1.0713406783
C   0.2444640608 -0.6308746872 -0.2223623470
H  -0.3460673784 -0.3013570225  1.0370802666
H   0.1254874411 -1.2168988998 -1.1321899337
H   1.1463663607 -0.8668924202  0.3399938018
7
Image 38
C  -0.2167134728  0.6775959033 -0.1477565228
H  -0.5753359859  1.3191840611 -0.9504931269
O  -0.3803293619  1.0258118120  1.0728570094
C   0.2396907307 -0.6327329694 -0.2203763506
H  -0.3414834838 -0.3015873506  1.0446645667
H   0.1269953138 -1.2188611734 -1.1311313242
H   1.1471762599 -0.8694102830  0.3322357484
7
Image 39
C  -0.2180319923  0.6758284555 -0.1449768636
H  -0.5735858442  1.3175902783 -0.9506616285
O  -0.3806888975  1.0251935512  1.0710689213
C   0.2397583780 -0.6319035667 -0.2203447556
H  -0.3400746860 -0.3006928205  1.0421648552
H   0.1261286583 -1.2164512555 -1.1286288548
H   1.1464943837 -0.8695646424  0.3313783260
7
Image 40
C  -0.2184307079  0.6754868424 -0.1446031053
H  -0.5710127411  1.3162084994 -0.9512254018
O  -0.3820033156  1.0257702014  1.0714640860
C   0.2401286488 -0.6313416049 -0.2204877410
H  -0.3402480164 -0.3002765266  1.0411894818
H   0.1244685118 -1.2157666271 -1.1269454570
H   1.1470976203 -0.8700807847  0.3306081373
7
Image 41
C  -0.2184153228  0.6746773235 -0.1435896963
H  -0.5672905705  1.3144130125 -0.9513050842
O  -0.3839234135  1.0265432190  1.0716973244
C   0.2409363499 -0.6301226355 -0.2206286463
H  -0.3396006024 -0.2993118671  1.0403069299
H   0.1209816040 -1.2151447283 -1.1266809087
H   1.1473119553 -0.8710543240  0.3302000811
7
Image 42
C  -0.2172857741  0.6751613873 -0.1429247096
H  -0.5650744255  1.3128889695 -0.9505133955
O  -0.3853199597  1.0275015368  1.0722651026
C   0.2419298804 -0.6305654796 -0.2217721516
H  -0.3390283265 -0.2988516285  1.0393715128
H   0.1172735294 -1.2140683454 -1.1275049583
H   1.1475050759 -0.8720664401  0.3310785996
7
Image 43
C  -0.2150488970  0.6749602886 -0.1424920712
H  -0.5649662746  1.3132371776 -0.9504815376
O  -0.3856840872  1.0271727767  1.0725354829
C   0.2421361089 -0.6296475459 -0.2216393125
H  -0.3395851986 -0.2989485159  1.0392712005
H   0.1151443557 -1.2140164626 -1.1289471088
H   1.1480039928 -0.8727577185  0.3317533467
7
Image 44
C  -0.2120855838  0.6767251352 -0.1422418412
H  -0.5652783660  1.3145663970 -0.9504367343
O  -0.3857539712  1.0259521379  1.0728745862
C   0.2432036579 -0.6304619753 -0.2217760783
H  -0.3411512752 -0.2994192971  1.0396736425
H   0.1123749578 -1.2132184867 -1.1301708568
H   1.1486905805 -0.8741439110  0.3320772818
