7
Image 0  Energy = -153.91462211
C  -0.2598259114  0.4808079854 -0.1681707189
H  -0.6304470545  1.1716989377 -0.9204230268
O  -0.5178163446  0.9545990372  1.0767522247
C   0.3552182056 -0.6574127831 -0.4783526332
H  -0.1759825156  0.3231793443  1.7246408121
H   0.5057918168 -0.9293453754 -1.5161798492
H   0.7230618037 -1.3435271460  0.2817331914
7
Image 1  Energy = -153.89851841
C  -0.2794707686  0.4936716702 -0.2271278369
H  -0.5358482491  1.2473125634 -1.0044140026
O  -0.5968963404  0.8846876547  1.0992194748
C   0.3716636943 -0.6443746439 -0.5099662705
H  -0.1575758152  0.2583595933  1.8101727216
H   0.3624369586 -1.0196250689 -1.4727434722
H   0.8356905204 -1.2200317687  0.3048593858
7
Image 2  Energy = -153.88118897
C  -0.2746209374  0.5177002990 -0.2628669993
H  -0.4724595920  1.3163574196 -1.0426839564
O  -0.6021630654  0.8125705396  1.1290707128
C   0.3634139356 -0.6240467818 -0.5027708832
H  -0.1944867372  0.1687907449  1.7350533609
H   0.2155566281 -1.1175070262 -1.3859352199
H   0.9647597682 -1.0738651951  0.3301329851
7
Image 3  Energy = -153.85583029
C  -0.2519328693  0.5487255912 -0.2626484673
H  -0.4609513776  1.3526168730 -1.0296879156
O  -0.5445438838  0.7797361998  1.1497954869
C   0.3399576073 -0.6101473846 -0.4565543770
H  -0.2663498188  0.0748753494  1.5419904147
H   0.1168960780 -1.1915572728 -1.2891010852
H   1.0669242642 -0.9542493560  0.3462059434
7
Image 4  Energy = -153.85949840
C  -0.2269779828  0.5893962599 -0.2279112968
H  -0.4909688939  1.3504468154 -0.9893737952
O  -0.4651190721  0.8224454801  1.1422292397
C   0.3064089159 -0.6085703656 -0.3773474234
H  -0.3294755374 -0.0421911379  1.3100920365
H   0.0825914767 -1.2272050130 -1.2036977656
H   1.1235410935 -0.8843220390  0.3460090048
7
Image 5  Energy = -153.83914551
C  -0.2128226225  0.6431468188 -0.1712275731
H  -0.5414053276  1.3242376019 -0.9540964037
O  -0.4024133974  0.9454928724  1.1012676731
C   0.2660395369 -0.6204968199 -0.2762938614
H  -0.3505536978 -0.2002460350  1.1114049274
H   0.0996842778 -1.2241132645 -1.1457770884
H   1.1414712306 -0.8680211737  0.3347223260
7
Image 6  Energy = -153.84014119
C  -0.2161739380  0.7123919695 -0.1184212570
H  -0.5815958844  1.3133776825 -0.9607290293
O  -0.3835870853  1.1063122387  1.0440409829
C   0.2206071781 -0.6415827441 -0.1709105377
H  -0.3186139758 -0.4051807080  0.9968209599
H   0.1190961949 -1.1998740195 -1.1247461052
H   1.1602675105 -0.8854444191  0.3339449864
7
Image 7  Energy = -153.87669524
C  -0.2344206292  0.7846226197 -0.0796475921
H  -0.5777143825  1.3290500852 -1.0086952986
O  -0.4269027620  1.2654329864  0.9842289980
C   0.1792241531 -0.6663052101 -0.0766699416
H  -0.2420164329 -0.6325573861  0.9770573276
H   0.1062211392 -1.1679547719 -1.1259497491
H   1.1956089144 -0.9122883232  0.3296762557
7
Image 8  Energy = -153.88518283
C  -0.2563445145  0.8339506506 -0.0489464532
H  -0.4971792834  1.3523072658 -1.0602666289
O  -0.5392007808  1.3913509698  0.9298204149
C   0.1573807215 -0.6879061028 -0.0057856776
H  -0.1472504496 -0.8308660363  1.0223234957
H   0.0461273545 -1.1368402432 -1.1118337590
H   1.2364669524 -0.9219965039  0.2746886082
7
Image 9  Energy = -153.89602331
C  -0.2726401938  0.8514260488 -0.0284172628
H  -0.3490711704  1.3668199037 -1.0856908119
O  -0.6866076169  1.4618256502  0.8849895239
C   0.1576994960 -0.6934481581  0.0372745203
H  -0.0691828787 -0.9745118402  1.0778023963
H  -0.0517618313 -1.1229666978 -1.0517180960
H   1.2715641952 -0.8891449066  0.1657597303
7
Image 10  Energy = -153.91668993
C  -0.2763831075  0.8404073529 -0.0251984840
H  -0.1726293484  1.3600594754 -1.0645741381
O  -0.8100748404  1.4624172831  0.8520640422
C   0.1739128142 -0.6687820380  0.0532858071
H  -0.0442096849 -1.0536121660  1.0801049243
H  -0.1611782325 -1.1451701444 -0.9274206619
H   1.2905623996 -0.7953197629  0.0317385104
7
Image 11  Energy = -153.93155682
C  -0.2666553915  0.8108443522 -0.0423087716
H  -0.0289093448  1.3278959167 -0.9975482268
O  -0.8558978541  1.3922521414  0.8364134378
C   0.1970993526 -0.6180052900  0.0452231245
H  -0.0863015856 -1.0463955598  1.0087643115
H  -0.2447846724 -1.2031631203 -0.7700498994
H   1.2854494958 -0.6634284402 -0.0804939759
