7
Iteration 1  Energy = -153.8236291735
C  -0.2147666256  0.6722394547 -0.1385163499
H  -0.5332427238  1.3232290560 -0.9562142099
O  -0.3936878650  1.0386797900  1.0744972107
C   0.2436850485 -0.6425531683 -0.2251432547
H  -0.2711418185 -0.3133657046  1.1373488622
H   0.0982804764 -1.1964802399 -1.1482889868
H   1.2128771518 -0.8900869621  0.2282743047
7
Iteration 2  Energy = -153.8239100940
C  -0.2108257892  0.6736459288 -0.1336467515
H  -0.5191184327  1.3255172658 -0.9528845566
O  -0.4269800890  1.0281716247  1.0774575415
C   0.2748400083 -0.6344312359 -0.2299175713
H  -0.2412005142 -0.3016422174  1.1233397106
H   0.1290518477 -1.1726877994 -1.1635637412
H   1.2482683346 -0.8746324474  0.2061149519
7
Iteration 3  Energy = -153.8239115484
C  -0.2178743008  0.6712748086 -0.1341883251
H  -0.5403830201  1.3163328559 -0.9533089479
O  -0.4262064487  1.0280726519  1.0768776074
C   0.2801391803 -0.6323578935 -0.2288131696
H  -0.2255049497 -0.2983292381  1.1292225448
H   0.1310097284 -1.1758677597 -1.1588060914
H   1.2605075859 -0.8603831825  0.1983172710
7
Iteration 4  Energy = -153.8239116749
C  -0.2192118710  0.6644896352 -0.1316009079
H  -0.5417670247  1.3094799731 -0.9506053899
O  -0.4274196336  1.0213257581  1.0794548790
C   0.2787068383 -0.6390978676 -0.2263420492
H  -0.2269700477 -0.3050221755  1.1316283481
H   0.1295676538 -1.1826107393 -1.1563018941
H   1.2589536600 -0.8671425879  0.2007356605
7
Iteration 5  Energy = -153.8239116075
C  -0.2192139955  0.6644947034 -0.1316488081
H  -0.5417621192  1.3095817498 -0.9505801057
O  -0.4273655843  1.0212228426  1.0794484391
C   0.2786353366 -0.6391088819 -0.2265331506
H  -0.2269819444 -0.3051403900  1.1314856993
H   0.1294391004 -1.1825233708 -1.1565413980
H   1.2588838569 -0.8672452163  0.2004913468
