7
Iteration 1  Energy = 0.1148507615
C  -0.2082972403  0.7051679748 -0.1783442902
H  -0.5223722465  1.4064670974 -0.9515034808
O  -0.4098549293  0.9763905875  1.0533667466
C   0.2414957088 -0.6300210536 -0.2173384098
H  -0.3010012295 -0.3251769579  1.0762134790
H   0.1520005277 -1.2277997243 -1.1187166542
H   1.2131337014 -0.7715291785  0.2677012609
7
Iteration 2  Energy = 0.1122306214
C  -0.2040429507  0.7151435039 -0.1859174937
H  -0.4682382037  1.4371312635 -0.9550491307
O  -0.4134682818  0.9636998794  1.0506972263
C   0.2303524654 -0.6366927906 -0.1963171756
H  -0.2649073035 -0.2730696295  1.0611172258
H   0.1476049937 -1.2133082410 -1.1178778723
H   1.2668103751 -0.7068874233  0.1674642029
7
Iteration 3  Energy = 0.1104469277
C  -0.1996654360  0.7282095902 -0.1941996300
H  -0.4032478275  1.4713971257 -0.9588976038
O  -0.4186947830  0.9488061757  1.0487211679
C   0.2263306750 -0.6385339065 -0.1787022423
H  -0.2368182653 -0.2277286503  1.0444700627
H   0.1009415839 -1.2437116840 -1.0793868495
H   1.2989151342 -0.6528292457  0.0694732161
7
Iteration 4  Energy = 0.1096434866
C  -0.1811950335  0.7357482616 -0.1993123359
H  -0.3117808933  1.5056880509 -0.9523096550
O  -0.4393056708  0.9400753240  1.0431395619
C   0.2319816896 -0.6349802392 -0.1685209698
H  -0.2354659079 -0.2103652093  1.0564089857
H   0.0339792744 -1.2809741159 -1.0266179310
H   1.3128000238 -0.6598630488  0.0102747881
7
Iteration 5  Energy = 0.1095556679
C  -0.1832853010  0.7382557351 -0.1941683192
H  -0.3043104020  1.5114774965 -0.9408263476
O  -0.4773194138  0.9259823424  1.0427727121
C   0.2571569550 -0.6247878027 -0.1638847842
H  -0.2397399388 -0.2111803819  1.0571376174
H   0.0548527028 -1.2721945535 -1.0152017904
H   1.3389413192 -0.6399089185 -0.0023053494
7
Iteration 6  Energy = 0.1095388016
C  -0.1830998923  0.7383789142 -0.1938936686
H  -0.3035432678  1.5119263228 -0.9402056913
O  -0.4774904935  0.9256487951  1.0423316540
C   0.2573068143 -0.6245058584 -0.1634687889
H  -0.2393932546 -0.2106322406  1.0575806500
H   0.0518913099 -1.2723196265 -1.0137670983
H   1.3395110777 -0.6403210175 -0.0060170977
7
Iteration 7  Energy = 0.1095612403
C  -0.1830637741  0.7384084632 -0.1939039642
H  -0.3033625249  1.5119719068 -0.9401515309
O  -0.4775373159  0.9256072712  1.0423155764
C   0.2573336268 -0.6244808683 -0.1634192544
H  -0.2392292978 -0.2104852267  1.0576570716
H   0.0513963551 -1.2723667562 -1.0135102237
H   1.3396552540 -0.6404567615 -0.0066165431
