7
Frame 5  Energy = -245.1623681906 Hartree
C      -0.84872631     -0.56592361      0.91305663
N      -1.91550713     -1.00389058     -0.03299685
O      -2.02506701     -2.19740686     -0.11605875
O      -2.55438714     -0.17985305     -0.64202380
H       0.09516211     -1.08062001      0.61982458
H      -1.03053819     -0.95370423      1.93711019
H      -0.72026858      0.52061730      0.87531274
7
Frame 10  Energy = -245.1622967439 Hartree
C      -0.85206461     -0.56359893      0.91213906
N      -1.91720470     -1.00503275     -0.03483928
O      -2.02278622     -2.19472324     -0.11752839
O      -2.55338957     -0.18380119     -0.63993926
H       0.09673494     -1.08337815      0.62734161
H      -1.03105387     -0.95771116      1.94840800
H      -0.71366390      0.51539392      0.89121223
7
Frame 15  Energy = -245.1624097786 Hartree
C      -0.85509855     -0.56147478      0.91143099
N      -1.91870365     -1.00609489     -0.03647988
O      -2.02055469     -2.19222920     -0.11906148
O      -2.55246858     -0.18767080     -0.63784937
H       0.09629877     -1.08478996      0.63440579
H      -1.03249591     -0.96050471      1.95704988
H      -0.70767024      0.50980664      0.90681639
7
Frame 20  Energy = -245.1623665877 Hartree
C      -0.85781472     -0.55951277      0.91105203
N      -1.92001643     -1.00714042     -0.03793310
O      -2.01834639     -2.18992577     -0.12063748
O      -2.55165152     -0.19144439     -0.63578028
H       0.09347218     -1.08514284      0.64092411
H      -1.03512935     -0.96179485      1.96218336
H      -0.70238432      0.50434791      0.92233822
7
Frame 25  Energy = -245.1623068817 Hartree
C      -0.86022891     -0.55775701      0.91100256
N      -1.92115831     -1.00821111     -0.03911893
O      -2.01615839     -2.18788876     -0.12221952
O      -2.55096510     -0.19508756     -0.63381334
H       0.08867762     -1.08412332      0.64701120
H      -1.03879333     -0.96192078      1.96350594
H      -0.69791475      0.49953808      0.93728760
7
Frame 30  Energy = -245.1623905621 Hartree
C      -0.86238572     -0.55627969      0.91138294
N      -1.92202910     -1.00917530     -0.04002361
O      -2.01400622     -2.18623853     -0.12385149
O      -2.55043974     -0.19847939     -0.63189213
H       0.08200907     -1.08194772      0.65263284
H      -1.04313716     -0.96051004      1.96154366
H      -0.69436004      0.49574963      0.95173816
7
Frame 35  Energy = -245.1623719406 Hartree
C      -0.86428838     -0.55508804      0.91215280
N      -1.92261769     -1.01002152     -0.04062517
O      -2.01198621     -2.18491641     -0.12549675
O      -2.55011781     -0.20156251     -0.63011053
H       0.07367807     -1.07835118      0.65786548
H      -1.04839495     -0.95732769      1.95602995
H      -0.69175125      0.49311451      0.96545454
7
Frame 40  Energy = -245.1623892937 Hartree
C      -0.86596302     -0.55424272      0.91324175
N      -1.92289947     -1.01074487     -0.04091107
O      -2.01013045     -2.18394435     -0.12717255
O      -2.54993405     -0.20437579     -0.62856364
H       0.06422673     -1.07398100      0.66268022
H      -1.05475787     -0.95250503      1.94719770
H      -0.69004869      0.49181413      0.97848914
7
Frame 45  Energy = -245.1624680138 Hartree
C      -0.86742756     -0.55372585      0.91472038
N      -1.92280603     -1.01124282     -0.04086599
O      -2.00837747     -2.18337282     -0.12895538
O      -2.54994303     -0.20682754     -0.62727071
H       0.05436044     -1.06926163      0.66700533
H      -1.06202866     -0.94654946      1.93570313
H      -0.68904948      0.49194611      0.99035343
7
Frame 50  Energy = -245.1623818980 Hartree
C      -0.86884178     -0.55348971      0.91644335
N      -1.92235388     -1.01156734     -0.04047017
O      -2.00668691     -2.18321998     -0.13077139
O      -2.55026087     -0.20892026     -0.62620765
H       0.04435623     -1.06435010      0.67070011
H      -1.07053692     -0.93986845      1.92207993
H      -0.68852977      0.49392049      1.00081308
7
Frame 55  Energy = -245.1623241240 Hartree
C      -0.87010728     -0.55336899      0.91830772
N      -1.92155588     -1.01165457     -0.03967766
O      -2.00510272     -2.18357150     -0.13269256
O      -2.55082377     -0.21068339     -0.62534499
H       0.03495568     -1.05942586      0.67333035
H      -1.08014501     -0.93307251      1.90751381
H      -0.68917508      0.49776476      1.01000589
7
Frame 60  Energy = -245.1623195107 Hartree
C      -0.87119650     -0.55348956      0.92034409
N      -1.92031695     -1.01161419     -0.03855366
O      -2.00359383     -2.18440515     -0.13467765
O      -2.55161415     -0.21205595     -0.62468692
H       0.02679187     -1.05480103      0.67470550
H      -1.09088792     -0.92641929      1.89343035
H      -0.69084088      0.50308808      1.01778641
7
Frame 65  Energy = -245.1620812535 Hartree
C      -0.87222329     -0.55365780      0.92258848
N      -1.91872664     -1.01152053     -0.03710448
O      -2.00206622     -2.18570871     -0.13670403
O      -2.55267058     -0.21307519     -0.62427577
H       0.02054034     -1.05087935      0.67429519
H      -1.10301785     -0.92081134      1.88076367
H      -0.69362504      0.50943026      1.02404892
7
Frame 70  Energy = -245.1619924459 Hartree
C      -0.87316766     -0.55371518      0.92491404
N      -1.91677798     -1.01127999     -0.03533246
O      -2.00060573     -2.18746046     -0.13886053
O      -2.55399379     -0.21368127     -0.62405865
H       0.01682894     -1.04799379      0.67246795
H      -1.11690811     -0.91661054      1.87057090
H      -0.69740528      0.51639418      1.02873084
7
Frame 75  Energy = -245.1621154506 Hartree
C      -0.87407181     -0.55362366      0.92720345
N      -1.91451565     -1.01089134     -0.03340805
O      -1.99915308     -2.18955537     -0.14106609
O      -2.55556510     -0.21405235     -0.62404756
H       0.01597946     -1.04634383      0.66939592
H      -1.13261826     -0.91397814      1.86412301
H      -0.70257478      0.52322930      1.03188786
7
Frame 80  Energy = -245.1622632784 Hartree
C      -0.87505810     -0.55330916      0.92942867
N      -1.91200790     -1.01028611     -0.03131943
O      -1.99771963     -2.19193396     -0.14323434
O      -2.55724814     -0.21412701     -0.62415246
H       0.01817549     -1.04587464      0.66524311
H      -1.15001587     -0.91343677      1.86164316
H      -0.70924372      0.52918419      1.03362629
7
Frame 85  Energy = -245.1623304765 Hartree
C      -0.87603397     -0.55276355      0.93160970
N      -1.90921494     -1.00963775     -0.02910284
O      -1.99629288     -2.19457328     -0.14544025
O      -2.55906949     -0.21387581     -0.62439333
H       0.02281833     -1.04682374      0.65993492
H      -1.16847494     -0.91477678      1.86350138
H      -0.71714701      0.53389316      1.03369734
7
Frame 90  Energy = -245.1624758133 Hartree
C      -0.87696438     -0.55185336      0.93373351
N      -1.90628577     -1.00896709     -0.02672574
O      -1.99484219     -2.19743675     -0.14781362
O      -2.56108032     -0.21332247     -0.62477004
H       0.02952144     -1.04879198      0.65407433
H      -1.18747375     -0.91771703      1.86942043
H      -0.72615529      0.53691021      1.03185436
7
Frame 95  Energy = -245.1623960771 Hartree
C      -0.87782519     -0.55070401      0.93583386
N      -1.90323760     -1.00822129     -0.02432887
O      -1.99338807     -2.20050696     -0.15021432
O      -2.56316801     -0.21253854     -0.62526337
H       0.03772336     -1.05128695      0.64806003
H      -1.20678739     -0.92187890      1.87839997
H      -0.73625155      0.53830540      1.02855312
7
Frame 100  Energy = -245.1621859225 Hartree
C      -0.87857907     -0.54936780      0.93794392
N      -1.90015911     -1.00737379     -0.02189516
O      -1.99200081     -2.20377917     -0.15262538
O      -2.56527046     -0.21154862     -0.62587001
H       0.04646132     -1.05395432      0.64212582
H      -1.22620111     -0.92656381      1.88915089
H      -0.74738933      0.53851903      1.02364660
7
Frame 105  Energy = -245.1619916960 Hartree
C      -0.87916553     -0.54798245      0.94024731
N      -1.89709129     -1.00646850     -0.01960466
O      -1.99065047     -2.20725075     -0.15507709
O      -2.56748666     -0.21038639     -0.62641097
H       0.05469250     -1.05610980      0.63674434
H      -1.24533301     -0.93162949      1.90075880
H      -0.75942190      0.53703075      1.01733490
7
Frame 110  Energy = -245.1622108560 Hartree
C      -0.87961210     -0.54662373      0.94277799
N      -1.89416127     -1.00562163     -0.01747944
O      -1.98932130     -2.21081037     -0.15749012
O      -2.56977388     -0.20910188     -0.62694937
H       0.06189456     -1.05779775      0.63220743
H      -1.26300197     -0.93667960      1.91194795
H      -0.77217552      0.53450713      1.00989310
7
Frame 115  Energy = -245.1621787137 Hartree
C      -0.87983050     -0.54541214      0.94559250
N      -1.89127918     -1.00484511     -0.01542936
O      -1.98796455     -2.21431991     -0.15976661
O      -2.57208823     -0.20776882     -0.62745820
H       0.06764609     -1.05818070      0.62877939
H      -1.27888834     -0.94111404      1.92155161
H      -0.78521447      0.53136161      1.00134605
7
Frame 120  Energy = -245.1621898342 Hartree
C      -0.87993552     -0.54448348      0.94865576
N      -1.88852792     -1.00419055     -0.01358568
O      -1.98670982     -2.21776353     -0.16199302
O      -2.57444138     -0.20645907     -0.62787516
H       0.07126181     -1.05689860      0.62693208
H      -1.29286070     -0.94439221      1.92936247
H      -0.79880297      0.52777898      0.99215457
7
Frame 125  Energy = -245.1622168053 Hartree
C      -0.87998600     -0.54390682      0.95191436
N      -1.88602349     -1.00367267     -0.01197285
O      -1.98551783     -2.22110609     -0.16415718
O      -2.57686515     -0.20521470     -0.62820347
H       0.07237730     -1.05426031      0.62695523
H      -1.30446767     -0.94626609      1.93463444
H      -0.81293601      0.52444568      0.98229004
7
Frame 130  Energy = -245.1622184878 Hartree
C      -0.88006163     -0.54369439      0.95536151
N      -1.88377862     -1.00330934     -0.01058432
O      -1.98429726     -2.22437445     -0.16624745
O      -2.57915294     -0.20391812     -0.62843114
H       0.07134354     -1.05006035      0.62879095
H      -1.31329112     -0.94660142      1.93710379
H      -0.82700573      0.52182324      0.97182155
7
Frame 135  Energy = -245.1623782717 Hartree
C      -0.88012381     -0.54382927      0.95901534
N      -1.88181930     -1.00312599     -0.00953477
O      -1.98302908     -2.22742025     -0.16827841
O      -2.58122113     -0.20260356     -0.62854819
H       0.06809138     -1.04444241      0.63294532
H      -1.31926691     -0.94522420      1.93654428
H      -0.84086813      0.52007727      0.96081224
7
Frame 140  Energy = -245.1623831591 Hartree
C      -0.88016648     -0.54433887      0.96289669
N      -1.88023578     -1.00318677     -0.00881529
O      -1.98168306     -2.23017966     -0.17021473
O      -2.58315925     -0.20136081     -0.62847623
H       0.06276179     -1.03764558      0.63916637
H      -1.32240005     -0.94211191      1.93328835
H      -0.85445568      0.51972637      0.94967188
7
Frame 145  Energy = -245.1623232552 Hartree
C      -0.88025543     -0.54521806      0.96693832
N      -1.87892735     -1.00355470     -0.00847641
O      -1.98019499     -2.23271271     -0.17205681
O      -2.58495163     -0.20021552     -0.62823070
H       0.05569872     -1.03000472      0.64710870
H      -1.32238161     -0.93751676      1.92729449
H      -0.86780530      0.52103059      0.93849113
7
Frame 150  Energy = -245.1622570265 Hartree
C      -0.88044505     -0.54632000      0.97109643
N      -1.87786708     -1.00415670     -0.00856547
O      -1.97854247     -2.23494187     -0.17383434
O      -2.58657408     -0.19914217     -0.62775648
H       0.04770790     -1.02166337      0.65657352
H      -1.31986145     -0.93172171      1.91951875
H      -0.88061600      0.52367783      0.92729018
7
Frame 155  Energy = -245.1622244503 Hartree
C      -0.88084045     -0.54756798      0.97525444
N      -1.87718396     -1.00493425     -0.00901967
O      -1.97674552     -2.23695401     -0.17557618
O      -2.58797095     -0.19811917     -0.62705565
H       0.03978739     -1.01273682      0.66750294
H      -1.31492829     -0.92495607      1.91060031
H      -0.89240790      0.52746422      0.91635333
7
Frame 160  Energy = -245.1621701302 Hartree
C      -0.88133023     -0.54886487      0.97941223
N      -1.87680646     -1.00587355     -0.00978902
O      -1.97477308     -2.23867914     -0.17722276
O      -2.58916940     -0.19722324     -0.62615567
H       0.03276984     -1.00362636      0.67893822
H      -1.30826595     -0.91709167      1.90133791
H      -0.90324830      0.53161181      0.90582795
7
Frame 165  Energy = -245.1621356295 Hartree
C      -0.88206301     -0.55004678      0.98356356
N      -1.87672947     -1.00711267     -0.01093893
O      -1.97269869     -2.24015160     -0.17866571
O      -2.59010722     -0.19649085     -0.62503264
H       0.02773400     -0.99480096      0.69076074
H      -1.30054009     -0.90890691      1.89292624
H      -0.91328635      0.53568772      0.89607639
7
Frame 170  Energy = -245.1620172431 Hartree
C      -0.88323904     -0.55100757      0.98758084
N      -1.87701320     -1.00858009     -0.01237398
O      -1.97057602     -2.24128480     -0.17995720
O      -2.59082407     -0.19586221     -0.62361830
H       0.02534790     -0.98691755      0.70258037
H      -1.29199220     -0.90129153      1.88666714
H      -0.92240604      0.53917045      0.88707182
7
Frame 175  Energy = -245.1621249101 Hartree
C      -0.88469891     -0.55161176      0.99129075
N      -1.87766330     -1.01032201     -0.01412434
O      -1.96840672     -2.24212539     -0.18121773
O      -2.59130778     -0.19537494     -0.62204005
H       0.02574106     -0.98024018      0.71455407
H      -1.28309206     -0.89481942      1.88384791
H      -0.93086511      0.54175912      0.87883730
7
Frame 180  Energy = -245.1623194538 Hartree
C      -0.88640179     -0.55174173      0.99443476
N      -1.87867109     -1.01230544     -0.01614373
O      -1.96624448     -2.24271175     -0.18240342
O      -2.59154443     -0.19512460     -0.62034983
H       0.02903548     -0.97475295      0.72680277
H      -1.27495473     -0.88934111      1.88525981
H      -0.93828577      0.54284770      0.87158272
7
Frame 185  Energy = -245.1621210237 Hartree
C      -0.88842324     -0.55134602      0.99708800
N      -1.88003358     -1.01457032     -0.01854066
O      -1.96400500     -2.24293793     -0.18348091
O      -2.59150845     -0.19506943     -0.61845091
H       0.03564125     -0.97062225      0.73879664
H      -1.26789159     -0.88515197      1.89161653
H      -0.94455672      0.54244859      0.86533630
7
Frame 190  Energy = -245.1620702705 Hartree
C      -0.89073823     -0.55044613      0.99920512
N      -1.88175036     -1.01713786     -0.02131085
O      -1.96172319     -2.24281663     -0.18456506
O      -2.59119987     -0.19514650     -0.61636256
H       0.04543060     -0.96785340      0.75021743
H      -1.26219208     -0.88243902      1.90323967
H      -0.94985310      0.54065807      0.86023914
7
Frame 195  Energy = -245.1620271377 Hartree
C      -0.89331284     -0.54919046      1.00078533
N      -1.88368778     -1.01992963     -0.02429599
O      -1.95939605     -2.24237478     -0.18562596
O      -2.59080309     -0.19537321     -0.61403904
H       0.05706293     -0.96605058      0.76124073
H      -1.25777374     -0.88082909      1.91957066
H      -0.95440600      0.53728170      0.85602426
7
Frame 200  Energy = -245.1618069820 Hartree
C      -0.89611969     -0.54763728      1.00191450
N      -1.88577924     -1.02286827     -0.02745369
O      -1.95711730     -2.24164170     -0.18661499
O      -2.59023699     -0.19576951     -0.61144583
H       0.07003378     -0.96482242      0.77192452
H      -1.25415871     -0.88015275      1.93987880
H      -0.95790107      0.53275977      0.85277659
7
Frame 205  Energy = -245.1616512726 Hartree
C      -0.89905857     -0.54597569      1.00276285
N      -1.88791673     -1.02611046     -0.03065930
O      -1.95483267     -2.24066156     -0.18761389
O      -2.58953694     -0.19619172     -0.60877307
H       0.08331922     -0.96386214      0.78269020
H      -1.25132355     -0.87946024      1.96262846
H      -0.96042911      0.52764926      0.85104013
7
Frame 210  Energy = -245.1615924490 Hartree
C      -0.90199185     -0.54427689      1.00337649
N      -1.89011836     -1.02955739     -0.03387753
O      -1.95258159     -2.23943197     -0.18868191
O      -2.58869925     -0.19670948     -0.60605263
H       0.09627153     -0.96252797      0.79352852
H      -1.24874309     -0.87867039      1.98599588
H      -0.96207703      0.52198927      0.85067677
7
Frame 215  Energy = -245.1615019731 Hartree
C      -0.90494966     -0.54270575      1.00380897
N      -1.89244653     -1.03303033     -0.03713164
O      -1.95024499     -2.23809542     -0.18972741
O      -2.58780735     -0.19729028     -0.60329781
H       0.10768446     -0.96084487      0.80462493
H      -1.24585366     -0.87762549      2.00838837
H      -0.96235079      0.51668468      0.85182561
7
Frame 220  Energy = -245.1613783566 Hartree
C      -0.90797280     -0.54136575      1.00416877
N      -1.89478923     -1.03651710     -0.04031709
O      -1.94795381     -2.23671374     -0.19080443
O      -2.58685977     -0.19805830     -0.60039556
H       0.11663213     -0.95843658      0.81575834
H      -1.24242459     -0.87584691      2.02862047
H      -0.96165244      0.51266117      0.85426965
7
Frame 225  Energy = -245.1615008258 Hartree
C      -0.91106554     -0.54022096      1.00448090
N      -1.89713611     -1.03989304     -0.04336391
O      -1.94571667     -2.23522184     -0.19195503
O      -2.58589672     -0.19888714     -0.59738691
H       0.12256743     -0.95500036      0.82687816
H      -1.23867161     -0.87300769      2.04551454
H      -0.96022886      0.51008649      0.85775419
7
Frame 230  Energy = -245.1614432780 Hartree
C      -0.91412200     -0.53923498      1.00487209
N      -1.89945370     -1.04320735     -0.04622199
O      -1.94358630     -2.23377419     -0.19317891
O      -2.58493600     -0.19981365     -0.59432759
H       0.12515335     -0.95062748      0.83761774
H      -1.23415967     -0.86925783      2.05848527
H      -0.95796533      0.50945636      0.86241783
7
Frame 235  Energy = -245.1613785490 Hartree
C      -0.91716027     -0.53853726      1.00533424
N      -1.90174039     -1.04641375     -0.04885146
O      -1.94151351     -2.23244987     -0.19457405
O      -2.58393996     -0.20074129     -0.59124217
H       0.12420426     -0.94523940      0.84764652
H      -1.22941796     -0.86438320      2.06713489
H      -0.95468280      0.51100774      0.86790166
7
Frame 240  Energy = -245.1614924498 Hartree
C      -0.92008495     -0.53803113      1.00599423
N      -1.90401802     -1.04945291     -0.05119339
O      -1.93948447     -2.23118482     -0.19607702
O      -2.58298495     -0.20171488     -0.58813383
H       0.11978097     -0.93950798      0.85713361
H      -1.22479841     -0.85834422      2.07112551
H      -0.95089258      0.51462194      0.87408461
7
Frame 245  Energy = -245.1614676872 Hartree
C      -0.92290525     -0.53775875      1.00691605
N      -1.90610578     -1.05229695     -0.05319781
O      -1.93750656     -2.23005201     -0.19769394
O      -2.58196833     -0.20275536     -0.58508454
H       0.11199810     -0.93310605      0.86576775
H      -1.21988992     -0.85111715      2.07036621
H      -0.94670688      0.52010267      0.88081327
7
Frame 250  Energy = -245.1616389007 Hartree
C      -0.92561922     -0.53760929      1.00801896
N      -1.90793235     -1.05490490     -0.05480898
O      -1.93556891     -2.22919153     -0.19943177
O      -2.58091712     -0.20391747     -0.58224364
H       0.10170751     -0.92600332      0.87393553
H      -1.21487233     -0.84279798      2.06500951
H      -0.94247575      0.52713928      0.88798945
7
Frame 255  Energy = -245.1616006485 Hartree
C      -0.92817270     -0.53761500      1.00925722
N      -1.90950375     -1.05718413     -0.05598069
O      -1.93365684     -2.22870881     -0.20124613
O      -2.57989071     -0.20512517     -0.57950976
H       0.08926438     -0.91898861      0.88115591
H      -1.20993148     -0.83370228      2.05571271
H      -0.93775570      0.53480047      0.89578397
7
Frame 260  Energy = -245.1615686774 Hartree
C      -0.93063166     -0.53762039      1.01062704
N      -1.91075808     -1.05911160     -0.05670303
O      -1.93179989     -2.22855337     -0.20317274
O      -2.57883814     -0.20638969     -0.57686082
H       0.07563216     -0.91245264      0.88740378
H      -1.20545084     -0.82409329      2.04312861
H      -0.93300740      0.54278114      0.90395974
7
Frame 265  Energy = -245.1616145184 Hartree
C      -0.93307997     -0.53766863      1.01208562
N      -1.91169559     -1.06071431     -0.05689624
O      -1.93010877     -2.22867404     -0.20517707
O      -2.57780030     -0.20774079     -0.57429338
H       0.06177326     -0.90673231      0.89216863
H      -1.20166830     -0.81447000      2.02845926
H      -0.92815504      0.55026106      0.91233849
7
Frame 270  Energy = -245.1616754956 Hartree
C      -0.93542483     -0.53763954      1.01353663
N      -1.91232961     -1.06192953     -0.05659115
O      -1.92853268     -2.22924243     -0.20731311
O      -2.57694891     -0.20911095     -0.57189021
H       0.04902203     -0.90205860      0.89499851
H      -1.19930317     -0.80535186      2.01306928
H      -0.92342820      0.55693834      0.92098697
7
Frame 275  Energy = -245.1614194016 Hartree
C      -0.93788760     -0.53731467      1.01487243
N      -1.91269785     -1.06268833     -0.05577068
O      -1.92701081     -2.23013091     -0.20961871
O      -2.57623456     -0.21040807     -0.56959647
H       0.03856186     -0.89888126      0.89591128
H      -1.19886320     -0.79714682      1.99823914
H      -0.91902214      0.56227957      0.92962100
7
Frame 280  Energy = -245.1614698232 Hartree
C      -0.94055446     -0.53652350      1.01587760
N      -1.91278246     -1.06306728     -0.05449139
O      -1.92541133     -2.23140215     -0.21203554
O      -2.57566184     -0.21168857     -0.56745289
H       0.03116283     -0.89729551      0.89517628
H      -1.20091365     -0.79018076      1.98546821
H      -0.91481232      0.56606699      0.93803532
7
Frame 285  Energy = -245.1614524072 Hartree
C      -0.94336812     -0.53535166      1.01650477
N      -1.91255324     -1.06303664     -0.05270208
O      -1.92385057     -2.23306588     -0.21453041
O      -2.57523124     -0.21290154     -0.56551888
H       0.02696434     -0.89767421      0.89223154
H      -1.20620269     -0.78489152      1.97672350
H      -0.91068096      0.56823117      0.94637975
7
Frame 290  Energy = -245.1616572670 Hartree
C      -0.94627969     -0.53386765      1.01674286
N      -1.91200417     -1.06268841     -0.05040655
O      -1.92238634     -2.23493724     -0.21708664
O      -2.57497676     -0.21411833     -0.56375291
H       0.02602141     -0.89988975      0.88765364
H      -1.21490328     -0.78177166      1.97326032
H      -0.90715999      0.56858366      0.95480968
7
Frame 295  Energy = -245.1618899773 Hartree
C      -0.94916992     -0.53201682      1.01657881
N      -1.91117584     -1.06198683     -0.04777341
O      -1.92096632     -2.23709484     -0.21967720
O      -2.57492019     -0.21529816     -0.56218206
H       0.02802690     -0.90391371      0.88161405
H      -1.22666747     -0.78072461      1.97508110
H      -0.90426574      0.56735475      0.96284299
7
Frame 300  Energy = -245.1618847442 Hartree
C      -0.95203337     -0.52980669      1.01614554
N      -1.90994523     -1.06103194     -0.04464530
O      -1.91961250     -2.23946751     -0.22233972
O      -2.57496864     -0.21634918     -0.56074446
H       0.03214459     -0.90925928      0.87430220
H      -1.24139214     -0.78163190      1.98172356
H      -0.90199347      0.56473391      0.97009270
