7
Frame 5  Energy = -245.1602150399 Hartree
C      -0.58071586     -0.68953226      0.64060439
N      -1.87612928     -1.00875937     -0.04419997
O      -2.34514549     -2.09208102      0.11118360
O      -2.34218516     -0.11448895     -0.67961750
H       0.25034571     -1.08603636      0.10013735
H      -0.48829572     -1.14397626      1.61526051
H      -0.47389096      0.33317301      0.76916265
7
Frame 10  Energy = -245.1599875362 Hartree
C      -0.58017973     -0.68920255      0.64350181
N      -1.87937126     -1.00850347     -0.04856904
O      -2.34283666     -2.09221538      0.11123330
O      -2.34313964     -0.11602313     -0.67789925
H       0.24991165     -1.08974237      0.10183174
H      -0.49881163     -1.14996518      1.61546562
H      -0.46626559      0.34719689      0.77497390
7
Frame 15  Energy = -245.1599076214 Hartree
C      -0.57953108     -0.68908423      0.64650904
N      -1.88236673     -1.00817915     -0.05258743
O      -2.34061720     -2.09257732      0.11136497
O      -2.34424722     -0.11742833     -0.67633632
H       0.24994550     -1.09422221      0.10194382
H      -0.51072520     -1.15651659      1.61641094
H      -0.45910304      0.36458078      0.78025229
7
Frame 20  Energy = -245.1598637376 Hartree
C      -0.57885400     -0.68899402      0.64959010
N      -1.88495342     -1.00777019     -0.05631382
O      -2.33855875     -2.09312363      0.11159014
O      -2.34553432     -0.11860687     -0.67496612
H       0.25042286     -1.09925623      0.10027574
H      -0.52410882     -1.16370369      1.61786359
H      -0.45256665      0.38355833      0.78441818
7
Frame 25  Energy = -245.1597055664 Hartree
C      -0.57814624     -0.68881483      0.65272437
N      -1.88701966     -1.00723692     -0.05971863
O      -2.33654910     -2.09388052      0.11183573
O      -2.34704338     -0.11955499     -0.67387222
H       0.25125677     -1.10471798      0.09737559
H      -0.53880737     -1.17156976      1.61967496
H      -0.44687192      0.40248715      0.78718694
7
Frame 30  Energy = -245.1597104279 Hartree
C      -0.57727003     -0.68846546      0.65592061
N      -1.88856455     -1.00665582     -0.06276907
O      -2.33456907     -2.09488035      0.11203668
O      -2.34877627     -0.12028079     -0.67314723
H       0.25184500     -1.10980287      0.09336007
H      -0.55437959     -1.18015439      1.62166400
H      -0.44208342      0.41935235      0.78889595
7
Frame 35  Energy = -245.1595931322 Hartree
C      -0.57630343     -0.68790890      0.65925478
N      -1.88959201     -1.00606317     -0.06546496
O      -2.33263308     -2.09618217      0.11229541
O      -2.35071093     -0.12067246     -0.67277242
H       0.25192942     -1.11444824      0.08828312
H      -0.57077790     -1.18873126      1.62360369
H      -0.43797656      0.43286022      0.78943836
7
Frame 40  Energy = -245.1596022120 Hartree
C      -0.57516350     -0.68716662      0.66261846
N      -1.89008213     -1.00549885     -0.06773405
O      -2.33076396     -2.09775049      0.11263458
O      -2.35291606     -0.12069072     -0.67272170
H       0.25152784     -1.11869623      0.08313937
H      -0.58806499     -1.19714192      1.62534191
H      -0.43472641      0.44246556      0.78861597
7
Frame 45  Energy = -245.1596242710 Hartree
C      -0.57394232     -0.68621386      0.66590129
N      -1.89009526     -1.00500982     -0.06958514
O      -2.32894343     -2.09950947      0.11294413
O      -2.35530325     -0.12035126     -0.67305450
H       0.24995761     -1.12186876      0.07804276
H      -0.60585137     -1.20529878      1.62634111
H      -0.43245269      0.44811523      0.78687807
7
Frame 50  Energy = -245.1597013045 Hartree
C      -0.57264042     -0.68509689      0.66916927
N      -1.88953760     -1.00462742     -0.07098424
O      -2.32718950     -2.10143665      0.11330164
O      -2.35796602     -0.11965557     -0.67364209
H       0.24731723     -1.12426084      0.07340559
H      -0.62383394     -1.21330305      1.62633561
H      -0.43124662      0.44921925      0.78457429
7
Frame 55  Energy = -245.1596626868 Hartree
C      -0.57135021     -0.68385983      0.67240902
N      -1.88845178     -1.00433721     -0.07187673
O      -2.32552812     -2.10351184      0.11367472
O      -2.36081407     -0.11855903     -0.67446668
H       0.24356844     -1.12632091      0.06927192
H      -0.64176353     -1.22067517      1.62550757
H      -0.43114973      0.44579704      0.78164332
7
Frame 60  Energy = -245.1596461945 Hartree
C      -0.57006895     -0.68253385      0.67554039
N      -1.88689222     -1.00405747     -0.07232534
O      -2.32394008     -2.10572444      0.11400136
O      -2.36388193     -0.11716310     -0.67563723
H       0.23856151     -1.12779317      0.06614016
H      -0.65962576     -1.22682993      1.62376582
H      -0.43212354      0.43813575      0.77814938
7
Frame 65  Energy = -245.1596030259 Hartree
C      -0.56864615     -0.68105800      0.67845084
N      -1.88491406     -1.00383762     -0.07239410
O      -2.32239514     -2.10808316      0.11428423
O      -2.36719572     -0.11552168     -0.67703240
H       0.23228246     -1.12891327      0.06427047
H      -0.67736428     -1.23167993      1.62113657
H      -0.43401296      0.42659718      0.77418054
7
Frame 70  Energy = -245.1596453655 Hartree
C      -0.56725564     -0.67968034      0.68122827
N      -1.88252847     -1.00358420     -0.07202527
O      -2.32090455     -2.11053577      0.11455447
O      -2.37069045     -0.11359143     -0.67876845
H       0.22501198     -1.12899876      0.06332925
H      -0.69425718     -1.23543101      1.61788604
H      -0.43676895      0.41206986      0.77005683
7
Frame 75  Energy = -245.1595895006 Hartree
C      -0.56594517     -0.67855592      0.68386288
N      -1.87974482     -1.00318192     -0.07127817
O      -2.31949876     -2.11304272      0.11479619
O      -2.37435613     -0.11146008     -0.68078931
H       0.21744501     -1.12858128      0.06345719
H      -0.70989103     -1.23799467      1.61418293
H      -0.44044831      0.39584668      0.76603329
7
Frame 80  Energy = -245.1595840672 Hartree
C      -0.56476697     -0.67775374      0.68646410
N      -1.87673895     -1.00268906     -0.07013535
O      -2.31816537     -2.11555741      0.11496283
O      -2.37822596     -0.10921836     -0.68294829
H       0.20943565     -1.12778789      0.06482271
H      -0.72413495     -1.23973434      1.60998076
H      -0.44478235      0.37906871      0.76239455
7
Frame 85  Energy = -245.1595637894 Hartree
C      -0.56392195     -0.67728231      0.68888510
N      -1.87348646     -1.00208684     -0.06871536
O      -2.31684007     -2.11811953      0.11502195
O      -2.38214704     -0.10687007     -0.68519131
H       0.20146582     -1.12679962      0.06687120
H      -0.73688125     -1.24048142      1.60562450
H      -0.44898289      0.36364729      0.75908553
7
Frame 90  Energy = -245.1594045128 Hartree
C      -0.56347418     -0.67730063      0.69116217
N      -1.87009524     -1.00142987     -0.06690461
O      -2.31554470     -2.12079482      0.11506376
O      -2.38611347     -0.10455552     -0.68754964
H       0.19437637     -1.12569805      0.06950769
H      -0.74816602     -1.24051443      1.60135881
H      -0.45335819      0.35110137      0.75605633
7
Frame 95  Energy = -245.1593928660 Hartree
C      -0.56335621     -0.67780404      0.69319878
N      -1.86657429     -1.00070431     -0.06494676
O      -2.31426039     -2.12355989      0.11502873
O      -2.39005451     -0.10225931     -0.68993662
H       0.18825589     -1.12486785      0.07232394
H      -0.75808933     -1.23969085      1.59763785
H      -0.45756797      0.34234144      0.75393038
7
Frame 100  Energy = -245.1592266377 Hartree
C      -0.56361401     -0.67880288      0.69502211
N      -1.86297521     -0.99977835     -0.06284113
O      -2.31288234     -2.12627687      0.11484916
O      -2.39391719     -0.09989587     -0.69234338
H       0.18360487     -1.12468563      0.07515419
H      -0.76647590     -1.23819365      1.59482107
H      -0.46174158      0.33848362      0.75268825
7
Frame 105  Energy = -245.1592810482 Hartree
C      -0.56430615     -0.68033652      0.69675004
N      -1.85953711     -0.99877328     -0.06056942
O      -2.31142653     -2.12882754      0.11453879
O      -2.39778101     -0.09762151     -0.69478124
H       0.18072376     -1.12509556      0.07775810
H      -0.77325246     -1.23615971      1.59323667
H      -0.46548974      0.33986834      0.75243522
7
Frame 110  Energy = -245.1594219451 Hartree
C      -0.56541125     -0.68235842      0.69820737
N      -1.85625534     -0.99764271     -0.05829538
O      -2.30992417     -2.13126089      0.11403051
O      -2.40158253     -0.09559664     -0.69715631
H       0.17959037     -1.12628848      0.08057791
H      -0.77844229     -1.23387848      1.59267984
H      -0.46891485      0.34636204      0.75313757
7
Frame 115  Energy = -245.1595905387 Hartree
C      -0.56684181     -0.68474703      0.69956647
N      -1.85319378     -0.99646586     -0.05610078
O      -2.30833131     -2.13344992      0.11350126
O      -2.40524736     -0.09372627     -0.69934550
H       0.18034531     -1.12812233      0.08325342
H      -0.78173281     -1.23140091      1.59345778
H      -0.47216160      0.35685179      0.75427145
7
Frame 120  Energy = -245.1595564741 Hartree
C      -0.56870178     -0.68744125      0.70075592
N      -1.85042060     -0.99525611     -0.05398219
O      -2.30658970     -2.13535454      0.11296220
O      -2.40878439     -0.09209031     -0.70137416
H       0.18334803     -1.13044133      0.08592445
H      -0.78328702     -1.22899144      1.59577621
H      -0.47545893      0.37018540      0.75551981
7
Frame 125  Energy = -245.1597164074 Hartree
C      -0.57092379     -0.69031001      0.70166572
N      -1.84797236     -0.99405806     -0.05198837
O      -2.30473558     -2.13689312      0.11235035
O      -2.41202611     -0.09063904     -0.70330138
H       0.18845488     -1.13308965      0.08884870
H      -0.78328438     -1.22652145      1.59970082
H      -0.47816111      0.38521877      0.75694514
7
Frame 130  Energy = -245.1598417187 Hartree
C      -0.57346481     -0.69311881      0.70232502
N      -1.84587384     -0.99288686     -0.05012889
O      -2.30280576     -2.13812810      0.11173027
O      -2.41504028     -0.08944224     -0.70504602
H       0.19494093     -1.13634658      0.09190801
H      -0.78185751     -1.22390927      1.60500724
H      -0.48095435      0.40035646      0.75835766
7
Frame 135  Energy = -245.1596630700 Hartree
C      -0.57619367     -0.69579220      0.70271639
N      -1.84413871     -0.99167133     -0.04848165
O      -2.30076667     -2.13902345      0.11110021
O      -2.41778192     -0.08855559     -0.70651090
H       0.20257349     -1.14006188      0.09528798
H      -0.77883656     -1.22127849      1.61226351
H      -0.48398116      0.41401240      0.76016339
7
Frame 140  Energy = -245.1595371508 Hartree
C      -0.57916404     -0.69825747      0.70284370
N      -1.84278753     -0.99032748     -0.04699471
O      -2.29859622     -2.13966360      0.11038643
O      -2.42031644     -0.08794489     -0.70779219
H       0.21087070     -1.14394363      0.09932082
H      -0.77440676     -1.21858183      1.62108762
H      -0.48724583      0.42540803      0.76248888
7
Frame 145  Energy = -245.1595449356 Hartree
C      -0.58230959     -0.70052271      0.70267983
N      -1.84189291     -0.98895338     -0.04570624
O      -2.29621316     -2.14000183      0.10954153
O      -2.42265840     -0.08770049     -0.70888201
H       0.21930631     -1.14776240      0.10420335
H      -0.76878683     -1.21620971      1.63104565
H      -0.49082837      0.43315166      0.76480290
7
Frame 150  Energy = -245.1596548294 Hartree
C      -0.58554409     -0.70251266      0.70236669
N      -1.84148874     -0.98758793     -0.04461005
O      -2.29371315     -2.13996777      0.10863886
O      -2.42467506     -0.08783994     -0.70970606
H       0.22712526     -1.15105747      0.11007394
H      -0.76227916     -1.21359111      1.64221955
H      -0.49448532      0.43686277      0.76695697
7
Frame 155  Energy = -245.1597002379 Hartree
C      -0.58883732     -0.70406041      0.70192888
N      -1.84156611     -0.98617094     -0.04376667
O      -2.29111930     -2.13956507      0.10768131
O      -2.42643546     -0.08835202     -0.71024939
H       0.23390206     -1.15370465      0.11718369
H      -0.75452299     -1.21079907      1.65399716
H      -0.49820278      0.43683348      0.76905989
7
Frame 160  Energy = -245.1596485194 Hartree
C      -0.59212341     -0.70530658      0.70145904
N      -1.84208953     -0.98490118     -0.04319761
O      -2.28842420     -2.13877492      0.10666651
O      -2.42794532     -0.08920421     -0.71050314
H       0.23959710     -1.15570458      0.12537798
H      -0.74555957     -1.20753631      1.66576218
H      -0.50194630      0.43229565      0.77120463
7
Frame 165  Energy = -245.1596913220 Hartree
C      -0.59536492     -0.70624294      0.70093502
N      -1.84309495     -0.98379811     -0.04289605
O      -2.28553786     -2.13766528      0.10555449
O      -2.42918240     -0.09038357     -0.71047949
H       0.24424815     -1.15696871      0.13455217
H      -0.73553741     -1.20315888      1.67667621
H      -0.50569417      0.42337939      0.77303538
7
Frame 170  Energy = -245.1597084611 Hartree
C      -0.59853774     -0.70689942      0.70043780
N      -1.84453131     -0.98283674     -0.04282814
O      -2.28246201     -2.13622924      0.10427546
O      -2.43012694     -0.09186593     -0.71012669
H       0.24784421     -1.15762631      0.14473966
H      -0.72492550     -1.19751742      1.68584628
H      -0.50953976      0.41074377      0.77485577
7
Frame 175  Energy = -245.1598213780 Hartree
C      -0.60163703     -0.70739188      0.69998770
N      -1.84647208     -0.98204264     -0.04299090
O      -2.27928643     -2.13452632      0.10293145
O      -2.43083296     -0.09358700     -0.70947735
H       0.25006862     -1.15774385      0.15598589
H      -0.71414488     -1.19061409      1.69331085
H      -0.51317872      0.39525931      0.77636074
7
Frame 180  Energy = -245.1597007920 Hartree
C      -0.60460450     -0.70772358      0.69961879
N      -1.84890817     -0.98139869     -0.04336340
O      -2.27597271     -2.13257604      0.10150951
O      -2.43132352     -0.09550425     -0.70861213
H       0.25071112     -1.15713351      0.16813985
H      -0.70310372     -1.18281340      1.69882667
H      -0.51639984      0.37781964      0.77766905
7
Frame 185  Energy = -245.1597684454 Hartree
C      -0.60739213     -0.70799399      0.69943020
N      -1.85179028     -0.98082960     -0.04386033
O      -2.27264337     -2.13042789      0.09999834
O      -2.43155324     -0.09763582     -0.70754139
H       0.24996425     -1.15558080      0.18051527
H      -0.69222727     -1.17391411      1.70242243
H      -0.51891184      0.35955203      0.77896851
7
Frame 190  Energy = -245.1597468950 Hartree
C      -0.61003201     -0.70826694      0.69939415
N      -1.85498786     -0.98031401     -0.04445250
O      -2.26918748     -2.12800274      0.09844318
O      -2.43153574     -0.09996263     -0.70625000
H       0.24811472     -1.15352362      0.19290133
H      -0.68144679     -1.16429159      1.70409493
H      -0.52107206      0.34226601      0.78026554
7
Frame 195  Energy = -245.1598614544 Hartree
C      -0.61265928     -0.70862748      0.69942531
N      -1.85847808     -0.97983195     -0.04516677
O      -2.26557857     -2.12546370      0.09682427
O      -2.43128553     -0.10248853     -0.70480737
H       0.24546709     -1.15114626      0.20501319
H      -0.67134590     -1.15422067      1.70387183
H      -0.52253615      0.32759699      0.78141632
7
Frame 200  Energy = -245.1599290007 Hartree
C      -0.61526090     -0.70909138      0.69950327
N      -1.86209505     -0.97942998     -0.04591915
O      -2.26195079     -2.12288326      0.09514159
O      -2.43080142     -0.10516815     -0.70323920
H       0.24238527     -1.14851757      0.21644623
H      -0.66217892     -1.14407082      1.70231266
H      -0.52343367      0.31698399      0.78286075
7
Frame 205  Energy = -245.1599917052 Hartree
C      -0.61775749     -0.70980055      0.69969718
N      -1.86583058     -0.97915149     -0.04669206
O      -2.25835506     -2.12018109      0.09344255
O      -2.43012879     -0.10790318     -0.70149218
H       0.23930103     -1.14590980      0.22685819
H      -0.65389826     -1.13389749      1.69968474
H      -0.52336192      0.31125762      0.78448064
7
Frame 210  Energy = -245.1599968497 Hartree
C      -0.62027587     -0.71076760      0.69995587
N      -1.86981101     -0.97901892     -0.04754331
O      -2.25479824     -2.11740197      0.09171875
O      -2.42934279     -0.11071383     -0.69970046
H       0.23650978     -1.14370443      0.23558817
H      -0.64692460     -1.12394168      1.69659681
H      -0.52254541      0.31103662      0.78624480
7
Frame 215  Energy = -245.1599102429 Hartree
C      -0.62277988     -0.71185561      0.70028350
N      -1.87393380     -0.97898267     -0.04842514
O      -2.25129286     -2.11468689      0.08995625
O      -2.42848999     -0.11360670     -0.69788670
H       0.23438777     -1.14234939      0.24230495
H      -0.64151622     -1.11451548      1.69350250
H      -0.52101498      0.31618196      0.78778345
7
Frame 220  Energy = -245.1597509092 Hartree
C      -0.62522684     -0.71290851      0.70073401
N      -1.87804677     -0.97895507     -0.04926250
O      -2.24790461     -2.11204843      0.08813585
O      -2.42752670     -0.11653499     -0.69591883
H       0.23328840     -1.14184293      0.24686685
H      -0.63767866     -1.10600025      1.69071160
H      -0.51894733      0.32587667      0.78926063
7
Frame 225  Energy = -245.1595027332 Hartree
C      -0.62768320     -0.71386672      0.70126130
N      -1.88215551     -0.97900291     -0.04997991
O      -2.24459700     -2.10964679      0.08627666
O      -2.42660700     -0.11949303     -0.69385902
H       0.23319656     -1.14227572      0.24904449
H      -0.63558115     -1.09862148      1.68914750
H      -0.51650090      0.33933792      0.79001271
7
Frame 230  Energy = -245.1594898062 Hartree
C      -0.63012072     -0.71468978      0.70180301
N      -1.88612180     -0.97919425     -0.05054100
O      -2.24138935     -2.10742486      0.08436080
O      -2.42565587     -0.12236214     -0.69176989
H       0.23416828     -1.14365538      0.24892045
H      -0.63525727     -1.09282614      1.68969195
H      -0.51381899      0.35499376      0.79037073
7
Frame 235  Energy = -245.1595259452 Hartree
C      -0.63238864     -0.71517823      0.70220494
N      -1.88981707     -0.97942150     -0.05090866
O      -2.23828655     -2.10547397      0.08235030
O      -2.42481070     -0.12505387     -0.68967225
H       0.23587325     -1.14577299      0.24683387
H      -0.63681771     -1.08868982      1.69203958
H      -0.51083224      0.37093859      0.79008498
7
Frame 240  Energy = -245.1593644201 Hartree
C      -0.63461898     -0.71521227      0.70269120
N      -1.89323087     -0.97967029     -0.05105523
O      -2.23536786     -2.10381850      0.08025678
O      -2.42403953     -0.12749515     -0.68763684
H       0.23825731     -1.14862298      0.24267233
H      -0.63994449     -1.08637147      1.69644859
H      -0.50755697      0.38612323      0.78910584
7
Frame 245  Energy = -245.1594967500 Hartree
C      -0.63669412     -0.71472316      0.70327599
N      -1.89621720     -0.97990528     -0.05093850
O      -2.23268949     -2.10251272      0.07811481
O      -2.42325694     -0.12967537     -0.68573966
H       0.24011415     -1.15198712      0.23684805
H      -0.64477597     -1.08558525      1.70283590
H      -0.50463119      0.39949141      0.78749017
7
Frame 250  Energy = -245.1593440098 Hartree
C      -0.63859842     -0.71364400      0.70390627
N      -1.89874365     -0.98011200     -0.05048566
O      -2.23020956     -2.10162352      0.07589339
O      -2.42251511     -0.13153831     -0.68392103
H       0.24110120     -1.15587709      0.22962125
H      -0.65136648     -1.08638567      1.71027916
H      -0.50239198      0.41019160      0.78508618
7
Frame 255  Energy = -245.1593229872 Hartree
C      -0.64023033     -0.71194723      0.70457841
N      -1.90077440     -0.98025635     -0.04982812
O      -2.22794446     -2.10121700      0.07366785
O      -2.42192067     -0.13312194     -0.68222949
H       0.24081185     -1.15971287      0.22134243
H      -0.65942719     -1.08838637      1.71836390
H      -0.50062358      0.41764592      0.78183028
7
Frame 260  Energy = -245.1592210014 Hartree
C      -0.64169241     -0.70960640      0.70522342
N      -1.90231379     -0.98031045     -0.04885027
O      -2.22587811     -2.10133790      0.07151589
O      -2.42144933     -0.13440678     -0.68070290
H       0.23881975     -1.16331607      0.21252833
H      -0.66890605     -1.09143808      1.72635890
H      -0.49920910      0.42125535      0.77788252
7
Frame 265  Energy = -245.1592939689 Hartree
C      -0.64295119     -0.70676081      0.70594900
N      -1.90336706     -0.98021822     -0.04751721
O      -2.22409596     -2.10191172      0.06940492
O      -2.42110998     -0.13535175     -0.67936240
H       0.23485246     -1.16620608      0.20361984
H      -0.67960377     -1.09481472      1.73382807
H      -0.49820311      0.42091433      0.77349118
7
Frame 270  Energy = -245.1593051381 Hartree
C      -0.64393539     -0.70346866      0.70674848
N      -1.90390214     -0.97999693     -0.04583398
O      -2.22254828     -2.10296468      0.06729485
O      -2.42094610     -0.13598537     -0.67828618
H       0.22885089     -1.16825445      0.19499885
H      -0.69145917     -1.09835838      1.73968828
H      -0.49757732      0.41652614      0.76856173
7
Frame 275  Energy = -245.1595811047 Hartree
C      -0.64462824     -0.69970856      0.70775714
N      -1.90382968     -0.97965327     -0.04384336
O      -2.22130040     -2.10452035      0.06516544
O      -2.42096652     -0.13623286     -0.67741554
H       0.22098478     -1.16950549      0.18693107
H      -0.70343791     -1.10131396      1.74336658
H      -0.49720840      0.40908038      0.76329328
7
Frame 280  Energy = -245.1596480897 Hartree
C      -0.64495859     -0.69555095      0.70899724
N      -1.90322495     -0.97926471     -0.04160680
O      -2.22031529     -2.10652554      0.06304818
O      -2.42120822     -0.13621617     -0.67675715
H       0.21118025     -1.16985499      0.17960037
H      -0.71567516     -1.10397032      1.74498299
H      -0.49709055      0.39948965      0.75767204
7
Frame 285  Energy = -245.1596351735 Hartree
C      -0.64502508     -0.69124387      0.71047610
N      -1.90210130     -0.97889511     -0.03914600
O      -2.21959400     -2.10897757      0.06087799
O      -2.42160687     -0.13594938     -0.67633441
H       0.19959005     -1.16936683      0.17311197
H      -0.72814004     -1.10604931      1.74419327
H      -0.49730215      0.38835574      0.75170799
7
Frame 290  Energy = -245.1595485020 Hartree
C      -0.64494085     -0.68687760      0.71211821
N      -1.90044740     -0.97852487     -0.03639673
O      -2.21906349     -2.11185865      0.05862966
O      -2.42222795     -0.13532219     -0.67613386
H       0.18639783     -1.16837427      0.16730113
H      -0.74070341     -1.10731522      1.74124998
H      -0.49762649      0.37676971      0.74561139
7
Frame 295  Energy = -245.1594509422 Hartree
C      -0.64479457     -0.68250730      0.71389433
N      -1.89829214     -0.97816095     -0.03338342
O      -2.21879024     -2.11516482      0.05637515
O      -2.42302883     -0.13435042     -0.67611703
H       0.17202149     -1.16710715      0.16232664
H      -0.75295718     -1.10780426      1.73596514
H      -0.49778125      0.36570913      0.73973197
7
Frame 300  Energy = -245.1592566373 Hartree
C      -0.64460423     -0.67827010      0.71585006
N      -1.89574696     -0.97775597     -0.03019446
O      -2.21879508     -2.11885706      0.05413624
O      -2.42395345     -0.13314467     -0.67618213
H       0.15679984     -1.16544080      0.15798161
H      -0.76516408     -1.10789621      1.72843519
H      -0.49752241      0.35647790      0.73391626
