7
Frame 5  Energy = -245.1601871432 Hartree
C      -0.64438343     -0.67427612      0.71801092
N      -1.89290388     -0.97739301     -0.02692022
O      -2.21907281     -2.12287917      0.05196970
O      -2.42491047     -0.13175838     -0.67637360
H       0.14129222     -1.16358457      0.15435626
H      -0.77680211     -1.10743046      1.71932370
H      -0.49714643      0.35088966      0.72857134
7
Frame 10  Energy = -245.1602050933 Hartree
C      -0.64421386     -0.67059960      0.72033634
N      -1.88979219     -0.97706496     -0.02364034
O      -2.21959097     -2.12707831      0.04985880
O      -2.42597061     -0.13024357     -0.67668387
H       0.12609670     -1.16200123      0.15126494
H      -0.78759485     -1.10632666      1.70894530
H      -0.49636791      0.34960277      0.72336560
7
Frame 15  Energy = -245.1602249146 Hartree
C      -0.64414808     -0.66727356      0.72263025
N      -1.88649253     -0.97670030     -0.02034875
O      -2.22029417     -2.13150191      0.04773793
O      -2.42710105     -0.12860616     -0.67703647
H       0.11187529     -1.16085512      0.14870798
H      -0.79776189     -1.10477151      1.69813854
H      -0.49508879      0.35324312      0.71861848
7
Frame 20  Energy = -245.1601843046 Hartree
C      -0.64419700     -0.66419043      0.72489727
N      -1.88307474     -0.97637836     -0.01717262
O      -2.22108511     -2.13606723      0.04559698
O      -2.42823666     -0.12688906     -0.67742592
H       0.09914858     -1.16026319      0.14650429
H      -0.80701496     -1.10302423      1.68786264
H      -0.49315558      0.36194636      0.71430818
7
Frame 25  Energy = -245.1601087704 Hartree
C      -0.64443159     -0.66124130      0.72710790
N      -1.87969884     -0.97610271     -0.01401885
O      -2.22190014     -2.14070178      0.04345469
O      -2.42945507     -0.12498435     -0.67773240
H       0.08839526     -1.16043211      0.14437434
H      -0.81516093     -1.10170900      1.67897820
H      -0.49070780      0.37473212      0.71022824
7
Frame 30  Energy = -245.1600572021 Hartree
C      -0.64485633     -0.65843923      0.72922720
N      -1.87640398     -0.97594890     -0.01097185
O      -2.22261481     -2.14537412      0.04129258
O      -2.43063562     -0.12306743     -0.67785256
H       0.07963801     -1.16127974      0.14219419
H      -0.82263134     -1.10049774      1.67220768
H      -0.48803196      0.39060564      0.70662735
7
Frame 35  Energy = -245.1600681210 Hartree
C      -0.64548993     -0.65555773      0.73115109
N      -1.87327111     -0.97594014     -0.00813184
O      -2.22332051     -2.15002869      0.03919043
O      -2.43177848     -0.12122210     -0.67791413
H       0.07347215     -1.16340623      0.13992201
H      -0.82914032     -1.09947322      1.66762585
H      -0.48556430      0.40792420      0.70344917
7
Frame 40  Energy = -245.1598964244 Hartree
C      -0.64643157     -0.65251754      0.73296236
N      -1.87035367     -0.97608747     -0.00559775
O      -2.22398666     -2.15456221      0.03712404
O      -2.43283954     -0.11940229     -0.67793110
H       0.06977975     -1.16674195      0.13785330
H      -0.83485616     -1.09910882      1.66566084
H      -0.48308281      0.42576055      0.70092963
7
Frame 45  Energy = -245.1598230226 Hartree
C      -0.64745169     -0.64929301      0.73455167
N      -1.86775126     -0.97639374     -0.00326446
O      -2.22459505     -2.15897928      0.03503414
O      -2.43385012     -0.11775419     -0.67788634
H       0.06889090     -1.17085364      0.13600421
H      -0.83959552     -1.09926631      1.66660230
H      -0.48096779      0.44312295      0.69904926
7
Frame 50  Energy = -245.1595412808 Hartree
C      -0.64868554     -0.64580242      0.73593560
N      -1.86550990     -0.97684617     -0.00126739
O      -2.22508980     -2.16317210      0.03288193
O      -2.43484665     -0.11616506     -0.67771741
H       0.07037866     -1.17567897      0.13465321
H      -0.84305673     -1.09975777      1.67065938
H      -0.47916380      0.45870654      0.69775758
7
Frame 55  Energy = -245.1596036891 Hartree
C      -0.64995326     -0.64207973      0.73706078
N      -1.86361207     -0.97742967      0.00043450
O      -2.22544655     -2.16714952      0.03075644
O      -2.43576956     -0.11467782     -0.67738871
H       0.07373146     -1.18078603      0.13424745
H      -0.84549817     -1.10055166      1.67752548
H      -0.47745744      0.47168005      0.69737122
7
Frame 60  Energy = -245.1597896233 Hartree
C      -0.65115544     -0.63821056      0.73802214
N      -1.86215971     -0.97824259      0.00178441
O      -2.22574252     -2.17084071      0.02867015
O      -2.43651637     -0.11331976     -0.67688138
H       0.07840789     -1.18553998      0.13486270
H      -0.84663500     -1.10124941      1.68645954
H      -0.47644771      0.48087763      0.69764546
7
Frame 65  Energy = -245.1600113115 Hartree
C      -0.65225400     -0.63436795      0.73886714
N      -1.86119736     -0.97909085      0.00273045
O      -2.22592001     -2.17413171      0.02658172
O      -2.43711989     -0.11216952     -0.67621105
H       0.08429519     -1.18957090      0.13709799
H      -0.84651870     -1.10147692      1.69697816
H      -0.47613484      0.48666304      0.69854564
7
Frame 70  Energy = -245.1600424885 Hartree
C      -0.65323984     -0.63052003      0.73957901
N      -1.86069201     -0.97999705      0.00321534
O      -2.22592659     -2.17716437      0.02453826
O      -2.43761329     -0.11120587     -0.67532224
H       0.09062362     -1.19298225      0.14119229
H      -0.84463481     -1.10088471      1.70818421
H      -0.47642460      0.48859499      0.69980309
7
Frame 75  Energy = -245.1598487904 Hartree
C      -0.65426362     -0.62651852      0.74017380
N      -1.86067444     -0.98105125      0.00332073
O      -2.22579800     -2.17987982      0.02247281
O      -2.43789899     -0.11048117     -0.67426580
H       0.09723281     -1.19531235      0.14724188
H      -0.84146589     -1.09925434      1.71943664
H      -0.47762705      0.48661201      0.70134232
7
Frame 80  Energy = -245.1598104403 Hartree
C      -0.65527366     -0.62240272      0.74072339
N      -1.86116061     -0.98228822      0.00308079
O      -2.22550697     -2.18225339      0.02038321
O      -2.43799186     -0.10998792     -0.67291063
H       0.10390730     -1.19598615      0.15563577
H      -0.83674841     -1.09662717      1.72980554
H      -0.47993649      0.48101354      0.70347975
7
Frame 85  Energy = -245.1598736457 Hartree
C      -0.65611513     -0.61830578      0.74112391
N      -1.86214872     -0.98364084      0.00254674
O      -2.22513356     -2.18424471      0.01836679
O      -2.43789309     -0.10980766     -0.67141498
H       0.11036231     -1.19530969      0.16625075
H      -0.83018078     -1.09240544      1.73854766
H      -0.48305679      0.47260645      0.70625318
7
Frame 90  Energy = -245.1599210334 Hartree
C      -0.65675475     -0.61446441      0.74151872
N      -1.86356254     -0.98509491      0.00163701
O      -2.22464155     -2.18588881      0.01640536
O      -2.43758996     -0.10987071     -0.66977887
H       0.11640763     -1.19311077      0.17876094
H      -0.82188552     -1.08644355      1.74569362
H      -0.48683462      0.46209581      0.70978622
7
Frame 95  Energy = -245.1601030528 Hartree
C      -0.65721867     -0.61098823      0.74195137
N      -1.86551302     -0.98665295      0.00035631
O      -2.22403016     -2.18717162      0.01457884
O      -2.43723292     -0.11014543     -0.66799941
H       0.12191379     -1.18896453      0.19292908
H      -0.81229784     -1.07875375      1.75108796
H      -0.49088143      0.45085471      0.71388659
7
Frame 100  Energy = -245.1600010281 Hartree
C      -0.65765868     -0.60785118      0.74248621
N      -1.86787032     -0.98831784     -0.00121046
O      -2.22330499     -2.18808529      0.01277723
O      -2.43663901     -0.11066519     -0.66608325
H       0.12707805     -1.18328787      0.20882349
H      -0.80137718     -1.06911670      1.75486708
H      -0.49493518      0.44009198      0.71824669
7
Frame 105  Energy = -245.1599182875 Hartree
C      -0.65803302     -0.60517042      0.74312022
N      -1.87059330     -0.99006372     -0.00311747
O      -2.22247982     -2.18863410      0.01111122
O      -2.43587996     -0.11132803     -0.66399270
H       0.13163027     -1.17629081      0.22583690
H      -0.78952699     -1.05747703      1.75687679
H      -0.49932626      0.43058588      0.72295215
7
Frame 110  Energy = -245.1598420790 Hartree
C      -0.65847337     -0.60297358      0.74390781
N      -1.87361560     -0.99183113     -0.00531444
O      -2.22164372     -2.18881739      0.00960668
O      -2.43505496     -0.11219854     -0.66173075
H       0.13592588     -1.16809969      0.24404862
H      -0.77690542     -1.04401655      1.75684270
H      -0.50401396      0.42366624      0.72751960
7
Frame 115  Energy = -245.1596678112 Hartree
C      -0.65885967     -0.60139235      0.74492664
N      -1.87683536     -0.99362120     -0.00773551
O      -2.22069266     -2.18870313      0.00815593
O      -2.43423499     -0.11323884     -0.65929139
H       0.14006274     -1.15875521      0.26299006
H      -0.76375125     -1.02909092      1.75521826
H      -0.50868308      0.42043275      0.73160831
7
Frame 120  Energy = -245.1597533064 Hartree
C      -0.65931075     -0.60049101      0.74625945
N      -1.88023917     -0.99553339     -0.01032836
O      -2.21964874     -2.18830701      0.00667896
O      -2.43338004     -0.11444352     -0.65675452
H       0.14476417     -1.14885728      0.28206727
H      -0.75051163     -1.01314809      1.75235775
H      -0.51337246      0.42148592      0.73544620
7
Frame 125  Energy = -245.1599301253 Hartree
C      -0.65985635     -0.60015436      0.74770093
N      -1.88369888     -0.99752081     -0.01306496
O      -2.21855061     -2.18764256      0.00526464
O      -2.43246953     -0.11574262     -0.65415590
H       0.15026422     -1.13875821      0.30067889
H      -0.73784306     -0.99683493      1.74928079
H      -0.51822597      0.42667843      0.73917272
7
Frame 130  Energy = -245.1596944766 Hartree
C      -0.66053919     -0.60024207      0.74918470
N      -1.88716060     -0.99958988     -0.01601178
O      -2.21742617     -2.18674898      0.00387345
O      -2.43151965     -0.11715404     -0.65150254
H       0.15691225     -1.12895700      0.31827051
H      -0.72597092     -0.98005591      1.74669838
H      -0.52286458      0.43560202      0.74252354
7
Frame 135  Energy = -245.1594661490 Hartree
C      -0.66141184     -0.60066803      0.75061448
N      -1.89065345     -1.00174546     -0.01907865
O      -2.21630050     -2.18559032      0.00238067
O      -2.43052697     -0.11859487     -0.64879022
H       0.16478143     -1.11975429      0.33489107
H      -0.71504234     -0.96338803      1.74543402
H      -0.52776842      0.44780555      0.74540647
7
Frame 140  Energy = -245.1595744474 Hartree
C      -0.66234808     -0.60131625      0.75203843
N      -1.89420054     -1.00386027     -0.02214275
O      -2.21516854     -2.18417855      0.00081397
O      -2.42959349     -0.12003493     -0.64608450
H       0.17442377     -1.11127965      0.34996059
H      -0.70557142     -0.94721613      1.74621801
H      -0.53288955      0.46198503      0.74769757
7
Frame 145  Energy = -245.1597341182 Hartree
C      -0.66336166     -0.60195784      0.75342114
N      -1.89769700     -1.00587510     -0.02513497
O      -2.21403634     -2.18269293     -0.00064428
O      -2.42879957     -0.12149255     -0.64343495
H       0.18550743     -1.10374663      0.36295683
H      -0.69779414     -0.93201906      1.74976200
H      -0.53780531      0.47683455      0.74936994
7
Frame 150  Energy = -245.1595024457 Hartree
C      -0.66451258     -0.60257451      0.75469167
N      -1.90110883     -1.00793162     -0.02810343
O      -2.21290371     -2.18111231     -0.00216195
O      -2.42812565     -0.12295857     -0.64077272
H       0.19789930     -1.09705042      0.37355433
H      -0.69156688     -0.91793746      1.75628358
H      -0.54304469      0.49118202      0.75042173
7
Frame 155  Energy = -245.1594982082 Hartree
C      -0.66587906     -0.60297823      0.75585695
N      -1.90424790     -1.01006928     -0.03095920
O      -2.21181747     -2.17947755     -0.00376529
O      -2.42759592     -0.12440165     -0.63819326
H       0.21120250     -1.09076224      0.38205733
H      -0.68710058     -0.90494545      1.76592112
H      -0.54895606      0.50397142      0.75027930
7
Frame 160  Energy = -245.1594195249 Hartree
C      -0.66726333     -0.60315436      0.75698461
N      -1.90710786     -1.01228608     -0.03367899
O      -2.21077101     -2.17784370     -0.00539165
O      -2.42727896     -0.12578658     -0.63573042
H       0.22477354     -1.08498382      0.38866641
H      -0.68464722     -0.89336716      1.77806461
H      -0.55554477      0.51438851      0.74902547
7
Frame 165  Energy = -245.1595085858 Hartree
C      -0.66863834     -0.60301477      0.75815466
N      -1.90950580     -1.01461394     -0.03616986
O      -2.20980013     -2.17629441     -0.00702290
O      -2.42720755     -0.12710332     -0.63342792
H       0.23838837     -1.07948704      0.39345438
H      -0.68392736     -0.88299534      1.79163721
H      -0.56314014      0.52187594      0.74668897
7
Frame 170  Energy = -245.1596978585 Hartree
C      -0.67000052     -0.60254003      0.75937517
N      -1.91150590     -1.01684253     -0.03834690
O      -2.20889125     -2.17486677     -0.00862289
O      -2.42727865     -0.12826125     -0.63131550
H       0.25099391     -1.07463510      0.39669052
H      -0.68517154     -0.87346364      1.80620225
H      -0.57126900      0.52614281      0.74350906
7
Frame 175  Energy = -245.1597868241 Hartree
C      -0.67121801     -0.60179875      0.76063562
N      -1.91301215     -1.01895599     -0.04025877
O      -2.20809422     -2.17355871     -0.01024152
O      -2.42749609     -0.12921448     -0.62944204
H       0.26223375     -1.06994331      0.39868511
H      -0.68817339     -0.86501626      1.82101336
H      -0.57996690      0.52669651      0.73963294
7
Frame 180  Energy = -245.1599169706 Hartree
C      -0.67224629     -0.60083343      0.76202785
N      -1.91393763     -1.02090988     -0.04181843
O      -2.20745194     -2.17245178     -0.01192298
O      -2.42794469     -0.12995947     -0.62773504
H       0.27132179     -1.06477835      0.39977938
H      -0.69292038     -0.85751693      1.83500389
H      -0.58945033      0.52364439      0.73479848
7
Frame 185  Energy = -245.1597964079 Hartree
C      -0.67305868     -0.59963988      0.76353854
N      -1.91427325     -1.02269039     -0.04295659
O      -2.20685078     -2.17156288     -0.01359114
O      -2.42857363     -0.13055910     -0.62627180
H       0.27808623     -1.05926355      0.39999081
H      -0.69967562     -0.85047534      1.84756636
H      -0.59928658      0.51729211      0.72910451
7
Frame 190  Energy = -245.1599704050 Hartree
C      -0.67369966     -0.59820635      0.76525341
N      -1.91400926     -1.02425666     -0.04374799
O      -2.20627929     -2.17098131     -0.01523546
O      -2.42950999     -0.13096160     -0.62493905
H       0.28192289     -1.05301186      0.39991342
H      -0.70798983     -0.84409697      1.85777958
H      -0.60954057      0.50798725      0.72283430
7
Frame 195  Energy = -245.1600393106 Hartree
C      -0.67411942     -0.59669272      0.76711709
N      -1.91318480     -1.02559651     -0.04412810
O      -2.20580318     -2.17061273     -0.01695067
O      -2.43070428     -0.13108880     -0.62383334
H       0.28248787     -1.04648901      0.39930979
H      -0.71774317     -0.83817365      1.86507712
H      -0.61984904      0.49697155      0.71586837
7
Frame 200  Energy = -245.1600737134 Hartree
C      -0.67443101     -0.59513865      0.76912752
N      -1.91191492     -1.02675295     -0.04412871
O      -2.20545795     -2.17051760     -0.01874574
O      -2.43207401     -0.13105070     -0.62289887
H       0.27963729     -1.03925247      0.39815048
H      -0.72890141     -0.83259906      1.86960670
H      -0.63006389      0.48509166      0.70832186
7
Frame 205  Energy = -245.1600598224 Hartree
C      -0.67461723     -0.59347682      0.77134409
N      -1.91015893     -1.02766009     -0.04378869
O      -2.20528377     -2.17079440     -0.02066130
O      -2.43363073     -0.13076457     -0.62221368
H       0.27392173     -1.03144374      0.39677367
H      -0.74092562     -0.82755699      1.87072080
H      -0.63995831      0.47321484      0.70047135
7
Frame 210  Energy = -245.1601475014 Hartree
C      -0.67476841     -0.59186902      0.77382359
N      -1.90786872     -1.02829219     -0.04312846
O      -2.20519397     -2.17139114     -0.02270843
O      -2.43533003     -0.13031168     -0.62175950
H       0.26576767     -1.02339750      0.39508608
H      -0.75386908     -0.82269981      1.86837087
H      -0.64962581      0.46237471      0.69212749
7
Frame 215  Energy = -245.1601380636 Hartree
C      -0.67485757     -0.59042683      0.77649320
N      -1.90508582     -1.02867769     -0.04221935
O      -2.20522311     -2.17232226     -0.02478383
O      -2.43713834     -0.12971728     -0.62147907
H       0.25574254     -1.01553926      0.39295492
H      -0.76784929     -0.81856710      1.86299530
H      -0.65900333      0.45392831      0.68353963
7
Frame 220  Energy = -245.1602716922 Hartree
C      -0.67498416     -0.58921582      0.77930338
N      -1.90184580     -1.02881874     -0.04095724
O      -2.20529847     -2.17360834     -0.02682366
O      -2.43905027     -0.12901232     -0.62140457
H       0.24442897     -1.00818170      0.39028511
H      -0.78229249     -0.81520587      1.85520545
H      -0.66825718      0.44869767      0.67463501
7
Frame 225  Energy = -245.1603312225 Hartree
C      -0.67524428     -0.58823145      0.78217062
N      -1.89819845     -1.02872935     -0.03945005
O      -2.20543591     -2.17516849     -0.02882169
O      -2.44111189     -0.12830003     -0.62154075
H       0.23279862     -1.00174898      0.38707913
H      -0.79703329     -0.81261799      1.84537506
H      -0.67731544      0.44741597      0.66528473
7
Frame 230  Energy = -245.1602143412 Hartree
C      -0.67581124     -0.58740960      0.78511618
N      -1.89422100     -1.02849628     -0.03781135
O      -2.20549461     -2.17704362     -0.03078053
O      -2.44327900     -0.12753906     -0.62177965
H       0.22145060     -0.99651821      0.38328800
H      -0.81266052     -0.81093788      1.83447937
H      -0.68610442      0.44996314      0.65558262
7
Frame 235  Energy = -245.1599943439 Hartree
C      -0.67665238     -0.58673320      0.78806353
N      -1.88994781     -1.02797490     -0.03605882
O      -2.20554760     -2.17916782     -0.03266513
O      -2.44560548     -0.12680527     -0.62210094
H       0.21084556     -0.99280158      0.37903248
H      -0.82869745     -0.81012938      1.82307538
H      -0.69443203      0.45583886      0.64585687
7
Frame 240  Energy = -245.1599089920 Hartree
C      -0.67775544     -0.58600052      0.79092156
N      -1.88537221     -1.02726261     -0.03425528
O      -2.20560390     -2.18147728     -0.03453933
O      -2.44798232     -0.12609681     -0.62250641
H       0.20155667     -0.99056910      0.37402124
H      -0.84499134     -0.81018318      1.81275327
H      -0.70189968      0.46453723      0.63639678
7
Frame 245  Energy = -245.1599921015 Hartree
C      -0.67913275     -0.58517049      0.79366578
N      -1.88058942     -1.02645711     -0.03236909
O      -2.20571526     -2.18389267     -0.03642595
O      -2.45034286     -0.12538621     -0.62298838
H       0.19436789     -0.98991774      0.36834144
H      -0.86140535     -0.81149472      1.80429414
H      -0.70855238      0.47526959      0.62782913
7
Frame 250  Energy = -245.1597983004 Hartree
C      -0.68078868     -0.58412775      0.79621011
N      -1.87572447     -1.02548911     -0.03035948
O      -2.20585412     -2.18638345     -0.03833173
O      -2.45266444     -0.12488761     -0.62352001
H       0.18921280     -0.99129582      0.36211407
H      -0.87793405     -0.81426609      1.79858481
H      -0.71444533      0.48695805      0.62011271
7
Frame 255  Energy = -245.1600117743 Hartree
C      -0.68270344     -0.58283632      0.79831695
N      -1.87087363     -1.02440600     -0.02834369
O      -2.20596580     -2.18883595     -0.04027040
O      -2.45488474     -0.12460012     -0.62398236
H       0.18601326     -0.99416166      0.35533329
H      -0.89430949     -0.81843741      1.79587041
H      -0.71965529      0.49877912      0.61329161
7
Frame 260  Energy = -245.1600399633 Hartree
C      -0.68494592     -0.58123943      0.80004226
N      -1.86624568     -1.02312809     -0.02637340
O      -2.20604567     -2.19115385     -0.04214006
O      -2.45705788     -0.12446711     -0.62446725
H       0.18432588     -0.99847004      0.34855848
H      -0.91027516     -0.82406249      1.79619089
H      -0.72395888      0.50995955      0.60769896
7
Frame 265  Energy = -245.1599559407 Hartree
C      -0.68752268     -0.57925218      0.80133510
N      -1.86182446     -1.02167886     -0.02443631
O      -2.20597531     -2.19338753     -0.04395288
O      -2.45924179     -0.12449042     -0.62495084
H       0.18397914     -1.00378869      0.34217009
H      -0.92532188     -0.83089813      1.79950486
H      -0.72748536      0.51942022      0.60334093
7
Frame 270  Energy = -245.1599115129 Hartree
C      -0.69035108     -0.57691123      0.80231145
N      -1.85765557     -1.02023628     -0.02260416
O      -2.20577104     -2.19558307     -0.04569891
O      -2.46130731     -0.12460547     -0.62526441
H       0.18435098     -1.00991116      0.33664331
H      -0.93962744     -0.83887583      1.80497477
H      -0.72996779      0.52650133      0.60058900
7
Frame 275  Energy = -245.1601835151 Hartree
C      -0.69346398     -0.57423646      0.80295683
N      -1.85388940     -1.01884868     -0.02091405
O      -2.20538892     -2.19754619     -0.04738421
O      -2.46326908     -0.12490392     -0.62551200
H       0.18498707     -1.01655979      0.33240855
H      -0.95291032     -0.84746316      1.81184849
H      -0.73135082      0.53078502      0.59939366
7
Frame 280  Energy = -245.1602116191 Hartree
C      -0.69665971     -0.57126982      0.80326191
N      -1.85053728     -1.01755443     -0.01937400
O      -2.20483765     -2.19924314     -0.04901832
O      -2.46508008     -0.12546308     -0.62571061
H       0.18542620     -1.02329025      0.33037313
H      -0.96453653     -0.85628065      1.81955595
H      -0.73136001      0.53204276      0.60031881
7
Frame 285  Energy = -245.1600042640 Hartree
C      -0.69997241     -0.56807285      0.80329299
N      -1.84769955     -1.01631452     -0.01802561
O      -2.20417137     -2.20069441     -0.05056539
O      -2.46677519     -0.12618801     -0.62573762
H       0.18518988     -1.02999215      0.33014030
H      -0.97511770     -0.86537526      1.82754870
H      -0.73003224      0.53040084      0.60345702
7
Frame 290  Energy = -245.1601406605 Hartree
C      -0.70337723     -0.56481535      0.80312744
N      -1.84537847     -1.01518464     -0.01689780
O      -2.20332642     -2.20193102     -0.05206127
O      -2.46832162     -0.12705316     -0.62564986
H       0.18422084     -1.03618627      0.33215526
H      -0.98417979     -0.87419591      1.83468636
H      -0.72783980      0.52644589      0.60846762
7
Frame 295  Energy = -245.1602426947 Hartree
C      -0.70683055     -0.56148472      0.80290649
N      -1.84355723     -1.01425925     -0.01605470
O      -2.20227696     -2.20289614     -0.05336840
O      -2.46965234     -0.12811606     -0.62550023
H       0.18263164     -1.04182835      0.33658508
H      -0.99102262     -0.88208870      1.84005879
H      -0.72498292      0.52056904      0.61519607
7
Frame 300  Energy = -245.1603677081 Hartree
C      -0.71029584     -0.55823515      0.80267679
N      -1.84229196     -1.01356918     -0.01554813
O      -2.20096850     -2.20363429     -0.05455534
O      -2.47082834     -0.12939901     -0.62528776
H       0.17985591     -1.04658930      0.34347816
H      -0.99548080     -0.88882890      1.84295036
H      -0.72158985      0.51321989      0.62355260
