7
Frame 5  Energy = -245.1611642074 Hartree
C      -0.71370513     -0.55523677      0.80236914
N      -1.84162999     -1.01302885     -0.01538307
O      -2.19941589     -2.20410918     -0.05566125
O      -2.47186042     -0.13084957     -0.62492786
H       0.17580288     -1.05029682      0.35267937
H      -0.99769096     -0.89465714      1.84325070
H      -0.71742631      0.50519224      0.63326512
7
Frame 10  Energy = -245.1612134207 Hartree
C      -0.71710255     -0.55255322      0.80223759
N      -1.84151481     -1.01248791     -0.01545744
O      -2.19763553     -2.20438026     -0.05662812
O      -2.47272425     -0.13249281     -0.62440391
H       0.17057435     -1.05274137      0.36376732
H      -0.99751299     -0.89920138      1.84075510
H      -0.71228984      0.49794981      0.64419168
7
Frame 15  Energy = -245.1614094662 Hartree
C      -0.72047069     -0.55015970      0.80227758
N      -1.84191109     -1.01208044     -0.01581491
O      -2.19569841     -2.20433883     -0.05751127
O      -2.47345555     -0.13417957     -0.62380406
H       0.16446354     -1.05440040      0.37619524
H      -0.99535921     -0.90244344      1.83543761
H      -0.70622655      0.49206271      0.65631981
7
Frame 20  Energy = -245.1614680981 Hartree
C      -0.72379639     -0.54819102      0.80245089
N      -1.84291617     -1.01187495     -0.01645420
O      -2.19357148     -2.20406783     -0.05834818
O      -2.47405658     -0.13592331     -0.62305328
H       0.15791903     -1.05539522      0.39038864
H      -0.99128146     -0.90444385      1.82748739
H      -0.69973272      0.48885648      0.66884199
7
Frame 25  Energy = -245.1614729458 Hartree
C      -0.72719195     -0.54668951      0.80274813
N      -1.84445253     -1.01163536     -0.01734402
O      -2.19123864     -2.20352674     -0.05907488
O      -2.47447710     -0.13777666     -0.62218270
H       0.15112775     -1.05579999      0.40595367
H      -0.98570849     -0.90534089      1.81779560
H      -0.69274337      0.48871464      0.68172120
7
Frame 30  Energy = -245.1615991367 Hartree
C      -0.73065527     -0.54560432      0.80314582
N      -1.84651453     -1.01140786     -0.01846545
O      -2.18873231     -2.20276694     -0.05977133
O      -2.47469951     -0.13968512     -0.62127856
H       0.14442263     -1.05589525      0.42252536
H      -0.97888973     -0.90536519      1.80709132
H      -0.68542249      0.49200030      0.69428847
7
Frame 35  Energy = -245.1618062242 Hartree
C      -0.73408391     -0.54486363      0.80359123
N      -1.84903082     -1.01130474     -0.01981722
O      -2.18606895     -2.20174289     -0.06049282
O      -2.47485559     -0.14170126     -0.62036642
H       0.13875835     -1.05559661      0.43960895
H      -0.97122675     -0.90439312      1.79622171
H      -0.67772583      0.49821358      0.70694589
7
Frame 40  Energy = -245.1618167653 Hartree
C      -0.73752497     -0.54449205      0.80412798
N      -1.85195711     -1.01129699     -0.02139136
O      -2.18330131     -2.20050474     -0.06110103
O      -2.47495117     -0.14372659     -0.61941485
H       0.13446259     -1.05494221      0.45668711
H      -0.96332131     -0.90245725      1.78576887
H      -0.66973534      0.50677345      0.71995365
7
Frame 45  Energy = -245.1617802125 Hartree
C      -0.74090237     -0.54441737      0.80466346
N      -1.85525121     -1.01134907     -0.02317478
O      -2.18035797     -2.19923815     -0.06164504
O      -2.47500806     -0.14574827     -0.61842410
H       0.13176359     -1.05449748      0.47330470
H      -0.95559361     -0.90040018      1.77668507
H      -0.66150715      0.51708000      0.73313883
7
Frame 50  Energy = -245.1617591353 Hartree
C      -0.74428045     -0.54454291      0.80515963
N      -1.85889455     -1.01145709     -0.02518583
O      -2.17723430     -2.19789046     -0.06209187
O      -2.47508281     -0.14779166     -0.61741617
H       0.13089386     -1.05468751      0.48902439
H      -0.94844567     -0.89834322      1.77020214
H      -0.65350517      0.52844911      0.74653695
7
Frame 55  Energy = -245.1616077244 Hartree
C      -0.74762281     -0.54462357      0.80557808
N      -1.86280940     -1.01158578     -0.02728937
O      -2.17394311     -2.19640923     -0.06249576
O      -2.47511080     -0.14977890     -0.61634312
H       0.13213006     -1.05522641      0.50391799
H      -0.94196392     -0.89661479      1.76725056
H      -0.64585824      0.53977914      0.75965066
7
Frame 60  Energy = -245.1617415526 Hartree
C      -0.75086865     -0.54467560      0.80583171
N      -1.86690497     -1.01174867     -0.02954274
O      -2.17051993     -2.19479942     -0.06283769
O      -2.47508940     -0.15172424     -0.61528490
H       0.13524970     -1.05666384      0.51770313
H      -0.93645687     -0.89564617      1.76861397
H      -0.63846264      0.55000069      0.77261265
7
Frame 65  Energy = -245.1617400368 Hartree
C      -0.75392990     -0.54469268      0.80596577
N      -1.87122213     -1.01192326     -0.03177460
O      -2.16703316     -2.19311662     -0.06312989
O      -2.47510558     -0.15363944     -0.61429711
H       0.14010013     -1.05882474      0.53026282
H      -0.93244486     -0.89526029      1.77430361
H      -0.63200504      0.55863761      0.78520860
7
Frame 70  Energy = -245.1614924981 Hartree
C      -0.75688854     -0.54466175      0.80599886
N      -1.87568498     -1.01218267     -0.03398265
O      -2.16346997     -2.19144667     -0.06339261
O      -2.47520409     -0.15549807     -0.61338673
H       0.14607323     -1.06097658      0.54125874
H      -0.92958417     -0.89549899      1.78399895
H      -0.62657034      0.56514406      0.79761261
7
Frame 75  Energy = -245.1615336689 Hartree
C      -0.75967091     -0.54449207      0.80608226
N      -1.88015776     -1.01250136     -0.03629226
O      -2.15982146     -2.18978202     -0.06367269
O      -2.47541168     -0.15722602     -0.61256662
H       0.15268585     -1.06293415      0.55079215
H      -0.92794320     -0.89584986      1.79666278
H      -0.62225492      0.56882447      0.80943344
7
Frame 80  Energy = -245.1615246486 Hartree
C      -0.76219830     -0.54423063      0.80613881
N      -1.88455377     -1.01284621     -0.03853704
O      -2.15610281     -2.18822163     -0.06404074
O      -2.47563726     -0.15885468     -0.61185481
H       0.15993838     -1.06473092      0.55874039
H      -0.92756726     -0.89592450      1.81142971
H      -0.61895572      0.56949365      0.82014370
7
Frame 85  Energy = -245.1616564906 Hartree
C      -0.76449624     -0.54384995      0.80636384
N      -1.88881204     -1.01317476     -0.04062892
O      -2.15242018     -2.18681985     -0.06439917
O      -2.47607391     -0.16027298     -0.61131123
H       0.16671060     -1.06621155      0.56501752
H      -0.92822255     -0.89595212      1.82735160
H      -0.61664082      0.56701133      0.82982518
7
Frame 90  Energy = -245.1615136673 Hartree
C      -0.76648827     -0.54347693      0.80679939
N      -1.89291212     -1.01349687     -0.04255259
O      -2.14872401     -2.18554439     -0.06476707
O      -2.47668423     -0.16138946     -0.61091914
H       0.17256026     -1.06725811      0.56995370
H      -0.92997374     -0.89542934      1.84310676
H      -0.61581677      0.56168112      0.83849984
7
Frame 95  Energy = -245.1616999247 Hartree
C      -0.76819065     -0.54313610      0.80760919
N      -1.89676059     -1.01381816     -0.04427029
O      -2.14508191     -2.18452126     -0.06514072
O      -2.47744234     -0.16223032     -0.61068703
H       0.17734339     -1.06738564      0.57367746
H      -0.93310692     -0.89397311      1.85729728
H      -0.61641247      0.55396659      0.84645428
7
Frame 100  Energy = -245.1615344122 Hartree
C      -0.76955944     -0.54287093      0.80886788
N      -1.90033564     -1.01410826     -0.04575145
O      -2.14147724     -2.18369516     -0.06553755
O      -2.47840265     -0.16286804     -0.61064743
H       0.18077972     -1.06688436      0.57637092
H      -0.93711577     -0.89152822      1.86917739
H      -0.61847020      0.54407862      0.85320664
7
Frame 105  Energy = -245.1615847263 Hartree
C      -0.77060676     -0.54275994      0.81055334
N      -1.90359208     -1.01441164     -0.04697386
O      -2.13790317     -2.18304880     -0.06601524
O      -2.47978430     -0.16321246     -0.61090218
H       0.18250873     -1.06565808      0.57805626
H      -0.94188592     -0.88840473      1.87845394
H      -0.62165470      0.53311737      0.85827827
7
Frame 110  Energy = -245.1614605835 Hartree
C      -0.77137919     -0.54296595      0.81276215
N      -1.90649640     -1.01471571     -0.04793092
O      -2.13439988     -2.18267790     -0.06652238
O      -2.48143523     -0.16327939     -0.61147059
H       0.18234596     -1.06354036      0.57863972
H      -0.94740720     -0.88476810      1.88490984
H      -0.62588312      0.52172401      0.86146602
7
Frame 115  Energy = -245.1614942847 Hartree
C      -0.77193399     -0.54353337      0.81542885
N      -1.90898679     -1.01505804     -0.04853413
O      -2.13092963     -2.18255319     -0.06702667
O      -2.48331979     -0.16298085     -0.61223646
H       0.17997610     -1.06024899      0.57815986
H      -0.95331861     -0.88031973      1.88810382
H      -0.63100310      0.51058983      0.86326498
7
Frame 120  Energy = -245.1615231611 Hartree
C      -0.77234469     -0.54456071      0.81868476
N      -1.91109740     -1.01533920     -0.04877883
O      -2.12751659     -2.18274227     -0.06753480
O      -2.48536716     -0.16236018     -0.61316726
H       0.17541229     -1.05593530      0.57674727
H      -0.95971158     -0.87527285      1.88822435
H      -0.63664047      0.50095718      0.86383501
7
Frame 125  Energy = -245.1615856163 Hartree
C      -0.77266906     -0.54603471      0.82236132
N      -1.91273172     -1.01551904     -0.04861618
O      -2.12413753     -2.18319736     -0.06800364
O      -2.48762820     -0.16145072     -0.61434503
H       0.16917825     -1.05093539      0.57469625
H      -0.96656508     -0.86941647      1.88516586
H      -0.64288953      0.49401926      0.86329987
7
Frame 130  Energy = -245.1615351822 Hartree
C      -0.77283968     -0.54797062      0.82645575
N      -1.91389876     -1.01556506     -0.04811928
O      -2.12082542     -2.18397421     -0.06859364
O      -2.49014697     -0.16023136     -0.61573682
H       0.16161578     -1.04529284      0.57215643
H      -0.97388475     -0.86302224      1.87920309
H      -0.64944121      0.49053879      0.86165153
7
Frame 135  Energy = -245.1613611117 Hartree
C      -0.77298323     -0.55033033      0.83087355
N      -1.91454201     -1.01551937     -0.04719270
O      -2.11753548     -2.18503388     -0.06934287
O      -2.49296455     -0.15873671     -0.61742192
H       0.15326826     -1.03924989      0.56879032
H      -0.98130237     -0.85638683      1.87090479
H      -0.65641147      0.49065946      0.85885300
7
Frame 140  Energy = -245.1612525023 Hartree
C      -0.77316454     -0.55307349      0.83556440
N      -1.91471023     -1.01533824     -0.04597419
O      -2.11421279     -2.18645741     -0.07025558
O      -2.49599613     -0.15705626     -0.61930997
H       0.14496642     -1.03352471      0.56430708
H      -0.98923950     -0.84977017      1.86146526
H      -0.66406019      0.49419166      0.85509519
7
Frame 145  Energy = -245.1612216610 Hartree
C      -0.77343577     -0.55597967      0.84053157
N      -1.91442848     -1.01497226     -0.04457058
O      -2.11099393     -2.18820385     -0.07132960
O      -2.49918858     -0.15525738     -0.62147372
H       0.13720032     -1.02880169      0.55897184
H      -0.99754803     -0.84350440      1.85165401
H      -0.67207181      0.50040840      0.85035401
7
Frame 150  Energy = -245.1612021536 Hartree
C      -0.77381995     -0.55890819      0.84557418
N      -1.91378544     -1.01443494     -0.04300310
O      -2.10775029     -2.19027758     -0.07253970
O      -2.50257128     -0.15333385     -0.62379139
H       0.13060194     -1.02512074      0.55266900
H      -1.00620671     -0.83793375      1.84272581
H      -0.68041611      0.50823603      0.84466610
7
Frame 155  Energy = -245.1611592998 Hartree
C      -0.77441985     -0.56178547      0.85056233
N      -1.91278191     -1.01374562     -0.04127037
O      -2.10456863     -2.19257214     -0.07388171
O      -2.50609324     -0.15131684     -0.62623481
H       0.12558836     -1.02255548      0.54556936
H      -1.01539027     -0.83350142      1.83557403
H      -0.68892495      0.51657969      0.83785298
7
Frame 160  Energy = -245.1612444461 Hartree
C      -0.77513119     -0.56455238      0.85543594
N      -1.91158858     -1.01283309     -0.03930829
O      -2.10148819     -2.19502749     -0.07527644
O      -2.50969513     -0.14924059     -0.62878352
H       0.12217933     -1.02114705      0.53742616
H      -1.02533933     -0.83051910      1.83125292
H      -0.69798390      0.52472666      0.83009704
7
Frame 165  Energy = -245.1610789066 Hartree
C      -0.77596450     -0.56713839      0.86005492
N      -1.91018464     -1.01170743     -0.03717593
O      -2.09848098     -2.19767836     -0.07665578
O      -2.51337113     -0.14717967     -0.63136841
H       0.12066753     -1.02109179      0.52842445
H      -1.03615277     -0.82927145      1.83051555
H      -0.70724010      0.53198709      0.82169218
7
Frame 170  Energy = -245.1612561483 Hartree
C      -0.77675512     -0.56939999      0.86431438
N      -1.90855740     -1.01039856     -0.03492674
O      -2.09556830     -2.20036442     -0.07802956
O      -2.51707517     -0.14516278     -0.63406456
H       0.12120886     -1.02200845      0.51887783
H      -1.04776318     -0.82982080      1.83380200
H      -0.71641778      0.53807011      0.81295212
7
Frame 175  Energy = -245.1615070728 Hartree
C      -0.77758250     -0.57126310      0.86830694
N      -1.90669327     -1.00902779     -0.03259752
O      -2.09275725     -2.20309793     -0.07943716
O      -2.52077358     -0.14327268     -0.63676503
H       0.12314289     -1.02380492      0.50928365
H      -1.05984166     -0.83248199      1.84060973
H      -0.72551830      0.54195397      0.80391460
7
Frame 180  Energy = -245.1615222901 Hartree
C      -0.77852134     -0.57267432      0.87194980
N      -1.90474338     -1.00757049     -0.03026614
O      -2.08994970     -2.20578453     -0.08080820
O      -2.52444058     -0.14154642     -0.63940126
H       0.12588660     -1.02616197      0.49990910
H      -1.07228137     -0.83687452      1.85063760
H      -0.73460320      0.54307206      0.79503235
7
Frame 185  Energy = -245.1615556920 Hartree
C      -0.77954908     -0.57363227      0.87528530
N      -1.90278640     -1.00602644     -0.02791528
O      -2.08721894     -2.20840752     -0.08223535
O      -2.52802874     -0.14001911     -0.64195546
H       0.12913407     -1.02894095      0.49094007
H      -1.08438151     -0.84233239      1.86308297
H      -0.74339181      0.54135460      0.78627645
7
Frame 190  Energy = -245.1616041385 Hartree
C      -0.78066267     -0.57428348      0.87838894
N      -1.90085560     -1.00446891     -0.02561114
O      -2.08446277     -2.21094901     -0.08368023
O      -2.53151849     -0.13870941     -0.64441332
H       0.13215786     -1.03171380      0.48319411
H      -1.09599274     -0.84850053      1.87674779
H      -0.75152177      0.53703800      0.77787954
7
Frame 195  Energy = -245.1614653711 Hartree
C      -0.78191064     -0.57470672      0.88140569
N      -1.89906884     -1.00298962     -0.02336058
O      -2.08169855     -2.21329373     -0.08516348
O      -2.53481135     -0.13769796     -0.64681211
H       0.13428351     -1.03458460      0.47690796
H      -1.10621695     -0.85527011      1.89098632
H      -0.75964542      0.53029366      0.77018203
7
Frame 200  Energy = -245.1615503051 Hartree
C      -0.78327836     -0.57490015      0.88420226
N      -1.89733760     -1.00155821     -0.02122293
O      -2.07896911     -2.21547103     -0.08667317
O      -2.53800310     -0.13683427     -0.64898559
H       0.13522614     -1.03739401      0.47204320
H      -1.11495258     -0.86250403      1.90449757
H      -0.76736484      0.52176263      0.76319373
7
Frame 205  Energy = -245.1614314583 Hartree
C      -0.78474979     -0.57503674      0.88687061
N      -1.89580593     -1.00016141     -0.01922513
O      -2.07622118     -2.21743279     -0.08817295
O      -2.54105171     -0.13620548     -0.65100156
H       0.13453943     -1.03929062      0.46864448
H      -1.12182245     -0.86960245      1.91612505
H      -0.77438804      0.51162260      0.75727425
7
Frame 210  Energy = -245.1615301773 Hartree
C      -0.78630085     -0.57514501      0.88944474
N      -1.89452528     -0.99877542     -0.01739326
O      -2.07349613     -2.21920972     -0.08970379
O      -2.54388421     -0.13574654     -0.65280728
H       0.13210214     -1.04034711      0.46678898
H      -1.12674338     -0.87653057      1.92533850
H      -0.78045829      0.50089558      0.75221525
7
Frame 215  Energy = -245.1616864843 Hartree
C      -0.78794521     -0.57529409      0.89195444
N      -1.89359125     -0.99743266     -0.01587144
O      -2.07083992     -2.22074050     -0.09122657
O      -2.54647374     -0.13550624     -0.65435191
H       0.12794058     -1.04084601      0.46652079
H      -1.12946017     -0.88291437      1.93142889
H      -0.78545847      0.49027733      0.74832444
7
Frame 220  Energy = -245.1616985322 Hartree
C      -0.78967017     -0.57544730      0.89456509
N      -1.89287799     -0.99631146     -0.01460971
O      -2.06812747     -2.22195849     -0.09274663
O      -2.54879152     -0.13550606     -0.65571986
H       0.12171170     -1.04079559      0.46850060
H      -1.12966851     -0.88892733      1.93415607
H      -0.78943421      0.48067532      0.74541545
7
Frame 225  Energy = -245.1617941731 Hartree
C      -0.79162631     -0.57568308      0.89715696
N      -1.89238291     -0.99528239     -0.01364490
O      -2.06536384     -2.22286063     -0.09429279
O      -2.55081818     -0.13585954     -0.65686181
H       0.11427339     -1.03979938      0.47262331
H      -1.12763784     -0.89419457      1.93349238
H      -0.79241759      0.47304636      0.74350287
7
Frame 230  Energy = -245.1618722198 Hartree
C      -0.79384258     -0.57601527      0.89978301
N      -1.89217700     -0.99446910     -0.01298736
O      -2.06267773     -2.22344282     -0.09585880
O      -2.55260783     -0.13666302     -0.65770487
H       0.10604638     -1.03843918      0.47870912
H      -1.12379283     -0.89852945      1.92982817
H      -0.79454452      0.46795356      0.74267775
7
Frame 235  Energy = -245.1618592489 Hartree
C      -0.79635499     -0.57652344      0.90248493
N      -1.89228936     -0.99386857     -0.01261700
O      -2.06004033     -2.22363548     -0.09727498
O      -2.55421080     -0.13776169     -0.65833210
H       0.09729687     -1.03689670      0.48642963
H      -1.11852233     -0.90199271      1.92346168
H      -0.79546238      0.46545867      0.74299834
7
Frame 240  Energy = -245.1619810159 Hartree
C      -0.79915155     -0.57708718      0.90517044
N      -1.89269783     -0.99357818     -0.01253191
O      -2.05739505     -2.22344424     -0.09853346
O      -2.55551671     -0.13919720     -0.65864231
H       0.08820415     -1.03515172      0.49526240
H      -1.11150574     -0.90470317      1.91455414
H      -0.79532340      0.46592346      0.74451878
7
Frame 245  Energy = -245.1619994610 Hartree
C      -0.80208999     -0.57768676      0.90772570
N      -1.89332656     -0.99355872     -0.01270372
O      -2.05482062     -2.22296935     -0.09979781
O      -2.55660045     -0.14090550     -0.65866593
H       0.07922975     -1.03356455      0.50503466
H      -1.10319602     -0.90720353      1.90406661
H      -0.79403474      0.46943004      0.74733961
7
Frame 250  Energy = -245.1619304640 Hartree
C      -0.80534650     -0.57832586      0.91017793
N      -1.89423658     -0.99380561     -0.01325746
O      -2.05235345     -2.22216354     -0.10105164
O      -2.55750481     -0.14283753     -0.65835659
H       0.07122821     -1.03292561      0.51548914
H      -1.09397651     -0.90943889      1.89308871
H      -0.79180575      0.47549951      0.75134286
7
Frame 255  Energy = -245.1616820363 Hartree
C      -0.80895385     -0.57882956      0.91240902
N      -1.89547200     -0.99431292     -0.01422482
O      -2.04985036     -2.22105593     -0.10231266
O      -2.55820830     -0.14509598     -0.65781050
H       0.06507227     -1.03329282      0.52613781
H      -1.08413505     -0.91135693      1.88246887
H      -0.78822162      0.48337988      0.75653783
7
Frame 260  Energy = -245.1614711295 Hartree
C      -0.81279719     -0.57906327      0.91434111
N      -1.89704608     -0.99498002     -0.01547704
O      -2.04726509     -2.21962660     -0.10357167
O      -2.55868094     -0.14774816     -0.65705250
H       0.06105206     -1.03465889      0.53701543
H      -1.07385229     -0.91331552      1.87345905
H      -0.78364614      0.49225267      0.76295212
7
Frame 265  Energy = -245.1617610716 Hartree
C      -0.81678934     -0.57900815      0.91592301
N      -1.89885415     -0.99573825     -0.01693708
O      -2.04463886     -2.21794781     -0.10480217
O      -2.55889819     -0.15068792     -0.65605685
H       0.05936050     -1.03745433      0.54735773
H      -1.06408216     -0.91568916      1.86750073
H      -0.77848093      0.50124061      0.77081422
7
Frame 270  Energy = -245.1616611756 Hartree
C      -0.82087453     -0.57864014      0.91700669
N      -1.90083810     -0.99656495     -0.01863549
O      -2.04208232     -2.21589187     -0.10603663
O      -2.55884232     -0.15382425     -0.65475641
H       0.06058406     -1.04159759      0.55751725
H      -1.05534118     -0.91847502      1.86553335
H      -0.77252579      0.50936140      0.78012750
7
Frame 275  Energy = -245.1616821105 Hartree
C      -0.82499202     -0.57790477      0.91752516
N      -1.90296470     -0.99745657     -0.02050273
O      -2.03955749     -2.21355669     -0.10735694
O      -2.55862841     -0.15716322     -0.65322664
H       0.06366704     -1.04689858      0.56755027
H      -1.04779029     -0.92184594      1.86747645
H      -0.76559188      0.51639601      0.79080368
7
Frame 280  Energy = -245.1617907856 Hartree
C      -0.82909481     -0.57666855      0.91750111
N      -1.90518123     -0.99841343     -0.02252083
O      -2.03703834     -2.21103070     -0.10875699
O      -2.55830207     -0.16062984     -0.65156892
H       0.06848679     -1.05308436      0.57728130
H      -1.04171334     -0.92616415      1.87365006
H      -0.75816841      0.52220433      0.80253997
7
Frame 285  Energy = -245.1618377134 Hartree
C      -0.83315271     -0.57501461      0.91705155
N      -1.90739881     -0.99944582     -0.02463568
O      -2.03456853     -2.20833030     -0.11019095
O      -2.55781734     -0.16430135     -0.64979142
H       0.07438749     -1.05952988      0.58688939
H      -1.03709142     -0.93122070      1.88315464
H      -0.75051076      0.52593029      0.81541695
7
Frame 290  Energy = -245.1617863242 Hartree
C      -0.83715177     -0.57307605      0.91627553
N      -1.90953719     -1.00052654     -0.02677308
O      -2.03217991     -2.20559765     -0.11166015
O      -2.55717108     -0.16810596     -0.64794187
H       0.08053718     -1.06591195      0.59584656
H      -1.03381915     -0.93696161      1.89542520
H      -0.74276516      0.52760613      0.82940853
7
Frame 295  Energy = -245.1616907892 Hartree
C      -0.84115508     -0.57085527      0.91522791
N      -1.91161170     -1.00159425     -0.02890408
O      -2.02980016     -2.20290443     -0.11313988
O      -2.55635695     -0.17195739     -0.64604156
H       0.08668759     -1.07178034      0.60417491
H      -1.03169248     -0.94294032      1.90939004
H      -0.73503641      0.52711491      0.84429780
7
Frame 300  Energy = -245.1613831327 Hartree
C      -0.84505018     -0.56837355      0.91412669
N      -1.91364761     -1.00272104     -0.03099617
O      -2.02741537     -2.20015541     -0.11459092
O      -2.55541217     -0.17590728     -0.64409486
H       0.09169480     -1.07663772      0.61212563
H      -1.03071825     -0.94870041      1.92366532
H      -0.72744010      0.52472812      0.85958993
