23
Frame 5  Energy = -425.8944723557 Hartree
C       0.04359099      1.06565421      0.14499180
C      -0.16240522      1.43458052      1.60325282
C       0.92582721      0.82543608      2.48839679
C       0.71228118      1.20146920      3.96129673
C       1.78175656      0.60566598      4.87743105
C       1.59663143      0.96682863      6.33315074
O       0.69315271      1.66301417      6.77343544
O       2.60660690      0.41888232      7.06188455
C       2.58648862      0.70202735      8.46835345
H      -0.73633447      1.51134912     -0.48945254
H       1.01003171      1.40823103     -0.22161286
H      -0.00855294     -0.01112061      0.01806519
H      -1.13610940      1.09508955      1.92923230
H      -0.14199616      2.53864368      1.69805395
H       0.91045699     -0.27356163      2.36652863
H       1.90103415      1.17934222      2.17674350
H       0.75033501      2.29533702      4.04859960
H      -0.27979424      0.89300960      4.27504584
H       1.79040511     -0.48904106      4.76950914
H       2.76523661      0.97681651      4.56573991
H       3.41774311      0.21127752      8.91911043
H       1.65330583      0.33685806      8.89897227
H       2.65225509      1.78026017      8.59612881
23
Frame 10  Energy = -425.8937922810 Hartree
C       0.04716267      1.06733585      0.14694505
C      -0.16470952      1.43330866      1.60248571
C       0.92754479      0.82670699      2.48484029
C       0.70958867      1.20093733      3.96057849
C       1.77839381      0.60626363      4.87878831
C       1.59817184      0.96574426      6.33425988
O       0.69448489      1.65985776      6.77487112
O       2.60417964      0.41982102      7.06081664
C       2.58977209      0.70215594      8.47167690
H      -0.73207297      1.51615334     -0.49476832
H       1.00810398      1.40484236     -0.22357639
H      -0.01798396      0.00055753      0.01605764
H      -1.12445350      1.10121467      1.92777708
H      -0.13391899      2.54933369      1.69386676
H       0.90817142     -0.27985765      2.35555825
H       1.89361946      1.18586365      2.19335591
H       0.74965279      2.29521065      4.04206477
H      -0.27787917      0.89894557      4.26160275
H       1.79325598     -0.49034362      4.76352390
H       2.76221858      0.96934101      4.55772102
H       3.40281144      0.20755811      8.90157550
H       1.65977119      0.34003661      8.91779659
H       2.65267932      1.78131427      8.59792971
23
Frame 15  Energy = -425.8937137311 Hartree
C       0.05061892      1.06907089      0.14878157
C      -0.16682157      1.43218809      1.60163773
C       0.92901934      0.82785212      2.48137932
C       0.70707361      1.20045296      3.95983077
C       1.77492163      0.60680764      4.88005581
C       1.59958557      0.96465472      6.33538167
O       0.69602303      1.65658188      6.77631142
O       2.60164846      0.42086909      7.05973493
C       2.59272862      0.70249661      8.47483959
H      -0.72693642      1.52041613     -0.49959887
H       1.00624458      1.40162787     -0.22580307
H      -0.02751898      0.01103236      0.01397550
H      -1.11450472      1.10736564      1.92685782
H      -0.12587793      2.55835260      1.68977760
H       0.90628619     -0.28467497      2.34521012
H       1.88748142      1.19289144      2.20913833
H       0.74877058      2.29495211      4.03551143
H      -0.27673798      0.90463691      4.24879427
H       1.79636847     -0.49082560      4.75804700
H       2.75891649      0.96154307      4.54974810
H       3.39095407      0.20225655      8.88508273
H       1.66670173      0.34383769      8.93627030
H       2.65322942      1.78181213      8.59997800
23
Frame 20  Energy = -425.8936632743 Hartree
C       0.05378969      1.07094603      0.15043557
C      -0.16850271      1.43138516      1.60069070
C       0.93014403      0.82888642      2.47811854
C       0.70469195      1.20008067      3.95889109
C       1.77135616      0.60729185      4.88124931
C       1.60085592      0.96364082      6.33646369
O       0.69775004      1.65313344      6.77781003
O       2.59897909      0.42201278      7.05871299
C       2.59519637      0.70310205      8.47770993
H      -0.72073618      1.52426286     -0.50350846
H       1.00500462      1.39856978     -0.22804251
H      -0.03696309      0.01929481      0.01180598
H      -1.10730818      1.11261599      1.92688711
H      -0.11816584      2.56475548      1.68580081
H       0.90506087     -0.28770531      2.33556419
H       1.88356652      1.20094568      2.22325655
H       0.74784204      2.29448532      4.02912340
H      -0.27707806      0.91002313      4.23676219
H       1.79971011     -0.49015489      4.75351724
H       2.75481105      0.95316035      4.54203451
H       3.38384887      0.19434668      8.87026500
H       1.67410885      0.34763213      8.95424743
H       2.65387780      1.78176794      8.60248038
23
Frame 25  Energy = -425.8935087210 Hartree
C       0.05665416      1.07296832      0.15189195
C      -0.16966354      1.43098340      1.59965020
C       0.93097034      0.82969599      2.47508982
C       0.70254840      1.19994568      3.95783086
C       1.76768309      0.60772612      4.88226901
C       1.60208490      0.96273144      6.33749445
O       0.69971093      1.64958587      6.77931079
O       2.59629940      0.42316677      7.05779318
C       2.59711754      0.70391232      8.48031303
H      -0.71345058      1.52785257     -0.50649835
H       1.00507265      1.39603122     -0.23020394
H      -0.04656649      0.02546787      0.00895094
H      -1.10385759      1.11696766      1.92817516
H      -0.11074925      2.56804761      1.68222643
H       0.90458488     -0.28838120      2.32599710
H       1.88240228      1.20964911      2.23612420
H       0.74656843      2.29370511      4.02292075
H      -0.27954420      0.91499043      4.22604408
H       1.80271683     -0.48844180      4.74960347
H       2.75035487      0.94477478      4.53486416
H       3.38217583      0.18371460      8.85765576
H       1.68181372      0.35128854      8.97171687
H       2.65494127      1.78140177      8.60568897
23
Frame 30  Energy = -425.8936196001 Hartree
C       0.05923254      1.07517014      0.15327466
C      -0.17025492      1.43103855      1.59845693
C       0.93148172      0.83023089      2.47225833
C       0.70064636      1.19995620      3.95660366
C       1.76403410      0.60815858      4.88309718
C       1.60322924      0.96184863      6.33847453
O       0.70178203      1.64598715      6.78078783
O       2.59358272      0.42432814      7.05692224
C       2.59860215      0.70499244      8.48258612
H      -0.70470604      1.53123949     -0.50861515
H       1.00652787      1.39377661     -0.23238062
H      -0.05580245      0.02900272      0.00601063
H      -1.10422444      1.12036278      1.93073504
H      -0.10388586      2.56830186      1.67891126
H       0.90462803     -0.28690104      2.31670328
H       1.88452092      1.21883297      2.24713413
H       0.74496918      2.29233473      4.01681964
H      -0.28416739      0.91934738      4.21653865
H       1.80550807     -0.48567339      4.74593313
H       2.74576965      0.93668785      4.52841351
H       3.38620370      0.17044509      8.84788494
H       1.69008535      0.35501218      8.98846160
H       2.65691467      1.78065993      8.60961974
23
Frame 35  Energy = -425.8938235468 Hartree
C       0.06152157      1.07750481      0.15453725
C      -0.17028915      1.43153639      1.59713204
C       0.93172796      0.83045729      2.46970740
C       0.69891205      1.20000917      3.95517832
C       1.76041549      0.60849560      4.88377251
C       1.60435271      0.96088219      6.33933448
O       0.70395152      1.64230304      6.78227974
O       2.59090623      0.42546236      7.05617581
C       2.59959017      0.70628482      8.48464101
H      -0.69510407      1.53420600     -0.50967162
H       1.00935121      1.39158610     -0.23443176
H      -0.06447398      0.03037889      0.00275899
H      -1.10895622      1.12224137      1.93457136
H      -0.09776875      2.56524714      1.67577209
H       0.90537447     -0.28339742      2.30768075
H       1.88944549      1.22878120      2.25577098
H       0.74338701      2.29078883      4.01063660
H      -0.29071346      0.92259739      4.20822795
H       1.80806690     -0.48233594      4.74267483
H       2.74108667      0.92896698      4.52254731
H       3.39576926      0.15476586      8.84071024
H       1.69839705      0.35920840      9.00440949
H       2.65936204      1.77959289      8.61403616
23
Frame 40  Energy = -425.8936566670 Hartree
C       0.06350138      1.07991307      0.15561521
C      -0.16980265      1.43236926      1.59565108
C       0.93163062      0.83046913      2.46733972
C       0.69740715      1.20001154      3.95363873
C       1.75686027      0.60880302      4.88433576
C       1.60534507      0.95974879      6.34007375
O       0.70614805      1.63855932      6.78388207
O       2.58823679      0.42651020      7.05556361
C       2.60019811      0.70776133      8.48647622
H      -0.68478793      1.53705425     -0.50994538
H       1.01366854      1.38939750     -0.23640744
H      -0.07274305      0.02932218     -0.00082336
H      -1.11743174      1.12304021      1.93968808
H      -0.09245375      2.55888199      1.67296363
H       0.90701136     -0.27781299      2.29932663
H       1.89668958      1.23933656      2.26221716
H       0.74125341      2.28951332      4.00468549
H      -0.29923754      0.92504627      4.20124417
H       1.81016349     -0.47859937      4.74049622
H       2.73637146      0.92161694      4.51748892
H       3.40946116      0.13738531      8.83553737
H       1.70658235      0.36370460      9.01890929
H       2.66250086      1.77871074      8.61879784
23
Frame 45  Energy = -425.8935756974 Hartree
C       0.06523253      1.08234119      0.15643459
C      -0.16880222      1.43353081      1.59399849
C       0.93125355      0.83036440      2.46519476
C       0.69604369      1.20000544      3.95198077
C       1.75335173      0.60907699      4.88470474
C       1.60618517      0.95862777      6.34070150
O       0.70840092      1.63476821      6.78552602
O       2.58558345      0.42753708      7.05516278
C       2.60053917      0.70932767      8.48816626
H      -0.67411822      1.54007142     -0.50964411
H       1.01960495      1.38741497     -0.23816003
H      -0.08034222      0.02631125     -0.00477617
H      -1.12843825      1.12325336      1.94574215
H      -0.08755202      2.54993088      1.67051221
H       0.90952601     -0.27010206      2.29181682
H       1.90552801      1.25029669      2.26646501
H       0.73887911      2.28796142      3.99911318
H      -0.30978391      0.92678088      4.19563150
H       1.81153906     -0.47457119      4.73941998
H       2.73150418      0.91478795      4.51304563
H       3.42610431      0.11954824      8.83153248
H       1.71453791      0.36795552      9.03216239
H       2.66644739      1.77820103      8.62383412
23
Frame 50  Energy = -425.8930519978 Hartree
C       0.06679738      1.08477185      0.15703012
C      -0.16736278      1.43490541      1.59230352
C       0.93064179      0.83018425      2.46332468
C       0.69464303      1.19999230      3.95018459
C       1.74978799      0.60931065      4.88483238
C       1.60685560      0.95743879      6.34119547
O       0.71059202      1.63098987      6.78721754
O       2.58298119      0.42854464      7.05493002
C       2.60072676      0.71081031      8.48978456
H      -0.66329370      1.54334896     -0.50849092
H       1.02723616      1.38550182     -0.24008694
H      -0.08716191      0.02198418     -0.00875948
H      -1.14095491      1.12293329      1.95219744
H      -0.08362592      2.53918798      1.66846943
H       0.91298698     -0.26064915      2.28506952
H       1.91501783      1.26119313      2.26870984
H       0.73645197      2.28617372      3.99418747
H      -0.32182342      0.92761254      4.19118287
H       1.81234748     -0.47057480      4.73920289
H       2.72712384      0.90911843      4.50904688
H       3.44399151      0.10213294      8.82809108
H       1.72229821      0.37189218      9.04399647
H       2.67147709      1.77810673      8.62944215
23
Frame 55  Energy = -425.8926331250 Hartree
C       0.06816386      1.08716120      0.15746770
C      -0.16555905      1.43652354      1.59062975
C       0.92995242      0.83004010      2.46167222
C       0.69319884      1.19990577      3.94817798
C       1.74620093      0.60963737      4.88468743
C       1.60736686      0.95630283      6.34139589
O       0.71281032      1.62726314      6.78900251
O       2.58050612      0.42950083      7.05483916
C       2.60092900      0.71212574      8.49129038
H      -0.65295366      1.54713502     -0.50703241
H       1.03610539      1.38334650     -0.24159843
H      -0.09335609      0.01716427     -0.01278825
H      -1.15416776      1.12217401      1.95839086
H      -0.08061236      2.52708626      1.66694658
H       0.91718850     -0.24994987      2.27910159
H       1.92463283      1.27124779      2.26889673
H       0.73429334      2.28457735      3.98986621
H      -0.33416148      0.92793055      4.18783098
H       1.81263996     -0.46689808      4.73975333
H       2.72316865      0.90448795      4.50562051
H       3.46211363      0.08621868      8.82490521
H       1.72984805      0.37563300      9.05460605
H       2.67799462      1.77832253      8.63566253
23
Frame 60  Energy = -425.8926164464 Hartree
C       0.06938431      1.08927795      0.15770780
C      -0.16362991      1.43822868      1.58902905
C       0.92920655      0.82991703      2.46025009
C       0.69167399      1.19971886      3.94601657
C       1.74257950      0.60992821      4.88430839
C       1.60774843      0.95517494      6.34137242
O       0.71499650      1.62354512      6.79093222
O       2.57814402      0.43040226      7.05487979
C       2.60126135      0.71324779      8.49272187
H      -0.64327809      1.55169344     -0.50543653
H       1.04519200      1.38084878     -0.24213308
H      -0.09853659      0.01234169     -0.01668567
H      -1.16647636      1.12142293      1.96407302
H      -0.07851641      2.51450247      1.66602386
H       0.92239369     -0.23880348      2.27360542
H       1.93347404      1.28016761      2.26733099
H       0.73229723      2.28341679      3.98577468
H      -0.34617722      0.92793117      4.18545074
H       1.81231547     -0.46374605      4.74102363
H       2.71961807      0.90045512      4.50292082
H       3.47899950      0.07284342      8.82139625
H       1.73702696      0.37894515      9.06383318
H       2.68540177      1.77867240      8.64232997
23
Frame 65  Energy = -425.8926872555 Hartree
C       0.07053621      1.09106855      0.15770584
C      -0.16165580      1.43994964      1.58752271
C       0.92847628      0.82984588      2.45903420
C       0.68998951      1.19936687      3.94380018
C       1.73892792      0.61029403      4.88376570
C       1.60811441      0.95405689      6.34111498
O       0.71713308      1.61984788      6.79293752
O       2.57594948      0.43123036      7.05509651
C       2.60185331      0.71414507      8.49408520
H      -0.63443656      1.55723883     -0.50411086
H       1.05435824      1.37791101     -0.24166157
H      -0.10245407      0.00824778     -0.02014952
H      -1.17677531      1.12149134      1.96881318
H      -0.07716640      2.50276144      1.66592952
H       0.92856934     -0.22805223      2.26850221
H       1.94051735      1.28749715      2.26453769
H       0.73013906      2.28299034      3.98243229
H      -0.35704680      0.92780436      4.18386804
H       1.81094672     -0.46141655      4.74295271
H       2.71644452      0.89745523      4.50097018
H       3.49352377      0.06246947      8.81748103
H       1.74376834      0.38135586      9.07173170
H       2.69356827      1.77956855      8.64922914
23
Frame 70  Energy = -425.8927349162 Hartree
C       0.07166832      1.09249897      0.15738249
C      -0.15962479      1.44162514      1.58618749
C       0.92792910      0.83005447      2.45801680
C       0.68818952      1.19889822      3.94158011
C       1.73518920      0.61067592      4.88309151
C       1.60830443      0.95298606      6.34062441
O       0.71919783      1.61616777      6.79490937
O       2.57393122      0.43189674      7.05550691
C       2.60275744      0.71472237      8.49544960
H      -0.62665773      1.56378434     -0.50294728
H       1.06322404      1.37433158     -0.23987812
H      -0.10506781      0.00560636     -0.02342834
H      -1.18417359      1.12242511      1.97259225
H      -0.07635114      2.49277543      1.66648091
H       0.93545220     -0.21854667      2.26377841
H       1.94487139      1.29273823      2.26029967
H       0.72779845      2.28358017      3.97985219
H      -0.36619707      0.92789874      4.18294261
H       1.80858577     -0.45982995      4.74579391
H       2.71377370      0.89541004      4.49943511
H       3.50527726      0.05587605      8.81320948
H       1.74977230      0.38331927      9.07831035
H       2.70282275      1.78082471      8.65587872
23
Frame 75  Energy = -425.8929093600 Hartree
C       0.07284209      1.09360887      0.15666562
C      -0.15750276      1.44320560      1.58505408
C       0.92742589      0.83062972      2.45717707
C       0.68630272      1.19834405      3.93932565
C       1.73147569      0.61100572      4.88228858
C       1.60835129      0.95194618      6.33993651
O       0.72115506      1.61252379      6.79691774
O       2.57202361      0.43249006      7.05623983
C       2.60415570      0.71494311      8.49678985
H      -0.62039717      1.57119180     -0.50242185
H       1.07139966      1.36992124     -0.23674487
H      -0.10653799      0.00444509     -0.02654534
H      -1.18845792      1.12435889      1.97491874
H      -0.07610704      2.48593818      1.66779895
H       0.94306894     -0.21098158      2.25930162
H       1.94643178      1.29603531      2.25462536
H       0.72502773      2.28478888      3.97776503
H      -0.37314665      0.92843441      4.18273043
H       1.80578632     -0.45918669      4.74951224
H       2.71192165      0.89431679      4.49885215
H       3.51412416      0.05334463      8.80848081
H       1.75488834      0.38484784      9.08389372
H       2.71285064      1.78205491      8.66262201
23
Frame 80  Energy = -425.8929466950 Hartree
C       0.07412311      1.09439807      0.15565916
C      -0.15548960      1.44452723      1.58414369
C       0.92705966      0.83160720      2.45668982
C       0.68428184      1.19775083      3.93690927
C       1.72789011      0.61121636      4.88125380
C       1.60823267      0.95093051      6.33899497
O       0.72299139      1.60896962      6.79910719
O       2.57029106      0.43302866      7.05722863
C       2.60596110      0.71492084      8.49814108
H      -0.61517869      1.57944846     -0.50233935
H       1.07870059      1.36486372     -0.23225441
H      -0.10661295      0.00502278     -0.02915734
H      -1.18946025      1.12699498      1.97544431
H      -0.07635653      2.48297639      1.66980674
H       0.95135621     -0.20616200      2.25503842
H       1.94517274      1.29761510      2.24820382
H       0.72198706      2.28614686      3.97641587
H      -0.37740341      0.92906253      4.18315720
H       1.80204505     -0.46025126      4.75415647
H       2.71077797      0.89410433      4.49909396
H       3.51943815      0.05490876      8.80314732
H       1.75910890      0.38595078      9.08804945
H       2.72362581      1.78306057      8.66963570
23
Frame 85  Energy = -425.8931785637 Hartree
C       0.07545183      1.09483180      0.15434784
C      -0.15366214      1.44565458      1.58328726
C       0.92685970      0.83297567      2.45644731
C       0.68210342      1.19710549      3.93435188
C       1.72446552      0.61126566      4.87996536
C       1.60798000      0.94994163      6.33776567
O       0.72473221      1.60558441      6.80143445
O       2.56869932      0.43344502      7.05837345
C       2.60814035      0.71459854      8.49946418
H      -0.61143466      1.58860415     -0.50284993
H       1.08470452      1.35931976     -0.22626490
H      -0.10522402      0.00759871     -0.03096892
H      -1.18664359      1.13063279      1.97435304
H      -0.07678362      2.48413757      1.67253283
H       0.96016939     -0.20407025      2.25121440
H       1.94099229      1.29756600      2.24094968
H       0.71892041      2.28734490      3.97566820
H      -0.37914358      0.93008579      4.18431161
H       1.79729822     -0.46273064      4.75982617
H       2.70993456      0.89491798      4.49999736
H       3.52097228      0.06072934      8.79731562
H       1.76250463      0.38619020      9.09078792
H       2.73502799      1.78419303      8.67661738
23
Frame 90  Energy = -425.8933017001 Hartree
C       0.07682488      1.09500959      0.15278274
C      -0.15195491      1.44652442      1.58264803
C       0.92677708      0.83471266      2.45639869
C       0.67982603      1.19636935      3.93178492
C       1.72107422      0.61119492      4.87858527
C       1.60769396      0.94894991      6.33627656
O       0.72623785      1.60240049      6.80386135
O       2.56720823      0.43387950      7.05971434
C       2.61068597      0.71400363      8.50077548
H      -0.60900579      1.59875414     -0.50377953
H       1.08958215      1.35314968     -0.21920570
H      -0.10287531      0.01197351     -0.03243906
H      -1.18026315      1.13515360      1.97130658
H      -0.07758768      2.48943006      1.67573636
H       0.96933057     -0.20483547      2.24784146
H       1.93422429      1.29572908      2.23282063
H       0.71579270      2.28869059      3.97531327
H      -0.37837202      0.93136532      4.18609626
H       1.79162382     -0.46649026      4.76613438
H       2.70926665      0.89639804      4.50134158
H       3.51866425      0.07014975      8.79103937
H       1.76517054      0.38555343      9.09219088
H       2.74727157      1.78473002      8.68332648
23
Frame 95  Energy = -425.8933018340 Hartree
C       0.07813434      1.09509072      0.15096057
C      -0.15034052      1.44731640      1.58221454
C       0.92683271      0.83673058      2.45647362
C       0.67732770      1.19565012      3.92906449
C       1.71778382      0.61113156      4.87708708
C       1.60733801      0.94800595      6.33457131
O       0.72746065      1.59934231      6.80642129
O       2.56588491      0.43428926      7.06122959
C       2.61365188      0.71323861      8.50195472
H      -0.60758112      1.60955842     -0.50555738
H       1.09277552      1.34626601     -0.21103066
H      -0.09995985      0.01802130     -0.03329567
H      -1.17076630      1.14069771      1.96673850
H      -0.07878725      2.49831776      1.67946190
H       0.97891393     -0.20820393      2.24486439
H       1.92556415      1.29222707      2.22420861
H       0.71242790      2.28991921      3.97530460
H      -0.37518460      0.93265289      4.18827814
H       1.78518432     -0.47115799      4.77319139
H       2.70871673      0.89885718      4.50341621
H       3.51315085      0.08283173      8.78386204
H       1.76711978      0.38432172      9.09261902
H       2.75991578      1.78444681      8.68961691
23
Frame 100  Energy = -425.8930840016 Hartree
C       0.07936680      1.09503208      0.14888619
C      -0.14885925      1.44793384      1.58201903
C       0.92705186      0.83902658      2.45673676
C       0.67466455      1.19499197      3.92613656
C       1.71463960      0.61094912      4.87543875
C       1.60688292      0.94707689      6.33264418
O       0.72854013      1.59649518      6.80909171
O       2.56477156      0.43465243      7.06300642
C       2.61699026      0.71220967      8.50304057
H      -0.60677399      1.62122603     -0.50816818
H       1.09477734      1.33868025     -0.20182397
H      -0.09645863      0.02534556     -0.03367237
H      -1.15830258      1.14686043      1.96104266
H      -0.08021444      2.51016373      1.68344774
H       0.98836242     -0.21372736      2.24267843
H       1.91503863      1.28766239      2.21498781
H       0.70893129      2.29087236      3.97574150
H      -0.36962448      0.93397247      4.19068444
H       1.77799527     -0.47612967      4.78070968
H       2.70817043      0.90212344      4.50655038
H       3.50509602      0.09808588      8.77626771
H       1.76858904      0.38238031      9.09198466
H       2.77262061      1.78327794      8.69560908
23
Frame 105  Energy = -425.8927854871 Hartree
C       0.08042806      1.09483158      0.14657391
C      -0.14745039      1.44843688      1.58196384
C       0.92745834      0.84155900      2.45718516
C       0.67181284      1.19433092      3.92325078
C       1.71150853      0.61059518      4.87367193
C       1.60633438      0.94620897      6.33064294
O       0.72946739      1.59385847      6.81187606
O       2.56381337      0.43494154      7.06499890
C       2.62052363      0.71110872      8.50402806
H      -0.60638697      1.63340635     -0.51110090
H       1.09596038      1.33090149     -0.19182363
H      -0.09249249      0.03327027     -0.03377837
H      -1.14397571      1.15373477      1.95438804
H      -0.08182638      2.52413157      1.68779634
H       0.99802132     -0.22029477      2.24129278
H       1.90311550      1.28271353      2.20533940
H       0.70559251      2.29127371      3.97663246
H      -0.36268176      0.93535445      4.19336829
H       1.77031751     -0.48105453      4.78826766
H       2.70732986      0.90605103      4.51050629
H       3.49536758      0.11494969      8.76891928
H       1.76969077      0.37989493      9.09053513
H       2.78553997      1.78089983      8.70113271
23
Frame 110  Energy = -425.8926089324 Hartree
C       0.08138061      1.09457362      0.14398637
C      -0.14609905      1.44889595      1.58198113
C       0.92797344      0.84421325      2.45769930
C       0.66883360      1.19361587      3.92034707
C       1.70852208      0.61018344      4.87172306
C       1.60568900      0.94537458      6.32843173
O       0.73010427      1.59137083      6.81483001
O       2.56301664      0.43515706      7.06714996
C       2.62415032      0.70999643      8.50483277
H      -0.60605270      1.64552895     -0.51408421
H       1.09675475      1.32294513     -0.18134426
H      -0.08813922      0.04126424     -0.03359743
H      -1.12908158      1.16061052      1.94693121
H      -0.08385319      2.53892567      1.69257511
H       1.00750771     -0.22776443      2.24089314
H       1.89095838      1.27733980      2.19535239
H       0.70230525      2.29131305      3.97813934
H      -0.35444203      0.93646750      4.19652587
H       1.76214938     -0.48541727      4.79582891
H       2.70634277      0.91041098      4.51476603
H       3.48541921      0.13274975      8.76230237
H       1.77051710      0.37696416      9.08773516
H       2.79809713      1.77708552      8.70608931
23
Frame 115  Energy = -425.8925079845 Hartree
C       0.08228652      1.09445989      0.14123220
C      -0.14463230      1.44948872      1.58200261
C       0.92852049      0.84682807      2.45821001
C       0.66584266      1.19276519      3.91750096
C       1.70574429      0.60963758      4.86976161
C       1.60492422      0.94456395      6.32604885
O       0.73049623      1.58906453      6.81792816
O       2.56239054      0.43530594      7.06934298
C       2.62787727      0.70895303      8.50546042
H      -0.60521041      1.65730557     -0.51642238
H       1.09727696      1.31482204     -0.17087283
H      -0.08384945      0.04820694     -0.03349437
H      -1.11447467      1.16678441      1.93889933
H      -0.08651415      2.55306135      1.69712417
H       1.01699279     -0.23533034      2.24140425
H       1.87918246      1.27159321      2.18496751
H       0.69915380      2.29067370      3.98011709
H      -0.34603164      0.93716079      4.19997443
H       1.75326729     -0.48893497      4.80348050
H       2.70512099      0.91491910      4.51968754
H       3.47686311      0.15016011      8.75691858
H       1.77089475      0.37393109      9.08381876
H       2.81059470      1.77229576      8.71023826
23
Frame 120  Energy = -425.8926209609 Hartree
C       0.08308681      1.09451050      0.13825830
C      -0.14298950      1.45021636      1.58201734
C       0.92907510      0.84935713      2.45872659
C       0.66292487      1.19193016      3.91477709
C       1.70317414      0.60885728      4.86773720
C       1.60405196      0.94375898      6.32363057
O       0.73070085      1.58691024      6.82110192
O       2.56199303      0.43533289      7.07168536
C       2.63153561      0.70809461      8.50582530
H      -0.60358166      1.66835356     -0.51821353
H       1.09807930      1.30692895     -0.16060298
H      -0.07990231      0.05315612     -0.03361462
H      -1.10147606      1.17225685      1.93065818
H      -0.08930781      2.56574479      1.70168608
H       1.02564981     -0.24167953      2.24281683
H       1.86864165      1.26660148      2.17406972
H       0.69609607      2.28893543      3.98203093
H      -0.33802422      0.93682805      4.20382557
H       1.74346941     -0.49164429      4.81103991
H       2.70342109      0.91939513      4.52534037
H       3.47099694      0.16591161      8.75332283
H       1.77097250      0.37069517      9.07906476
H       2.82250202      1.76675040      8.71373078
23
Frame 125  Energy = -425.8925796286 Hartree
C       0.08366789      1.09466479      0.13510501
C      -0.14111859      1.45113063      1.58195034
C       0.92946369      0.85166049      2.45940251
C       0.66017378      1.19117564      3.91225689
C       1.70072702      0.60790447      4.86567376
C       1.60294964      0.94296674      6.32119623
O       0.73063657      1.58495385      6.82432695
O       2.56173118      0.43522800      7.07408914
C       2.63495727      0.70749367      8.50609225
H      -0.60095551      1.67842701     -0.51956097
H       1.09919432      1.29971550     -0.15033331
H      -0.07632420      0.05618565     -0.03400980
H      -1.09135847      1.17642395      1.92269942
H      -0.09220278      2.57600766      1.70580790
H       1.03347123     -0.24647788      2.24537107
H       1.85995413      1.26216378      2.16213431
H       0.69310838      2.28640601      3.98428043
H      -0.33122161      0.93566116      4.20793820
H       1.73310895     -0.49380935      4.81851278
H       2.70127413      0.92400358      4.53136681
H       3.46912379      0.17895419      8.75190614
H       1.77077026      0.36754013      9.07335511
H       2.83355815      1.76075024      8.71650165
23
Frame 130  Energy = -425.8928896338 Hartree
C       0.08401613      1.09490229      0.13186874
C      -0.13901918      1.45239767      1.58181920
C       0.92966085      0.85366905      2.46019919
C       0.65767231      1.19057105      3.90984320
C       1.69851203      0.60672508      4.86356330
C       1.60169760      0.94215443      6.31876261
O       0.73028511      1.58308113      6.82752852
O       2.56166898      0.43497154      7.07650985
C       2.63808838      0.70719438      8.50616398
H      -0.59738567      1.68720638     -0.52006622
H       1.10110246      1.29309606     -0.14026699
H      -0.07332150      0.05717902     -0.03487241
H      -1.08490031      1.17890860      1.91548249
H      -0.09540095      2.58348922      1.70926330
H       1.04058653     -0.24923751      2.24906896
H       1.85382378      1.25855868      2.14936635
H       0.69022748      2.28311745      3.98700750
H      -0.32608200      0.93364869      4.21250765
H       1.72284221     -0.49532160      4.82564202
H       2.69869349      0.92856353      4.53744059
H       3.47189410      0.18850145      8.75275330
H       1.77001197      0.36456656      9.06691787
H       2.84394410      1.75441785      8.71870470
23
Frame 135  Energy = -425.8929713349 Hartree
C       0.08427958      1.09535097      0.12860736
C      -0.13661885      1.45398694      1.58163574
C       0.92962221      0.85534380      2.46100560
C       0.65531660      1.19013485      3.90754182
C       1.69657553      0.60535595      4.86145490
C       1.60034105      0.94134727      6.31647061
O       0.72975580      1.58127907      6.83072774
O       2.56181275      0.43464083      7.07897139
C       2.64076137      0.70717237      8.50594266
H      -0.59216855      1.69434163     -0.52023154
H       1.10429464      1.28692471     -0.13080927
H      -0.07129389      0.05601089     -0.03602716
H      -1.08265177      1.17982597      1.90925507
H      -0.09894138      2.58793644      1.71244826
H       1.04681012     -0.24999464      2.25425270
H       1.85069384      1.25609137      2.13596357
H       0.68739693      2.27957430      3.99018260
H      -0.32308869      0.93036520      4.21778805
H       1.71290488     -0.49579302      4.83219693
H       2.69570034      0.93270946      4.54379911
H       3.48003531      0.19396020      8.75642062
H       1.76902920      0.36179174      9.05972327
H       2.85367332      1.74849213      8.72001294
23
Frame 140  Energy = -425.8932834482 Hartree
C       0.08440750      1.09599433      0.12534231
C      -0.13385556      1.45594587      1.58131458
C       0.92940880      0.85675097      2.46183234
C       0.65323388      1.18991395      3.90539430
C       1.69481145      0.60383076      4.85942409
C       1.59887930      0.94066733      6.31430686
O       0.72900747      1.57955882      6.83395150
O       2.56214825      0.43420219      7.08132821
C       2.64301511      0.70735713      8.50543444
H      -0.58564871      1.70037642     -0.52007069
H       1.10872942      1.28148140     -0.12204004
H      -0.07040649      0.05271372     -0.03756122
H      -1.08461204      1.17859940      1.90455221
H      -0.10223612      2.58911671      1.71536153
H       1.05173002     -0.24862172      2.26059684
H       1.85024284      1.25514714      2.12247027
H       0.68469841      2.27620018      3.99376081
H      -0.32239644      0.92543655      4.22381740
H       1.70311159     -0.49562487      4.83838305
H       2.69244381      0.93629334      4.55011465
H       3.49331799      0.19533573      8.76262006
H       1.76799949      0.35916758      9.05192906
H       2.86249487      1.74310873      8.72044616
23
Frame 145  Energy = -425.8937188334 Hartree
C       0.08438073      1.09680271      0.12220178
C      -0.13084483      1.45834073      1.58088291
C       0.92899685      0.85789994      2.46269983
C       0.65140991      1.18994610      3.90347214
C       1.69316956      0.60221338      4.85740428
C       1.59738375      0.94003847      6.31228930
O       0.72805262      1.57796583      6.83715684
O       2.56265357      0.43366671      7.08354043
C       2.64488045      0.70767869      8.50463307
H      -0.57835945      1.70495475     -0.51963795
H       1.11445427      1.27698294     -0.11388916
H      -0.07025775      0.04772969     -0.03923423
H      -1.09071171      1.17543311      1.90130471
H      -0.10537435      2.58704162      1.71770756
H       1.05581434     -0.24483781      2.26764458
H       1.85241136      1.25576587      2.10910263
H       0.68223339      2.27314552      3.99733806
H      -0.32383325      0.91940530      4.22998977
H       1.69381173     -0.49502806      4.84385023
H       2.68926659      0.93918539      4.55613700
H       3.51094732      0.19342267      8.77083101
H       1.76662992      0.35682078      9.04382253
H       2.87009082      1.73874041      8.72021277
23
Frame 150  Energy = -425.8934337661 Hartree
C       0.08417980      1.09775063      0.11920183
C      -0.12767310      1.46100972      1.58027938
C       0.92840041      0.85879239      2.46356064
C       0.64987914      1.19000511      3.90164396
C       1.69168430      0.60062780      4.85539674
C       1.59573213      0.93948686      6.31055342
O       0.72697154      1.57654282      6.84029822
O       2.56335969      0.43300476      7.08565165
C       2.64651320      0.70815759      8.50350729
H      -0.57022101      1.70829274     -0.51872173
H       1.12118865      1.27323964     -0.10668299
H      -0.07055580      0.04159501     -0.04126231
H      -1.10038252      1.17081131      1.89900324
H      -0.10833980      2.58179726      1.71965392
H       1.05892669     -0.23894779      2.27511212
H       1.85711008      1.25751190      2.09614763
H       0.67946391      2.27026304      4.00110570
H      -0.32721891      0.91224250      4.23619021
H       1.68501808     -0.49439166      4.84842977
H       2.68659698      0.94128263      4.56210453
H       3.53159294      0.18892198      8.78074968
H       1.76529251      0.35453106      9.03548052
H       2.87672182      1.73567220      8.71924554
23
Frame 155  Energy = -425.8933886683 Hartree
C       0.08384285      1.09881261      0.11631542
C      -0.12446515      1.46388362      1.57961741
C       0.92772005      0.85955727      2.46437746
C       0.64860414      1.19013274      3.90000764
C       1.69029658      0.59898222      4.85339640
C       1.59391865      0.93904070      6.30918585
O       0.72571936      1.57519465      6.84334318
O       2.56423180      0.43224110      7.08764855
C       2.64807825      0.70863405      8.50225771
H      -0.56143993      1.71077473     -0.51758368
H       1.12894782      1.27040184     -0.10056274
H      -0.07143496      0.03485316     -0.04355583
H      -1.11214774      1.16514115      1.89733475
H      -0.11121160      2.57393941      1.72115430
H       1.06101540     -0.23090382      2.28351702
H       1.86380853      1.26008406      2.08402496
H       0.67661665      2.26796009      4.00521778
H      -0.33212882      0.90408623      4.24252072
H       1.67652665     -0.49360600      4.85215680
H       2.68414642      0.94269325      4.56772191
H       3.55330938      0.18248591      8.79181564
H       1.76406307      0.35256842      9.02735872
H       2.88228972      1.73395825      8.71785121
23
Frame 160  Energy = -425.8932862670 Hartree
C       0.08351424      1.09992837      0.11344817
C      -0.12136122      1.46693052      1.57883172
C       0.92706271      0.86013359      2.46506911
C       0.64758634      1.19031089      3.89859870
C       1.68910384      0.59732597      4.85143883
C       1.59195837      0.93873723      6.30805971
O       0.72431182      1.57400628      6.84624372
O       2.56517927      0.43134219      7.08961080
C       2.64977261      0.70906381      8.50091492
H      -0.55184530      1.71248810     -0.51657959
H       1.13760750      1.26833803     -0.09550630
H      -0.07273350      0.02811154     -0.04614338
H      -1.12440379      1.15928630      1.89582640
H      -0.11365436      2.56412213      1.72212767
H       1.06176352     -0.22173933      2.29249386
H       1.87160560      1.26303228      2.07342943
H       0.67390353      2.26626155      4.00986135
H      -0.33839010      0.89532818      4.24846251
H       1.66819675     -0.49278888      4.85450436
H       2.68197448      0.94354708      4.57292658
H       3.57449990      0.17526011      8.80346812
H       1.76316918      0.35071740      9.01954639
H       2.88690197      1.73379229      8.71587584
23
Frame 165  Energy = -425.8931879372 Hartree
C       0.08327605      1.10100348      0.11068998
C      -0.11856991      1.47001250      1.57800148
C       0.92650807      0.86049731      2.46559754
C       0.64666046      1.19043005      3.89747280
C       1.68803616      0.59558223      4.84965541
C       1.58990163      0.93846804      6.30725262
O       0.72277084      1.57289541      6.84917436
O       2.56621101      0.43032257      7.09141952
C       2.65165955      0.70926733      8.49954483
H      -0.54221492      1.71356466     -0.51633018
H       1.14663066      1.26675728     -0.09132157
H      -0.07437410      0.02198905     -0.04931903
H      -1.13630127      1.15342548      1.89470526
H      -0.11552582      2.55336038      1.72251636
H       1.06115228     -0.21198608      2.30174089
H       1.87980856      1.26609220      2.06429565
H       0.67101977      2.26533877      4.01437035
H      -0.34525604      0.88611364      4.25360515
H       1.66072616     -0.49233525      4.85550991
H       2.68029371      0.94350972      4.57742126
H       3.59372678      0.16799563      8.81506105
H       1.76264121      0.34911549      9.01199763
H       2.89029836      1.73528519      8.71354738
23
Frame 170  Energy = -425.8933587716 Hartree
C       0.08321021      1.10201746      0.10810263
C      -0.11606998      1.47307519      1.57709773
C       0.92608232      0.86077522      2.46601479
C       0.64583354      1.19046694      3.89659151
C       1.68710593      0.59375454      4.84800244
C       1.58765484      0.93832106      6.30684467
O       0.72109449      1.57196405      6.85203601
O       2.56738151      0.42921146      7.09303274
C       2.65376099      0.70923484      8.49804320
H      -0.53291147      1.71444987     -0.51738530
H       1.15502236      1.26540202     -0.08841748
H      -0.07627543      0.01695255     -0.05258063
H      -1.14650034      1.14757226      1.89343313
H      -0.11687613      2.54283846      1.72228819
H       1.05930341     -0.20251735      2.31115927
H       1.88771466      1.26932942      2.05724532
H       0.66789873      2.26529867      4.01908997
H      -0.35185830      0.87656035      4.25769302
H       1.65378443     -0.49217487      4.85558473
H       2.67903970      0.94251078      4.58096122
H       3.60969931      0.16144726      8.82594805
H       1.76241111      0.34805132      9.00473856
H       2.89241255      1.73831320      8.71113115
23
Frame 175  Energy = -425.8931410693 Hartree
C       0.08343750      1.10298322      0.10572292
C      -0.11396786      1.47589492      1.57616080
C       0.92576742      0.86101924      2.46629596
C       0.64507977      1.19039140      3.89587656
C       1.68620423      0.59190128      4.84646727
C       1.58512389      0.93833658      6.30688214
O       0.71936958      1.57118104      6.85480538
O       2.56875458      0.42799634      7.09447392
C       2.65611704      0.70904924      8.49635582
H      -0.52406207      1.71526353     -0.51979790
H       1.16217580      1.26465107     -0.08674688
H      -0.07880296      0.01339576     -0.05587513
H      -1.15466577      1.14236754      1.89191640
H      -0.11779376      2.53347607      1.72193956
H       1.05629863     -0.19392984      2.32068030
H       1.89472600      1.27225997      2.05225301
H       0.66428752      2.26616752      4.02368630
H      -0.35772083      0.86703427      4.26045811
H       1.64758541     -0.49235701      4.85455932
H       2.67882394      0.94058896      4.58357741
H       3.62151937      0.15574199      8.83566892
H       1.76281480      0.34718498      8.99773632
H       2.89335633      1.74263431      8.70831583
23
Frame 180  Energy = -425.8932022322 Hartree
C       0.08395460      1.10381445      0.10356301
C      -0.11232954      1.47839536      1.57521263
C       0.92561095      0.86133941      2.46643461
C       0.64437044      1.19027918      3.89548656
C       1.68534034      0.59006640      4.84502064
C       1.58251734      0.93835238      6.30742464
O       0.71756704      1.57049060      6.85753145
O       2.57030699      0.42669653      7.09581263
C       2.65892150      0.70867874      8.49461358
H      -0.51587377      1.71618303     -0.52400878
H       1.16831282      1.26413077     -0.08586676
H      -0.08180815      0.01181390     -0.05886259
H      -1.16033151      1.13796437      1.88981168
H      -0.11824846      2.52617934      1.72134450
H       1.05227931     -0.18690821      2.32997364
H       1.89987478      1.27494610      2.04980337
H       0.66020533      2.26753205      4.02831199
H      -0.36207242      0.85808421      4.26142749
H       1.64223626     -0.49296960      4.85247612
H       2.67954217      0.93771377      4.58536971
H       3.62834928      0.15106079      8.84398946
H       1.76358129      0.34666459      8.99104748
H       2.89299819      1.74768284      8.70488760
23
Frame 185  Energy = -425.8933734964 Hartree
C       0.08481546      1.10438856      0.10173845
C      -0.11119133      1.48051458      1.57426930
C       0.92557677      0.86193301      2.46643099
C       0.64362146      1.19009090      3.89547570
C       1.68445950      0.58824200      4.84363971
C       1.57981020      0.93847916      6.30835677
O       0.71563385      1.56995072      6.86016998
O       2.57196810      0.42538470      7.09689795
C       2.66198912      0.70808016      8.49288298
H      -0.50859410      1.71754059     -0.53010395
H       1.17284720      1.26396338     -0.08585372
H      -0.08524921      0.01217834     -0.06161244
H      -1.16294584      1.13462401      1.88716665
H      -0.11842790      2.52163336      1.72042665
H       1.04792293     -0.18191469      2.33884169
H       1.90299954      1.27691053      2.04988295
H       0.65573336      2.26921032      4.03304358
H      -0.36476093      0.84928309      4.26068619
H       1.63758688     -0.49408539      4.84928286
H       2.68059915      0.93379454      4.58641932
H       3.63015641      0.14815622      8.85091432
H       1.76479127      0.34652281      8.98522814
H       2.89116693      1.75312914      8.70086410
23
Frame 190  Energy = -425.8934290344 Hartree
C       0.08603298      1.10470424      0.10019877
C      -0.11054495      1.48221361      1.57327196
C       0.92579732      0.86269392      2.46622456
C       0.64275323      1.18978799      3.89583897
C       1.68357565      0.58647614      4.84228837
C       1.57705201      0.93860573      6.30961075
O       0.71359647      1.56945474      6.86276057
O       2.57386967      0.42403528      7.09768490
C       2.66546151      0.70720821      8.49119689
H      -0.50239304      1.71971289     -0.53797621
H       1.17514632      1.26368580     -0.08704088
H      -0.08892161      0.01496961     -0.06418104
H      -1.16240154      1.13262674      1.88403882
H      -0.11838613      2.52057565      1.71941521
H       1.04305396     -0.17970345      2.34689892
H       1.90408373      1.27786737      2.05236123
H       0.65102149      2.27113874      4.03781811
H      -0.36544506      0.84098036      4.25822252
H       1.63353447     -0.49593502      4.84500640
H       2.68210752      0.92892688      4.58634908
H       3.62704335      0.14702343      8.85652673
H       1.76620716      0.34647014      8.98015532
H       2.88802129      1.75875363      8.69659452
23
Frame 195  Energy = -425.8935459723 Hartree
C       0.08757086      1.10489547      0.09885018
C      -0.11034152      1.48345688      1.57215534
C       0.92625419      0.86365871      2.46587746
C       0.64186753      1.18939699      3.89665347
C       1.68274482      0.58464009      4.84100849
C       1.57418721      0.93881336      6.31128383
O       0.71150805      1.56893727      6.86535868
O       2.57598104      0.42266134      7.09815722
C       2.66931741      0.70630703      8.48965642
H      -0.49694389      1.72248811     -0.54702534
H       1.17564116      1.26340075     -0.08921844
H      -0.09299843      0.02028561     -0.06676535
H      -1.15865080      1.13177964      1.88038970
H      -0.11838387      2.52288433      1.71906613
H       1.03785851     -0.18043195      2.35392525
H       1.90328839      1.27804330      2.05725462
H       0.64583096      2.27326400      4.04288470
H      -0.36410959      0.83358118      4.25364671
H       1.63018027     -0.49839616      4.83950875
H       2.68404503      0.92325160      4.58535066
H       3.61903721      0.14759542      8.86061111
H       1.76785633      0.34681591      8.97600605
H       2.88383831      1.76407582      8.69219235
23
Frame 200  Energy = -425.8940112654 Hartree
C       0.08941026      1.10498109      0.09770837
C      -0.11052415      1.48417752      1.57102343
C       0.92686128      0.86487011      2.46536317
C       0.64093455      1.18893982      3.89786747
C       1.68191544      0.58290593      4.83997805
C       1.57130671      0.93908052      6.31329979
O       0.70926183      1.56849661      6.86783483
O       2.57827407      0.42118947      7.09838228
C       2.67348882      0.70523572      8.48821033
H      -0.49223481      1.72507443     -0.55741988
H       1.17426387      1.26294843     -0.09250424
H      -0.09718431      0.02735130     -0.06900652
H      -1.15206337      1.13195607      1.87591007
H      -0.11798569      2.52855763      1.71938476
H       1.03262839     -0.18460009      2.36002448
H       1.90077328      1.27727856      2.06450525
H       0.64042254      2.27538518      4.04813562
H      -0.36075388      0.82672097      4.24727969
H       1.62767710     -0.50124034      4.83345474
H       2.68669108      0.91693004      4.58328508
H       3.60696062      0.14974855      8.86303298
H       1.77010104      0.34774707      8.97291762
H       2.87879848      1.76868857      8.68722684
23
Frame 205  Energy = -425.8941785538 Hartree
C       0.09161575      1.10507793      0.09678650
C      -0.11108774      1.48438888      1.56988202
C       0.92767472      0.86631499      2.46467930
C       0.63994246      1.18861795      3.89954606
C       1.68110452      0.58120824      4.83911779
C       1.56843497      0.93943132      6.31574291
O       0.70691917      1.56816394      6.87019207
O       2.58065211      0.41972852      7.09830306
C       2.67787904      0.70398504      8.48683216
H      -0.48790370      1.72783776     -0.56897171
H       1.17120874      1.26254145     -0.09673022
H      -0.10163899      0.03552158     -0.07084218
H      -1.14287718      1.13344955      1.87103110
H      -0.11735257      2.53732410      1.71947089
H       1.02747254     -0.19171668      2.36496834
H       1.89651817      1.27566831      2.07432911
H       0.63463915      2.27700240      4.05339549
H      -0.35568395      0.82073842      4.23922515
H       1.62622001     -0.50426140      4.82680368
H       2.68957942      0.90996745      4.58043666
H       3.59131516      0.15304904      8.86409039
H       1.77262815      0.34917714      8.97059894
H       2.87268626      1.77255329      8.68194367
23
Frame 210  Energy = -425.8939938165 Hartree
C       0.09410562      1.10519675      0.09598666
C      -0.11208350      1.48429858      1.56868386
C       0.92850578      0.86795078      2.46386416
C       0.63894102      1.18846006      3.90158291
C       1.68030185      0.57960211      4.83843515
C       1.56563427      0.93985676      6.31866650
O       0.70452671      1.56790315      6.87245911
O       2.58308420      0.41820340      7.09793564
C       2.68251800      0.70271753      8.48554976
H      -0.48400512      1.73060239     -0.58083076
H       1.16662705      1.26234596     -0.10187954
H      -0.10642273      0.04437749     -0.07240496
H      -1.13170827      1.13609091      1.86608467
H      -0.11644657      2.54865373      1.71932179
H       1.02212019     -0.20099629      2.36870522
H       1.89118889      1.27329317      2.08583834
H       0.62842779      2.27801004      4.05822258
H      -0.34949064      0.81585007      4.22973318
H       1.62565332     -0.50763450      4.81962674
H       2.69253818      0.90239373      4.57669954
H       3.57263762      0.15740285      8.86390573
H       1.77543901      0.35109827      8.96910348
H       2.86542890      1.77535667      8.67635778
23
Frame 215  Energy = -425.8938310060 Hartree
C       0.09679004      1.10536285      0.09535507
C      -0.11343908      1.48395974      1.56733086
C       0.92943717      0.86958805      2.46293839
C       0.63802353      1.18836184      3.90396647
C       1.67947993      0.57804772      4.83797476
C       1.56300765      0.94035360      6.32205973
O       0.70200241      1.56772920      6.87473641
O       2.58559271      0.41664326      7.09726775
C       2.68716949      0.70153405      8.48432689
H      -0.48022251      1.73278301     -0.59259693
H       1.16112540      1.26198511     -0.10765657
H      -0.11121865      0.05363428     -0.07398528
H      -1.11890502      1.13939037      1.86099129
H      -0.11524607      2.56126793      1.71868052
H       1.01634272     -0.21148728      2.37193819
H       1.88548394      1.27035267      2.09907834
H       0.62204016      2.27849814      4.06251599
H      -0.34234470      0.81181033      4.21900317
H       1.62553842     -0.51109009      4.81169112
H       2.69533023      0.89434194      4.57229633
H       3.55229543      0.16234649      8.86308055
H       1.77872217      0.35343055      8.96843959
H       2.85707287      1.77702702      8.67044357
23
Frame 220  Energy = -425.8936031634 Hartree
C       0.09969608      1.10577951      0.09477889
C      -0.11504817      1.48344689      1.56586183
C       0.93034826      0.87131926      2.46209845
C       0.63709806      1.18832655      3.90667019
C       1.67876114      0.57655122      4.83773381
C       1.56044125      0.94080616      6.32572888
O       0.69942178      1.56760535      6.87702130
O       2.58818429      0.41502363      7.09629837
C       2.69174731      0.70057755      8.48302735
H      -0.47661199      1.73432973     -0.60391607
H       1.15528202      1.26191893     -0.11437283
H      -0.11570834      0.06307879     -0.07580663
H      -1.10543457      1.14294880      1.85589868
H      -0.11367312      2.57399761      1.71776395
H       1.01003554     -0.22208510      2.37432052
H       1.87976616      1.26771663      2.11349132
H       0.61550626      2.27840438      4.06628745
H      -0.33500243      0.80805133      4.20756974
H       1.62579133     -0.51438131      4.80301921
H       2.69761955      0.88549525      4.56777375
H       3.53152584      0.16680906      8.86196254
H       1.78248209      0.35612085      8.96856787
H       2.84794766      1.77764889      8.66401833
23
Frame 225  Energy = -425.8930649813 Hartree
C       0.10264382      1.10636517      0.09415918
C      -0.11673311      1.48294991      1.56414847
C       0.93125565      0.87299025      2.46116985
C       0.63627375      1.18838842      3.90958778
C       1.67817816      0.57511587      4.83761061
C       1.55795139      0.94118801      6.32965834
O       0.69681366      1.56752665      6.87927661
O       2.59088162      0.41330134      7.09502585
C       2.69605431      0.69988807      8.48166840
H      -0.47264779      1.73531594     -0.61452299
H       1.14970173      1.26206448     -0.12230097
H      -0.12060409      0.07204774     -0.07783749
H      -1.09230654      1.14638619      1.85145602
H      -0.11176300      2.58601013      1.71630157
H       1.00303831     -0.23212730      2.37592408
H       1.87448943      1.26535287      2.12866281
H       0.60867254      2.27738836      4.06955578
H      -0.32793193      0.80415292      4.19562957
H       1.62653040     -0.51784360      4.79382473
H       2.69928813      0.87608009      4.56325680
H       3.51223206      0.16978619      8.86107093
H       1.78623606      0.35940888      8.96920802
H       2.83827376      1.77731178      8.65700708
23
Frame 230  Energy = -425.8930029799 Hartree
C       0.10568742      1.10720100      0.09338345
C      -0.11835084      1.48248299      1.56223972
C       0.93207021      0.87452130      2.46028286
C       0.63554863      1.18849203      3.91264415
C       1.67767579      0.57379486      4.83764635
C       1.55565726      0.94147702      6.33380642
O       0.69418484      1.56752936      6.88144914
O       2.59369784      0.41156729      7.09350009
C       2.70006132      0.69948310      8.48018585
H      -0.46805096      1.73493899     -0.62417431
H       1.14497282      1.26231515     -0.13118931
H      -0.12607064      0.07956534     -0.08076828
H      -1.08069586      1.14897712      1.84808114
H      -0.10954737      2.59663057      1.71407808
H       0.99554359     -0.24074622      2.37686749
H       1.87072773      1.26315571      2.14442983
H       0.60154237      2.27561746      4.07230843
H      -0.32201551      0.80002817      4.18364244
H       1.62769319     -0.52087903      4.78454309
H       2.70014527      0.86624454      4.55864284
H       3.49582637      0.17080732      8.86091107
H       1.79011104      0.36290472      8.97042431
H       2.82822693      1.77616691      8.64997735
23
Frame 235  Energy = -425.8929072524 Hartree
C       0.10870574      1.10834500      0.09255528
C      -0.11989018      1.48214084      1.56019211
C       0.93267396      0.87590135      2.45946966
C       0.63492918      1.18869659      3.91583585
C       1.67731027      0.57251442      4.83778825
C       1.55360601      0.94158644      6.33817402
O       0.69160960      1.56760567      6.88348737
O       2.59657242      0.40978525      7.09167859
C       2.70354690      0.69935129      8.47862781
H      -0.46310801      1.73351293     -0.63213389
H       1.14125688      1.26259169     -0.14109880
H      -0.13204895      0.08534273     -0.08433424
H      -1.07171565      1.15083501      1.84596532
H      -0.10699876      2.60481788      1.71126626
H       0.98779544     -0.24732495      2.37713105
H       1.86915208      1.26141096      2.16065890
H       0.59458002      2.27336454      4.07493943
H      -0.31749967      0.79544477      4.17203108
H       1.62923188     -0.52339774      4.77528634
H       2.70018025      0.85618971      4.55390402
H       3.48384274      0.16939021      8.86197871
H       1.79415114      0.36667821      8.97197602
H       2.81835464      1.77458246      8.64268803
23
Frame 240  Energy = -425.8931163994 Hartree
C       0.11165473      1.10967883      0.09173938
C      -0.12126932      1.48214066      1.55797978
C       0.93306995      0.87691766      2.45880266
C       0.63451507      1.18903452      3.91899567
C       1.67705442      0.57121982      4.83813252
C       1.55168701      0.94146645      6.34266134
O       0.68893741      1.56781628      6.88544044
O       2.59948135      0.40796878      7.08954833
C       2.70653056      0.69953201      8.47683677
H      -0.45750602      1.73107024     -0.63836777
H       1.13896701      1.26286271     -0.15174446
H      -0.13821069      0.08931016     -0.08814621
H      -1.06652943      1.15198986      1.84520435
H      -0.10467946      2.61005783      1.70783742
H       0.97994593     -0.25141871      2.37667327
H       1.87054959      1.26047463      2.17645273
H       0.58772467      2.27060890      4.07740194
H      -0.31520865      0.79017398      4.16088053
H       1.63089104     -0.52546071      4.76609166
H       2.69936784      0.84596023      4.54904275
H       3.47715702      0.16499399      8.86494002
H       1.79803146      0.37074852      8.97391364
H       2.80850757      1.77247739      8.63511727
23
Frame 245  Energy = -425.8934852493 Hartree
C       0.11453101      1.11123872      0.09087737
C      -0.12236216      1.48249299      1.55553991
C       0.93320406      0.87756900      2.45821692
C       0.63438195      1.18952187      3.92213678
C       1.67686199      0.56998755      4.83875539
C       1.54988337      0.94113877      6.34727497
O       0.68623564      1.56810807      6.88729623
O       2.60236035      0.40615769      7.08715534
C       2.70886298      0.70002318      8.47487538
H      -0.45144950      1.72742917     -0.64256108
H       1.13851593      1.26288516     -0.16312903
H      -0.14482482      0.09159532     -0.09190432
H      -1.06533245      1.15232320      1.84567898
H      -0.10268424      2.61205381      1.70350483
H       0.97196411     -0.25255729      2.37579760
H       1.87514736      1.26033796      2.19158264
H       0.58036600      2.26741738      4.07989526
H      -0.31537527      0.78450610      4.15057315
H       1.63247281     -0.52685063      4.75736049
H       2.69811716      0.83582949      4.54397576
H       3.47573116      0.15711837      8.87006329
H       1.80152874      0.37490073      8.97619770
H       2.79872844      1.77049225      8.62746703
23
Frame 250  Energy = -425.8936627696 Hartree
C       0.11736257      1.11303665      0.08991539
C      -0.12313186      1.48319051      1.55289767
C       0.93310946      0.87793871      2.45772969
C       0.63451574      1.19010390      3.92527323
C       1.67661776      0.56870140      4.83960765
C       1.54834922      0.94073374      6.35182144
O       0.68353296      1.56850718      6.88914443
O       2.60520630      0.40436686      7.08458506
C       2.71056591      0.70086278      8.47282120
H      -0.44513745      1.72302702     -0.64502935
H       1.14045581      1.26283459     -0.17500109
H      -0.15172764      0.09224342     -0.09601119
H      -1.06799608      1.15173142      1.84761950
H      -0.10095396      2.61060612      1.69844496
H       0.96381692     -0.25075846      2.37430759
H       1.88275081      1.26114784      2.20571241
H       0.57306271      2.26433821      4.08232324
H      -0.31818796      0.77843962      4.14103211
H       1.63394510     -0.52789390      4.74908555
H       2.69625244      0.82584963      4.53902508
H       3.47974125      0.14670519      8.87714502
H       1.80491067      0.37932059      8.97875897
H       2.78921362      1.76876311      8.62039855
23
Frame 255  Energy = -425.8937203057 Hartree
C       0.12008062      1.11498176      0.08894420
C      -0.12363816      1.48412680      1.55002235
C       0.93280699      0.87807911      2.45738123
C       0.63485271      1.19079453      3.92826505
C       1.67641282      0.56726710      4.84071530
C       1.54700092      0.94011500      6.35630924
O       0.68082039      1.56891726      6.89099547
O       2.60804325      0.40261289      7.08183649
C       2.71179498      0.70191914      8.47068958
H      -0.43869676      1.71833794     -0.64571113
H       1.14440363      1.26265357     -0.18688506
H      -0.15849210      0.09168038     -0.10044588
H      -1.07491891      1.14988880      1.85058478
H      -0.09918783      2.60627032      1.69297428
H       0.95569393     -0.24613672      2.37220508
H       1.89307864      1.26259294      2.21887139
H       0.56591599      2.26141467      4.08493503
H      -0.32309825      0.77170299      4.13239281
H       1.63528018     -0.52817929      4.74171300
H       2.69441054      0.81612562      4.53422158
H       3.48849942      0.13445409      8.88543568
H       1.80795288      0.38391265      8.98144868
H       2.78050391      1.76732573      8.61366992
23
Frame 260  Energy = -425.8934761822 Hartree
C       0.12270872      1.11706215      0.08790751
C      -0.12388304      1.48529904      1.54697315
C       0.93234870      0.87802590      2.45721408
C       0.63536219      1.19161521      3.93116634
C       1.67607623      0.56570709      4.84206819
C       1.54591415      0.93927498      6.36091749
O       0.67801288      1.56939074      6.89282850
O       2.61083334      0.40097230      7.07893033
C       2.71265990      0.70303025      8.46851847
H      -0.43233927      1.71309625     -0.64535350
H       1.15017891      1.26219840     -0.19873913
H      -0.16514525      0.09023545     -0.10509007
H      -1.08497223      1.14702965      1.85428404
H      -0.09730390      2.59948457      1.68733789
H       0.94777847     -0.23885511      2.36907117
H       1.90568421      1.26432197      2.23131408
H       0.55922588      2.25841198      4.08753213
H      -0.33004175      0.76461718      4.12469318
H       1.63628609     -0.52767000      4.73472220
H       2.69237164      0.80695556      4.52955317
H       3.50079798      0.12114901      8.89418646
H       1.81053972      0.38855675      8.98443001
H       2.77280709      1.76669936      8.60752564
23
Frame 265  Energy = -425.8934649879 Hartree
C       0.12520293      1.11917077      0.08681533
C      -0.12397473      1.48667700      1.54390325
C       0.93175411      0.87784111      2.45719946
C       0.63586872      1.19241167      3.93392973
C       1.67568039      0.56406824      4.84367104
C       1.54513993      0.93823085      6.36555027
O       0.67510158      1.56990079      6.89462830
O       2.61356203      0.39935289      7.07590166
C       2.71330931      0.70405106      8.46628288
H      -0.42667817      1.70752944     -0.64397630
H       1.15733705      1.26097941     -0.21059318
H      -0.17148583      0.08815755     -0.10951550
H      -1.09714550      1.14361941      1.85876914
H      -0.09567316      2.59022531      1.68149269
H       0.93988042     -0.22944281      2.36542139
H       1.91951260      1.26613947      2.24253216
H       0.55294290      2.25593128      4.09015755
H      -0.33832949      0.75752275      4.11805882
H       1.63745603     -0.52666702      4.72807301
H       2.69018620      0.79828785      4.52534714
H       3.51511562      0.10797370      8.90253803
H       1.81226060      0.39281851      8.98776940
H       2.76641566      1.76678682      8.60192681
23
Frame 270  Energy = -425.8936655724 Hartree
C       0.12760710      1.12127945      0.08571601
C      -0.12389362      1.48825502      1.54080430
C       0.93112090      0.87761747      2.45729114
C       0.63640208      1.19309620      3.93656504
C       1.67533489      0.56251277      4.84548968
C       1.54462990      0.93702462      6.37007888
O       0.67217390      1.57032831      6.89637687
O       2.61614231      0.39780365      7.07282458
C       2.71382137      0.70494741      8.46408563
H      -0.42150286      1.70235541     -0.64189981
H       1.16545686      1.25950828     -0.22174694
H      -0.17718441      0.08619068     -0.11345324
H      -1.11041220      1.13988542      1.86375688
H      -0.09445466      2.57928222      1.67563476
H       0.93221728     -0.21856923      2.36094967
H       1.93353450      1.26769803      2.25285658
H       0.54670507      2.25433179      4.09304445
H      -0.34704468      0.75050774      4.11252591
H       1.63861653     -0.52551093      4.72247192
H       2.68850366      0.79039227      4.52133463
H       3.52989328      0.09609917      8.90992919
H       1.81337809      0.39661366      8.99127647
H       2.76180590      1.76772061      8.59682910
23
Frame 275  Energy = -425.8933744339 Hartree
C       0.12998443      1.12339073      0.08446651
C      -0.12375229      1.48981550      1.53769561
C       0.93047859      0.87747689      2.45759424
C       0.63689102      1.19367418      3.93915051
C       1.67498480      0.56097798      4.84756943
C       1.54440705      0.93560338      6.37457060
O       0.66930922      1.57067329      6.89811834
O       2.61860657      0.39634596      7.06968846
C       2.71425008      0.70557926      8.46184579
H      -0.41741216      1.69794683     -0.63938629
H       1.17375121      1.25777309     -0.23238922
H      -0.18217780      0.08461105     -0.11648710
H      -1.12337673      1.13685328      1.86849524
H      -0.09314974      2.56775168      1.66970734
H       0.92514535     -0.20709780      2.35591888
H       1.94713180      1.26891799      2.26247959
H       0.54040465      2.25384043      4.09624425
H      -0.35527661      0.74406352      4.10794218
H       1.63924463     -0.52463003      4.71795839
H       2.68690373      0.78339603      4.51770520
H       3.54388597      0.08634342      8.91539428
H       1.81391826      0.40031113      8.99503774
H       2.75875752      1.76959971      8.59202186
23
Frame 280  Energy = -425.8930661679 Hartree
C       0.13233804      1.12532117      0.08304543
C      -0.12354021      1.49125869      1.53454518
C       0.92991258      0.87751529      2.45816760
C       0.63741827      1.19417528      3.94161190
C       1.67465891      0.55954039      4.84999175
C       1.54444298      0.93402782      6.37904390
O       0.66645878      1.57087205      6.89981141
O       2.62091410      0.39496472      7.06640207
C       2.71468085      0.70604790      8.45975247
H      -0.41430345      1.69486597     -0.63702429
H       1.18189586      1.25559614     -0.24232391
H      -0.18609773      0.08383680     -0.11892226
H      -1.13527729      1.13434399      1.87253733
H      -0.09213061      2.55680563      1.66346971
H       0.91875019     -0.19572853      2.35018601
H       1.96008424      1.26944894      2.27137719
H       0.53441287      2.25416000      4.09964242
H      -0.36288058      0.73826681      4.10410519
H       1.63945366     -0.52381381      4.71437625
H       2.68532069      0.77716263      4.51468263
H       3.55614022      0.07929556      8.91878334
H       1.81413587      0.40390497      8.99840183
H       2.75712263      1.77241037      8.58763824
23
Frame 285  Energy = -425.8930606060 Hartree
C       0.13477136      1.12705793      0.08161992
C      -0.12341368      1.49255437      1.53150974
C       0.92941818      0.87776783      2.45902537
C       0.63772926      1.19442062      3.94393015
C       1.67427650      0.55814470      4.85281610
C       1.54474195      0.93222184      6.38343756
O       0.66375765      1.57094694      6.90141528
O       2.62317367      0.39363807      7.06300493
C       2.71508167      0.70628457      8.45791663
H      -0.41255895      1.69345865     -0.63517695
H       1.18925023      1.25328042     -0.25066401
H      -0.18852108      0.08404716     -0.12096603
H      -1.14521164      1.13260902      1.87566026
H      -0.09146009      2.54715279      1.65718261
H       0.91261985     -0.18552266      2.34394507
H       1.97153393      1.26916028      2.27949283
H       0.52881449      2.25530220      4.10302325
H      -0.36898164      0.73330079      4.10120380
H       1.63931544     -0.52301589      4.71218650
H       2.68388697      0.77182158      4.51219121
H       3.56618035      0.07555007      8.92007300
H       1.81389084      0.40702251      9.00123309
H       2.75703993      1.77609856      8.58409498
23
Frame 290  Energy = -425.8927604780 Hartree
C       0.13732014      1.12864890      0.08005666
C      -0.12340153      1.49355438      1.52851240
C       0.92896758      0.87833912      2.46010573
C       0.63780911      1.19446263      3.94606891
C       1.67384858      0.55664863      4.85592433
C       1.54514091      0.93019983      6.38764118
O       0.66123791      1.57086610      6.90299593
O       2.62528183      0.39235903      7.05951315
C       2.71557880      0.70624177      8.45626011
H      -0.41245108      1.69377422     -0.63423486
H       1.19522495      1.25065126     -0.25758665
H      -0.18960186      0.08505373     -0.12259086
H      -1.15260653      1.13188287      1.87749922
H      -0.09107713      2.54004497      1.65125738
H       0.90678696     -0.17696507      2.33697220
H       1.98061252      1.26750688      2.28676444
H       0.52375824      2.25720913      4.10645537
H      -0.37353178      0.72917495      4.09965153
H       1.63883537     -0.52266057      4.71130359
H       2.68276405      0.76789392      4.51021147
H       3.57356669      0.07496749      8.91901691
H       1.81346100      0.41015261      9.00333686
H       2.75855964      1.78040217      8.58086554
23
Frame 295  Energy = -425.8930522651 Hartree
C       0.14000177      1.13007799      0.07840232
C      -0.12347572      1.49423200      1.52552147
C       0.92865722      0.87917707      2.46134933
C       0.63772913      1.19420197      3.94809572
C       1.67335507      0.55520564      4.85911836
C       1.54564721      0.92798673      6.39159823
O       0.65888097      1.57073549      6.90449381
O       2.62723197      0.39107901      7.05600230
C       2.71616070      0.70588882      8.45477597
H      -0.41424547      1.69589684     -0.63396396
H       1.19982301      1.24712964     -0.26288969
H      -0.18921902      0.08728317     -0.12387412
H      -1.15713191      1.13202091      1.87800487
H      -0.09127967      2.53573842      1.64583196
H       0.90188761     -0.17046474      2.32939352
H       1.98673583      1.26439377      2.29320534
H       0.51901724      2.25979751      4.11009239
H      -0.37606789      0.72648960      4.09902910
H       1.63779394     -0.52286635      4.71183033
H       2.68196406      0.76528568      4.50878720
H       3.57782482      0.07776843      8.91506107
H       1.81331395      0.41301197      9.00477378
H       2.76198760      1.78490598      8.57799425
23
Frame 300  Energy = -425.8932789281 Hartree
C       0.14280561      1.13121883      0.07669634
C      -0.12359336      1.49451629      1.52264661
C       0.92844653      0.88038655      2.46275657
C       0.63732777      1.19367377      3.94995189
C       1.67287368      0.55374871      4.86250346
C       1.54624964      0.92567231      6.39528554
O       0.65674697      1.57062135      6.90597820
O       2.62896358      0.38978894      7.05250725
C       2.71685465      0.70525225      8.45350467
H      -0.41748908      1.70001615     -0.63410256
H       1.20262017      1.24296402     -0.26640904
H      -0.18739918      0.09045825     -0.12472848
H      -1.15839111      1.13386580      1.87678584
H      -0.09198626      2.53513339      1.64074989
H       0.89819669     -0.16674972      2.32162336
H       1.98992013      1.26011576      2.29871829
H       0.51488675      2.26290161      4.11411014
H      -0.37620943      0.72534079      4.09931566
H       1.63606581     -0.52369211      4.71357324
H       2.68150483      0.76404121      4.50798418
H       3.57867140      0.08419570      8.90867236
H       1.81341732      0.41560990      9.00560215
H       2.76710276      1.78913045      8.57579652
