23
Frame 5  Energy = -425.8882899984 Hartree
C       0.46477176      1.29449443      0.18418133
C      -0.03477836      1.61596918      1.59827883
C       0.82254722      0.85925800      2.61461140
C       0.55239160      1.07049311      4.11574475
C       1.59953897      0.36092222      4.93436354
C       1.59199484      0.69689180      6.38186610
O       0.67800713      1.18442241      6.99175069
O       2.75900899      0.44451371      6.89348121
C       2.88012021      0.64437071      8.28007859
H      -0.20189913      1.76780204     -0.59686892
H       1.43895331      1.69662212     -0.04084033
H       0.49338992      0.25635161     -0.04549219
H      -1.06152129      1.29814009      1.65687427
H      -0.01887720      2.72892038      1.71663867
H       0.67832217     -0.20299747      2.47841487
H       1.85242467      1.16667383      2.31586179
H       0.53748274      2.15355453      4.27311005
H      -0.44642710      0.70442219      4.35656990
H       1.46798296     -0.71710401      4.80772403
H       2.59104270      0.51312601      4.49922066
H       3.86467020      0.32790225      8.43493015
H       2.23148247      0.03045932      8.92499351
H       2.71570564      1.68104696      8.55943572
23
Frame 10  Energy = -425.8883950454 Hartree
C       0.46349622      1.29661082      0.18309285
C      -0.03610544      1.61614779      1.59801158
C       0.82421441      0.86040147      2.61437939
C       0.55284628      1.07005891      4.11729299
C       1.59941421      0.36089851      4.93555738
C       1.59030436      0.69586704      6.38212289
O       0.67872003      1.18139499      6.99093768
O       2.76325348      0.44459346      6.89545843
C       2.87941195      0.64443224      8.28056538
H      -0.19319182      1.77251304     -0.59885264
H       1.43832117      1.69044230     -0.04017693
H       0.50164160      0.25304614     -0.04739662
H      -1.05005942      1.29546966      1.65694547
H      -0.02619550      2.73229176      1.72606784
H       0.67682377     -0.21693683      2.47587222
H       1.84675197      1.15221761      2.32230575
H       0.54118308      2.15217639      4.27366594
H      -0.44759609      0.71235189      4.34844035
H       1.46896744     -0.71716306      4.80769075
H       2.58942060      0.51050575      4.50216565
H       3.87511119      0.33251598      8.43830302
H       2.23538790      0.03329824      8.91108977
H       2.72153531      1.66963521      8.55562454
23
Frame 15  Energy = -425.8880615480 Hartree
C       0.46196018      1.29907476      0.18184832
C      -0.03727579      1.61647897      1.59764975
C       0.82589714      0.86163030      2.61416537
C       0.55325580      1.07001267      4.11844755
C       1.59926690      0.36076402      4.93666823
C       1.58846883      0.69505378      6.38214746
O       0.67927768      1.17832306      6.99027241
O       2.76767851      0.44463978      6.89753944
C       2.87872466      0.64453061      8.28117371
H      -0.18311963      1.77608641     -0.59896284
H       1.43919010      1.68484606     -0.03891269
H       0.50920546      0.24805864     -0.04910018
H      -1.04100669      1.29258893      1.65753024
H      -0.03339176      2.73296246      1.73555124
H       0.67616457     -0.23060375      2.47227543
H       1.84097489      1.13681014      2.33046629
H       0.54540196      2.15060800      4.27519269
H      -0.44863385      0.72059093      4.34090374
H       1.46968042     -0.71709380      4.80827617
H       2.58780980      0.50863043      4.50562827
H       3.88801851      0.33711130      8.44317868
H       2.23833875      0.03619832      8.89611570
H       2.72720463      1.65918907      8.55170958
23
Frame 20  Energy = -425.8877143201 Hartree
C       0.46018536      1.30187093      0.18041241
C      -0.03831536      1.61697514      1.59725075
C       0.82754850      0.86275743      2.61397022
C       0.55356805      1.07023523      4.11923753
C       1.59906765      0.36053686      4.93765999
C       1.58655146      0.69448551      6.38205462
O       0.67983847      1.17521173      6.98974333
O       2.77227166      0.44465420      6.89960884
C       2.87825993      0.64450354      8.28181675
H      -0.17236475      1.77880176     -0.59750159
H       1.44167249      1.67980423     -0.03679705
H       0.51620228      0.24212192     -0.05042428
H      -1.03482333      1.28926892      1.65873208
H      -0.04061791      2.73086597      1.74550835
H       0.67628103     -0.24311220      2.46757203
H       1.83600105      1.12071645      2.33975663
H       0.54986773      2.14910537      4.27768437
H      -0.44980481      0.72882246      4.33366682
H       1.46999235     -0.71679005      4.80989333
H       2.58628775      0.50760906      4.50998836
H       3.90249322      0.34169853      8.44968872
H       2.24042404      0.03812682      8.88105306
H       2.73277462      1.65080429      8.54812739
23
Frame 25  Energy = -425.8877089494 Hartree
C       0.45829841      1.30483686      0.17881511
C      -0.03913361      1.61756662      1.59677587
C       0.82909200      0.86382233      2.61384131
C       0.55382008      1.07070093      4.11973058
C       1.59871874      0.36021062      4.93850153
C       1.58460201      0.69398521      6.38186312
O       0.68028911      1.17211187      6.98928490
O       2.77684366      0.44464185      6.90171133
C       2.87809924      0.64435260      8.28246101
H      -0.16091703      1.78066553     -0.59508913
H       1.44562215      1.67543565     -0.03388143
H       0.52229504      0.23570378     -0.05133911
H      -1.03207669      1.28527321      1.66103960
H      -0.04758308      2.72623275      1.75559095
H       0.67696197     -0.25324715      2.46182345
H       1.83245957      1.10453790      2.34977584
H       0.55468890      2.14752761      4.28114505
H      -0.45100270      0.73695444      4.32685494
H       1.46937917     -0.71621390      4.81237780
H       2.58517844      0.50750337      4.51497929
H       3.91760403      0.34639551      8.45759440
H       2.24079328      0.03849883      8.86638077
H       2.73761983      1.64551050      8.54528826
23
Frame 30  Energy = -425.8877367740 Hartree
C       0.45639226      1.30775010      0.17716413
C      -0.03964429      1.61820095      1.59623638
C       0.83037464      0.86471770      2.61366543
C       0.55401276      1.07139746      4.11982945
C       1.59824509      0.35977785      4.93915135
C       1.58270150      0.69345417      6.38150762
O       0.68056157      1.16910485      6.98905442
O       2.78143901      0.44455342      6.90375549
C       2.87845034      0.64405430      8.28319515
H      -0.14872439      1.78181637     -0.59227458
H       1.45073756      1.67156177     -0.02988286
H       0.52757232      0.22940822     -0.05167740
H      -1.03281455      1.28024259      1.66425588
H      -0.05443945      2.71934623      1.76553771
H       0.67868232     -0.26049745      2.45551962
H       1.83157573      1.08854674      2.36011702
H       0.55978730      2.14606143      4.28573807
H      -0.45263164      0.74467764      4.32096176
H       1.46823868     -0.71584310      4.81528263
H       2.58451352      0.50825763      4.52007137
H       3.93220381      0.35150220      8.46637279
H       2.23914282      0.03712158      8.85252197
H       2.74199394      1.64374521      8.54330834
23
Frame 35  Energy = -425.8879128457 Hartree
C       0.45457281      1.31061219      0.17543966
C      -0.03976993      1.61897164      1.59567579
C       0.83128870      0.86524982      2.61349785
C       0.55425182      1.07231751      4.11955095
C       1.59774574      0.35922742      4.93952481
C       1.58103149      0.69305704      6.38102361
O       0.68065360      1.16622714      6.98900677
O       2.78612114      0.44443305      6.90562788
C       2.87938671      0.64351273      8.28404745
H      -0.13714832      1.78263152     -0.58939975
H       1.45710200      1.66840221     -0.02503210
H       0.53163097      0.22374475     -0.05146951
H      -1.03722825      1.27434994      1.66814081
H      -0.06095202      2.71057761      1.77523030
H       0.68133661     -0.26406042      2.44891351
H       1.83412428      1.07317197      2.37055473
H       0.56493277      2.14486738      4.29141573
H      -0.45519164      0.75185105      4.31629533
H       1.46674317     -0.71585523      4.81881703
H       2.58444932      0.50978004      4.52530710
H       3.94535907      0.35742582      8.47602064
H       2.23527135      0.03377909      8.83988624
H       2.74570834      1.64584930      8.54255513
23
Frame 40  Energy = -425.8876601652 Hartree
C       0.45282119      1.31338969      0.17364945
C      -0.03959532      1.61982334      1.59506244
C       0.83179237      0.86541366      2.61346526
C       0.55459920      1.07340783      4.11893012
C       1.59726535      0.35855786      4.93964850
C       1.57957114      0.69277428      6.38042500
O       0.68049960      1.16334645      6.98908500
O       2.79079945      0.44421185      6.90743601
C       2.88099475      0.64281986      8.28494747
H      -0.12663297      1.78361776     -0.58691565
H       1.46410804      1.66600481     -0.01977296
H       0.53441728      0.21970200     -0.05044382
H      -1.04406820      1.26768853      1.67243970
H      -0.06730319      2.70049650      1.78513728
H       0.68471179     -0.26379380      2.44193166
H       1.84017333      1.05832823      2.38087936
H       0.57028525      2.14402639      4.29783493
H      -0.45870725      0.75857988      4.31218070
H       1.46454807     -0.71621215      4.82325468
H       2.58539982      0.51222791      4.53062065
H       3.95609346      0.36420286      8.48641096
H       2.22917284      0.02792374      8.82867529
H       2.74855003      1.65184472      8.54317838
23
Frame 45  Energy = -425.8877424376 Hartree
C       0.45113572      1.31604440      0.17191323
C      -0.03927158      1.62070869      1.59438029
C       0.83202249      0.86514445      2.61350562
C       0.55487983      1.07457398      4.11802990
C       1.59678557      0.35782370      4.93959757
C       1.57832528      0.69256246      6.37963153
O       0.68019387      1.16053216      6.98922973
O       2.79536993      0.44386355      6.90905634
C       2.88323324      0.64211031      8.28583078
H      -0.11785241      1.78495589     -0.58562986
H       1.47151602      1.66433179     -0.01347117
H       0.53606138      0.21752421     -0.04813251
H      -1.05269101      1.26083089      1.67687925
H      -0.07328576      2.68961512      1.79498142
H       0.68864215     -0.26021575      2.43480862
H       1.84958239      1.04386535      2.39121753
H       0.57601151      2.14316127      4.30480100
H      -0.46292035      0.76496034      4.30879961
H       1.46165165     -0.71697607      4.82850096
H       2.58737578      0.51549299      4.53581955
H       3.96398396      0.37159329      8.49740383
H       2.22110340      0.02010078      8.81920087
H       2.75049872      1.66075959      8.54426012
23
Frame 50  Energy = -425.8878677696 Hartree
C       0.44965379      1.31844560      0.17028687
C      -0.03881205      1.62151237      1.59371090
C       0.83206765      0.86457369      2.61355239
C       0.55516464      1.07587780      4.11682360
C       1.59633708      0.35706238      4.93940935
C       1.57735654      0.69239703      6.37864175
O       0.67966938      1.15785239      6.98950318
O       2.79982117      0.44347716      6.91053083
C       2.88601793      0.64136250      8.28678749
H      -0.11117037      1.78701576     -0.58594980
H       1.47890829      1.66298516     -0.00609997
H       0.53641812      0.21732985     -0.04490364
H      -1.06264782      1.25407897      1.68189850
H      -0.07871177      2.67883916      1.80482180
H       0.69325311     -0.25328399      2.42778714
H       1.86202926      1.03001690      2.40133419
H       0.58198197      2.14265883      4.31238037
H      -0.46736020      0.77084596      4.30622424
H       1.45843363     -0.71808016      4.83414131
H       2.59004287      0.51945723      4.54099255
H       3.96834088      0.37937405      8.50865041
H       2.21088158      0.01057621      8.81169703
H       2.75148801      1.67144877      8.54631688
23
Frame 55  Energy = -425.8876415216 Hartree
C       0.44850136      1.32056403      0.16867470
C      -0.03829367      1.62202976      1.59311441
C       0.83190373      0.86358913      2.61356064
C       0.55534016      1.07730275      4.11525217
C       1.59579212      0.35622484      4.93911712
C       1.57665431      0.69214893      6.37752774
O       0.67884203      1.15526929      6.99004774
O       2.80413905      0.44308627      6.91188263
C       2.88937386      0.64066001      8.28788233
H      -0.10687274      1.78999926     -0.58828918
H       1.48584588      1.66132061      0.00204435
H       0.53552376      0.21936693     -0.04101418
H      -1.07305928      1.24753720      1.68687337
H      -0.08374967      2.66875976      1.81482275
H       0.69829797     -0.24324515      2.42087349
H       1.87670587      1.01706073      2.41121417
H       0.58824565      2.14251986      4.32015927
H      -0.47171742      0.77613385      4.30483987
H       1.45498781     -0.71960917      4.84001064
H       2.59336552      0.52370618      4.54623363
H       3.96892638      0.38786143      8.52010381
H       2.19958651      0.00008595      8.80570285
H       2.75153868      1.68323148      8.54924410
23
Frame 60  Energy = -425.8874699978 Hartree
C       0.44778784      1.32246731      0.16718068
C      -0.03787544      1.62227926      1.59257850
C       0.83161363      0.86226347      2.61357193
C       0.55548060      1.07874785      4.11342251
C       1.59513170      0.35533823      4.93870848
C       1.57628425      0.69184854      6.37628941
O       0.67782951      1.15270689      6.99083042
O       2.80833806      0.44258786      6.91317423
C       2.89316381      0.64005021      8.28918459
H      -0.10482322      1.79406387     -0.59281876
H       1.49210171      1.65986474      0.01084371
H       0.53356204      0.22351736     -0.03650250
H      -1.08298557      1.24154326      1.69198839
H      -0.08829912      2.66028898      1.82502759
H       0.70374255     -0.23093058      2.41390576
H       1.89266826      1.00449532      2.42048639
H       0.59454113      2.14238746      4.32816369
H      -0.47561568      0.78108038      4.30432278
H       1.45145145     -0.72142455      4.84609706
H       2.59651629      0.52843366      4.55201157
H       3.96602293      0.39681139      8.53162151
H       2.18742174     -0.01063367      8.80054067
H       2.75098250      1.69527453      8.55255383
23
Frame 65  Energy = -425.8871340886 Hartree
C       0.44750049      1.32417575      0.16577843
C      -0.03765164      1.62225543      1.59221823
C       0.83132044      0.86066607      2.61342578
C       0.55549071      1.08031504      4.11132734
C       1.59435378      0.35435886      4.93820192
C       1.57625124      0.69145114      6.37506573
O       0.67662952      1.15015939      6.99169249
O       2.81243245      0.44202889      6.91428118
C       2.89718506      0.63951894      8.29074558
H      -0.10510067      1.79944950     -0.59944343
H       1.49747446      1.65860406      0.02046465
H       0.53050542      0.22952716     -0.03120704
H      -1.09128841      1.23593917      1.69696568
H      -0.09257377      2.65419155      1.83540399
H       0.70872446     -0.21691792      2.40683323
H       1.90923120      0.99278089      2.42931482
H       0.60051814      2.14241192      4.33637523
H      -0.47922137      0.78541470      4.30475240
H       1.44783209     -0.72353733      4.85228422
H       2.59985528      0.53362693      4.55791963
H       3.96003739      0.40590960      8.54309066
H       2.17543045     -0.02094924      8.79593001
H       2.74909631      1.70687709      8.55585756
23
Frame 70  Energy = -425.8866929916 Hartree
C       0.44766492      1.32580232      0.16448476
C      -0.03762114      1.62180973      1.59195598
C       0.83108044      0.85890297      2.61317094
C       0.55533746      1.08192409      4.10904899
C       1.59353175      0.35333655      4.93740847
C       1.57660184      0.69097231      6.37384561
O       0.67526810      1.14764299      6.99257533
O       2.81649515      0.44147652      6.91516145
C       2.90146862      0.63905841      8.29249143
H      -0.10737527      1.80613793     -0.60807335
H       1.50162565      1.65756882      0.03127809
H       0.52599561      0.23734344     -0.02536547
H      -1.09762373      1.23098076      1.70156218
H      -0.09604876      2.65076608      1.84549844
H       0.71346711     -0.20194935      2.39968677
H       1.92532271      0.98208863      2.43760027
H       0.60624632      2.14310286      4.34453567
H      -0.48248402      0.78921192      4.30610971
H       1.44404713     -0.72596498      4.85862989
H       2.60356750      0.53926301      4.56386438
H       3.95147638      0.41461417      8.55424477
H       2.16454377     -0.03023041      8.79151676
H       2.74635462      1.71689929      8.55865659
23
Frame 75  Energy = -425.8862953377 Hartree
C       0.44814882      1.32743817      0.16319340
C      -0.03776479      1.62099020      1.59172109
C       0.83091595      0.85716261      2.61280742
C       0.55512657      1.08353869      4.10664059
C       1.59270321      0.35225772      4.93642742
C       1.57733122      0.69045227      6.37263247
O       0.67376023      1.14524114      6.99350965
O       2.82051466      0.44090489      6.91588576
C       2.90591884      0.63880636      8.29439502
H      -0.11110728      1.81350941     -0.61778212
H       1.50447581      1.65632200      0.04287339
H       0.52014694      0.24656852     -0.01960317
H      -1.10185072      1.22714241      1.70577807
H      -0.09851780      2.64980511      1.85548577
H       0.71795770     -0.18723934      2.39269275
H       1.93976623      0.97269134      2.44520323
H       0.61190732      2.14419550      4.35284627
H      -0.48499763      0.79242224      4.30813056
H       1.44042261     -0.72874664      4.86493630
H       2.60693819      0.54502391      4.56988525
H       3.94126753      0.42303846      8.56574142
H       2.15557163     -0.03786910      8.78720594
H       2.74289369      1.72440976      8.56136861
23
Frame 80  Energy = -425.8863329019 Hartree
C       0.44885480      1.32913135      0.16192687
C      -0.03810796      1.61979933      1.59157544
C       0.83082756      0.85552834      2.61247308
C       0.55482403      1.08518595      4.10411975
C       1.59190369      0.35110573      4.93535556
C       1.57831257      0.68991867      6.37145996
O       0.67208529      1.14288610      6.99455136
O       2.82440717      0.44031549      6.91637641
C       2.91038626      0.63875129      8.29651016
H      -0.11555858      1.82075532     -0.62818385
H       1.50572300      1.65485713      0.05458114
H       0.51332926      0.25642556     -0.01396317
H      -1.10315923      1.22464920      1.70987137
H      -0.10052161      2.65122935      1.86527805
H       0.72212762     -0.17411450      2.38594439
H       1.95217178      0.96494481      2.45291593
H       0.61786626      2.14561678      4.36124754
H      -0.48629729      0.79585132      4.31064379
H       1.43719179     -0.73189219      4.87122652
H       2.60946048      0.55066082      4.57585894
H       3.93016808      0.43068316      8.57775370
H       2.14881890     -0.04327173      8.78268558
H       2.73881131      1.72919079      8.56358960
23
Frame 85  Energy = -425.8862339820 Hartree
C       0.44972160      1.33098051      0.16068709
C      -0.03869207      1.61824097      1.59146313
C       0.83106304      0.85406504      2.61214858
C       0.55449333      1.08680774      4.10143002
C       1.59109468      0.34985851      4.93415122
C       1.57956196      0.68940455      6.37040488
O       0.67028800      1.14058164      6.99574719
O       2.82812212      0.43980397      6.91665250
C       2.91461546      0.63890183      8.29894606
H      -0.11998030      1.82752029     -0.63840799
H       1.50576246      1.65359113      0.06592456
H       0.50529963      0.26616741     -0.00858297
H      -1.10171990      1.22312827      1.71358485
H      -0.10203331      2.65456985      1.87469115
H       0.72533132     -0.16403129      2.37905475
H       1.96136058      0.95866832      2.46060297
H       0.62399759      2.14731154      4.36915900
H      -0.48646353      0.79942640      4.31382483
H       1.43425933     -0.73518042      4.87727865
H       2.61124834      0.55603279      4.58144300
H       3.91944310      0.43731473      8.59051120
H       2.14490384     -0.04619088      8.77788170
H       2.73434730      1.73082213      8.56534354
23
Frame 90  Energy = -425.8861109295 Hartree
C       0.45070910      1.33304408      0.15946420
C      -0.03945610      1.61643587      1.59145396
C       0.83166838      0.85277445      2.61178234
C       0.55414918      1.08849795      4.09858912
C       1.59021860      0.34840178      4.93277632
C       1.58115386      0.68898349      6.36944930
O       0.66839363      1.13825754      6.99706961
O       2.83168418      0.43936251      6.91680612
C       2.91850844      0.63923774      8.30158771
H      -0.12418548      1.83379642     -0.64756774
H       1.50456228      1.65276348      0.07752031
H       0.49613078      0.27505923     -0.00365013
H      -1.09737020      1.22269399      1.71668797
H      -0.10311345      2.65964652      1.88352583
H       0.72744388     -0.15806270      2.37217619
H       1.96698645      0.95348847      2.46783927
H       0.62999461      2.14879046      4.37648496
H      -0.48566249      0.80270907      4.31732645
H       1.43126260     -0.73817486      4.88263118
H       2.61236342      0.56115419      4.58667932
H       3.91024368      0.44291669      8.60393925
H       2.14385683     -0.04602998      8.77273726
H       2.72937813      1.72883635      8.56685964
23
Frame 95  Energy = -425.8863115152 Hartree
C       0.45181597      1.33536530      0.15834395
C      -0.04042322      1.61436997      1.59157698
C       0.83259588      0.85167892      2.61136858
C       0.55378499      1.09029646      4.09576745
C       1.58932317      0.34689140      4.93124009
C       1.58297496      0.68864988      6.36861669
O       0.66650761      1.13595196      6.99844260
O       2.83507051      0.43896280      6.91678887
C       2.92201148      0.63974520      8.30446454
H      -0.12778233      1.83904878     -0.65512218
H       1.50243170      1.65226480      0.08914126
H       0.48610633      0.28250015      0.00117936
H      -1.09035069      1.22364688      1.71938845
H      -0.10373761      2.66545322      1.89140775
H       0.72825095     -0.15685990      2.36542640
H       1.96914514      0.95016504      2.47459429
H       0.63546819      2.15022594      4.38315688
H      -0.48353019      0.80579860      4.32110670
H       1.42861880     -0.74073976      4.88755717
H       2.61272998      0.56562642      4.59155675
H       3.90353650      0.44711853      8.61774114
H       2.14579768     -0.04306233      8.76702240
H       2.72421800      1.72336887      8.56788563
23
Frame 100  Energy = -425.8863876263 Hartree
C       0.45295154      1.33788711      0.15726558
C      -0.04153902      1.61216947      1.59170013
C       0.83377285      0.85086071      2.61094412
C       0.55348721      1.09218830      4.09279877
C       1.58839895      0.34535192      4.92955383
C       1.58492975      0.68838506      6.36788466
O       0.66464497      1.13363727      6.99985646
O       2.83837115      0.43860106      6.91661349
C       2.92503262      0.64055786      8.30759961
H      -0.13032799      1.84313871     -0.66047542
H       1.49996715      1.65206696      0.10087303
H       0.47552351      0.28789469      0.00544056
H      -1.08097617      1.22537454      1.72161871
H      -0.10401028      2.67140944      1.89781101
H       0.72810851     -0.16003476      2.35906114
H       1.96763389      0.94845149      2.48082975
H       0.64087549      2.15137561      4.38856326
H      -0.48040251      0.80858319      4.32502073
H       1.42663624     -0.74300830      4.89216067
H       2.61237805      0.56927885      4.59600957
H       3.89995645      0.44951468      8.63212056
H       2.15059165     -0.03789589      8.76147165
H       2.71885513      1.71460236      8.56832586
23
Frame 105  Energy = -425.8863632286 Hartree
C       0.45412913      1.34073061      0.15619062
C      -0.04271801      1.60992732      1.59187057
C       0.83520011      0.85034080      2.61051312
C       0.55314639      1.09411931      4.08975135
C       1.58745739      0.34370605      4.92775883
C       1.58705940      0.68816275      6.36726762
O       0.66283255      1.13130564      7.00131812
O       2.84148644      0.43835762      6.91624364
C       2.92755203      0.64165920      8.31084797
H      -0.13179868      1.84591060     -0.66360463
H       1.49730328      1.65240801      0.11216795
H       0.46426581      0.29042403      0.00878515
H      -1.07032551      1.22737069      1.72380380
H      -0.10353578      2.67690398      1.90301156
H       0.72694537     -0.16724179      2.35331121
H       1.96266231      0.94819353      2.48650164
H       0.64616892      2.15212897      4.39295237
H      -0.47640645      0.81113315      4.32906725
H       1.42528549     -0.74477632      4.89590971
H       2.61106827      0.57214520      4.60003747
H       3.89963656      0.45005873      8.64697733
H       2.15765148     -0.03073001      8.75648912
H       2.71300475      1.70321679      8.56862975
23
Frame 110  Energy = -425.8863163096 Hartree
C       0.45529457      1.34389849      0.15517657
C      -0.04387202      1.60780170      1.59219941
C       0.83697408      0.85009268      2.61002683
C       0.55275490      1.09606916      4.08685062
C       1.58642791      0.34191366      4.92584320
C       1.58938999      0.68810176      6.36686971
O       0.66107889      1.12899430      7.00286542
O       2.84449609      0.43814293      6.91573674
C       2.92957780      0.64294113      8.31412199
H      -0.13187296      1.84763986     -0.66425904
H       1.49486324      1.65320091      0.12295316
H       0.45272888      0.29074753      0.01092318
H      -1.05891732      1.22960771      1.72558403
H      -0.10224955      2.68125513      1.90682306
H       0.72476700     -0.17776737      2.34791482
H       1.95469960      0.94964076      2.49163564
H       0.65117965      2.15223022      4.39590011
H      -0.47182751      0.81365437      4.33380760
H       1.42453749     -0.74580577      4.89917429
H       2.60890544      0.57419968      4.60375389
H       3.90249255      0.44902836      8.66248987
H       2.16680519     -0.02199742      8.75195589
H       2.70660187      1.69005553      8.56873566
23
Frame 115  Energy = -425.8861721939 Hartree
C       0.45636530      1.34745651      0.15424589
C      -0.04497948      1.60574416      1.59262504
C       0.83887863      0.84999053      2.60942571
C       0.55235363      1.09807948      4.08415910
C       1.58545398      0.34010059      4.92386863
C       1.59188880      0.68804301      6.36676215
O       0.65941556      1.12668797      7.00436605
O       2.84733095      0.43800837      6.91508014
C       2.93118910      0.64419773      8.31736294
H      -0.13061990      1.84811371     -0.66272072
H       1.49294801      1.65417719      0.13286869
H       0.44070559      0.28896472      0.01189970
H      -1.04729843      1.23171354      1.72718550
H      -0.10038433      2.68392192      1.90894431
H       0.72186361     -0.19074465      2.34279883
H       1.94436341      0.95245004      2.49604742
H       0.65603511      2.15172705      4.39733891
H      -0.46713362      0.81603058      4.33892959
H       1.42466586     -0.74607944      4.90182451
H       2.60609082      0.57528324      4.60701781
H       3.90801850      0.44680081      8.67827110
H       2.17743435     -0.01237038      8.74824086
H       2.69966534      1.67594715      8.56900317
23
Frame 120  Energy = -425.8863701898 Hartree
C       0.45734388      1.35122287      0.15341551
C      -0.04585415      1.60384026      1.59319683
C       0.84100316      0.84998378      2.60870715
C       0.55207755      1.10011165      4.08157607
C       1.58450828      0.33825932      4.92191210
C       1.59445012      0.68806608      6.36696047
O       0.65786524      1.12434391      7.00572697
O       2.85005263      0.43790560      6.91431599
C       2.93248087      0.64549245      8.32061583
H      -0.12813118      1.84747940     -0.65920194
H       1.49165703      1.65539453      0.14160275
H       0.42823827      0.28553925      0.01209280
H      -1.03654721      1.23329580      1.72892948
H      -0.09758716      2.68452306      1.90946542
H       0.71840373     -0.20510963      2.33843146
H       1.93220687      0.95672874      2.49938718
H       0.66054053      2.15065526      4.39748938
H      -0.46229043      0.81805521      4.34453397
H       1.42526717     -0.74614496      4.90393152
H       2.60260410      0.57593581      4.60952322
H       3.91568824      0.44300930      8.69363669
H       2.18822687     -0.00281093      8.74557991
H       2.69226377      1.66191542      8.56916354
23
Frame 125  Energy = -425.8860977464 Hartree
C       0.45826012      1.35504305      0.15268946
C      -0.04653981      1.60221669      1.59382730
C       0.84318294      0.84987328      2.60792347
C       0.55195443      1.10215796      4.07910378
C       1.58347262      0.33637535      4.91995621
C       1.59696944      0.68828997      6.36751274
O       0.65644497      1.12194269      7.00703021
O       2.85262684      0.43781055      6.91354259
C       2.93355074      0.64678157      8.32385258
H      -0.12401118      1.84628146     -0.65367885
H       1.49131237      1.65709915      0.14931165
H       0.41581926      0.28123551      0.01147402
H      -1.02748366      1.23402590      1.73055145
H      -0.09427520      2.68333806      1.90855977
H       0.71420961     -0.21967886      2.33536191
H       1.91909443      0.96272315      2.50166187
H       0.66438492      2.14905553      4.39646702
H      -0.45754644      0.81982334      4.35028678
H       1.42636762     -0.74586291      4.90536278
H       2.59899100      0.57565122      4.61071433
H       3.92457030      0.43823019      8.70833059
H       2.19835870      0.00664929      8.74454896
H       2.68427787      1.64927158      8.56922079
23
Frame 130  Energy = -425.8861566901 Hartree
C       0.45895359      1.35888307      0.15211467
C      -0.04701272      1.60092376      1.59457370
C       0.84530076      0.84965282      2.60699820
C       0.55195702      1.10420783      4.07680990
C       1.58241130      0.33452181      4.91799083
C       1.59940916      0.68865382      6.36844674
O       0.65519551      1.11949435      7.00825608
O       2.85512980      0.43770256      6.91273226
C       2.93461377      0.64792326      8.32708618
H      -0.11872686      1.84494799     -0.64660634
H       1.49203326      1.65962133      0.15581351
H       0.40345004      0.27704671      0.01034646
H      -1.02089977      1.23397181      1.73226503
H      -0.09075130      2.68021582      1.90611031
H       0.70971759     -0.23341183      2.33363697
H       1.90581681      0.97025112      2.50302181
H       0.66774093      2.14732736      4.39389772
H      -0.45344857      0.82144539      4.35607559
H       1.42800214     -0.74516997      4.90598315
H       2.59568213      0.57434919      4.61069660
H       3.93356784      0.43281009      8.72187503
H       2.20722401      0.01500549      8.74553735
H       2.67569213      1.63896774      8.56977995
23
Frame 135  Energy = -425.8858872951 Hartree
C       0.45951983      1.36269563      0.15173357
C      -0.04723569      1.59989322      1.59542656
C       0.84730124      0.84922228      2.60596979
C       0.55206819      1.10621997      4.07465942
C       1.58128179      0.33274027      4.91603586
C       1.60180279      0.68919354      6.36979279
O       0.65417416      1.11703112      7.00942095
O       2.85748896      0.43765555      6.91186828
C       2.93575866      0.64887845      8.33014496
H      -0.11244660      1.84360886     -0.63848329
H       1.49370718      1.66232390      0.16118714
H       0.39199472      0.27317010      0.00846582
H      -1.01733198      1.23259879      1.73428974
H      -0.08682636      2.67514983      1.90209017
H       0.70520831     -0.24571390      2.33334908
H       1.89392133      0.97936606      2.50290577
H       0.67080059      2.14543683      4.38986520
H      -0.45007257      0.82282534      4.36189856
H       1.43022316     -0.74457069      4.90594775
H       2.59245439      0.57214037      4.60940712
H       3.94194210      0.42679003      8.73403064
H       2.21420455      0.02162980      8.74884035
H       2.66667522      1.63180729      8.57087763
23
Frame 140  Energy = -425.8856964287 Hartree
C       0.46002655      1.36649837      0.15153934
C      -0.04707051      1.59904635      1.59639419
C       0.84897097      0.84854622      2.60486038
C       0.55231760      1.10825615      4.07268097
C       1.58019673      0.33109761      4.91413080
C       1.60415628      0.68992415      6.37130653
O       0.65338213      1.11452585      7.01051485
O       2.85970302      0.43770274      6.91097678
C       2.93708853      0.64967658      8.33306889
H      -0.10574489      1.84284383     -0.62958339
H       1.49612911      1.66496179      0.16525997
H       0.38107242      0.27008651      0.00588216
H      -1.01724538      1.22991541      1.73650524
H      -0.08275585      2.66857052      1.89659838
H       0.70066174     -0.25614623      2.33440569
H       1.88459488      0.99013778      2.50139652
H       0.67355959      2.14339086      4.38430548
H      -0.44743364      0.82378653      4.36753577
H       1.43270631     -0.74439091      4.90486426
H       2.58941292      0.56917782      4.60687121
H       3.94890328      0.42052299      8.74465589
H       2.21900804      0.02582641      8.75488115
H       2.65711953      1.62817764      8.57267420
23
Frame 145  Energy = -425.8858509823 Hartree
C       0.46048318      1.37015015      0.15166075
C      -0.04647569      1.59839377      1.59741438
C       0.85023857      0.84757338      2.60358372
C       0.55264795      1.11020289      4.07088615
C       1.57912663      0.32950307      4.91232950
C       1.60651463      0.69080138      6.37302656
O       0.65276192      1.11199641      7.01156709
O       2.86172263      0.43782477      6.91004213
C       2.93863083      0.65035703      8.33586283
H      -0.09962305      1.84283462     -0.62055870
H       1.49939199      1.66758235      0.16808851
H       0.37067425      0.26864765      0.00299497
H      -1.02072821      1.22588133      1.73865164
H      -0.07830215      2.66085621      1.88969854
H       0.69605061     -0.26377210      2.33744947
H       1.87856894      1.00226805      2.49803803
H       0.67622482      2.14199773      4.37771461
H      -0.44580774      0.82465719      4.37302291
H       1.43507581     -0.74512108      4.90286133
H       2.58693852      0.56562364      4.60272218
H       3.95381892      0.41416285      8.75315171
H       2.22116759      0.02732504      8.76334057
H       2.64724497      1.62812803      8.57533954
23
Frame 150  Energy = -425.8858876257 Hartree
C       0.46099464      1.37346017      0.15219655
C      -0.04550127      1.59786893      1.59849743
C       0.85103229      0.84629765      2.60216268
C       0.55313957      1.11187708      4.06931592
C       1.57802047      0.32790541      4.91061204
C       1.60869481      0.69171926      6.37495137
O       0.65234285      1.10940436      7.01254390
O       2.86362898      0.43805447      6.90912402
C       2.94051199      0.65094694      8.33855889
H      -0.09420014      1.84438273     -0.61246823
H       1.50353043      1.67026965      0.16962218
H       0.36099443      0.26860503     -0.00029277
H      -1.02725820      1.22086444      1.74050311
H      -0.07375971      2.65257571      1.88178944
H       0.69202602     -0.26792129      2.34195936
H       1.87634431      1.01577945      2.49327520
H       0.67885438      2.14165430      4.37015066
H      -0.44498905      0.82537507      4.37839962
H       1.43729290     -0.74664136      4.89995337
H       2.58497502      0.56177220      4.59685489
H       3.95639192      0.40807075      8.75940849
H       2.22102569      0.02625224      8.77383059
H       2.63752626      1.63181051      8.57867859
23
Frame 155  Energy = -425.8856385429 Hartree
C       0.46171059      1.37643950      0.15311298
C      -0.04423215      1.59746524      1.59954759
C       0.85135682      0.84465199      2.60053439
C       0.55371606      1.11337914      4.06791898
C       1.57684096      0.32637428      4.90910375
C       1.61075490      0.69267850      6.37706145
O       0.65219306      1.10677283      7.01345241
O       2.86546597      0.43834345      6.90814345
C       2.94272358      0.65147422      8.34113400
H      -0.08981422      1.84787353     -0.60599500
H       1.50803881      1.67296207      0.16967880
H       0.35218173      0.27063215     -0.00358877
H      -1.03603039      1.21515385      1.74229793
H      -0.06923998      2.64445391      1.87336459
H       0.68851862     -0.26835255      2.34820325
H       1.87815592      1.03093113      2.48675914
H       0.68153887      2.14235273      4.36175821
H      -0.44471129      0.82598602      4.38359678
H       1.43967986     -0.74866688      4.89640268
H       2.58349318      0.55714773      4.58930990
H       3.95661570      0.40280134      8.76319768
H       2.21877140      0.02308122      8.78618109
H       2.62805977      1.63860239      8.58238627
23
Frame 160  Energy = -425.8856680494 Hartree
C       0.46254034      1.37913721      0.15442937
C      -0.04272942      1.59700855      1.60053865
C       0.85131518      0.84265052      2.59883795
C       0.55437834      1.11468029      4.06670310
C       1.57567100      0.32496145      4.90778067
C       1.61269874      0.69363229      6.37931753
O       0.65229954      1.10410013      7.01419949
O       2.86721823      0.43861649      6.90715940
C       2.94516904      0.65194569      8.34367134
H      -0.08721007      1.85379609     -0.60214126
H       1.51255898      1.67566956      0.16819891
H       0.34449198      0.27483245     -0.00738782
H      -1.04600035      1.20929426      1.74352458
H      -0.06468155      2.63699949      1.86452919
H       0.68597451     -0.26546034      2.35595766
H       1.88324544      1.04722361      2.47871824
H       0.68428533      2.14414118      4.35239550
H      -0.44480384      0.82626508      4.38858462
H       1.44219945     -0.75132279      4.89176382
H       2.58270419      0.55150939      4.58074158
H       3.95423023      0.39814718      8.76482485
H       2.21494862      0.01833486      8.79989354
H       2.61902751      1.64748122      8.58644191
23
Frame 165  Energy = -425.8858452127 Hartree
C       0.46340158      1.38149957      0.15616304
C      -0.04111086      1.59661662      1.60153563
C       0.85098435      0.84038750      2.59708428
C       0.55502659      1.11567532      4.06555756
C       1.57449171      0.32370891      4.90658474
C       1.61450697      0.69452015      6.38178234
O       0.65268412      1.10146042      7.01487540
O       2.86892466      0.43898491      6.90628638
C       2.94771662      0.65229269      8.34624341
H      -0.08656131      1.86223969     -0.60029814
H       1.51695042      1.67794385      0.16574767
H       0.33835173      0.28111217     -0.01138455
H      -1.05638927      1.20358954      1.74445203
H      -0.06032673      2.63085334      1.85584450
H       0.68455823     -0.25952229      2.36518369
H       1.89021110      1.06411704      2.46970612
H       0.68699500      2.14742731      4.34231178
H      -0.44500049      0.82630486      4.39307582
H       1.44448701     -0.75437797      4.88648346
H       2.58248808      0.54520773      4.57167746
H       3.94972414      0.39494493      8.76391392
H       2.21031080      0.01241693      8.81442885
H       2.61034899      1.65767213      8.59065713
23
Frame 170  Energy = -425.8859587373 Hartree
C       0.46439899      1.38347807      0.15828832
C      -0.03935995      1.59619800      1.60266294
C       0.85048017      0.83793689      2.59531442
C       0.55572601      1.11641803      4.06445636
C       1.57337887      0.32260998      4.90545172
C       1.61621239      0.69529601      6.38433653
O       0.65334105      1.09874793      7.01549813
O       2.87047092      0.43946033      6.90544140
C       2.95018121      0.65258838      8.34885703
H      -0.08769591      1.87241979     -0.59996012
H       1.52082458      1.67967438      0.16215731
H       0.33380622      0.28917305     -0.01578722
H      -1.06662462      1.19856283      1.74509307
H      -0.05617058      2.62702258      1.84769356
H       0.68420600     -0.25081849      2.37566036
H       1.89853812      1.08128115      2.45971804
H       0.68973533      2.15214240      4.33222773
H      -0.44552673      0.82628750      4.39674487
H       1.44668735     -0.75772178      4.88062328
H       2.58287350      0.53823749      4.56189617
H       3.94340814      0.39289380      8.76073132
H       2.20558814      0.00562505      8.82933353
H       2.60271068      1.66816533      8.59445431
23
Frame 175  Energy = -425.8859318922 Hartree
C       0.46540102      1.38518421      0.16073137
C      -0.03765207      1.59557640      1.60380175
C       0.84990026      0.83538378      2.59345224
C       0.55646689      1.11687700      4.06354769
C       1.57225347      0.32172157      4.90456612
C       1.61777455      0.69593923      6.38685923
O       0.65424338      1.09596952      7.01609238
O       2.87178871      0.44001950      6.90464468
C       2.95244756      0.65283610      8.35141756
H      -0.09008652      1.88421649     -0.60069459
H       1.52436739      1.68085478      0.15741450
H       0.33077289      0.29895277     -0.02056909
H      -1.07584357      1.19435943      1.74482673
H      -0.05215712      2.62622435      1.84023863
H       0.68476983     -0.24052102      2.38710677
H       1.90727852      1.09812663      2.44888097
H       0.69231896      2.15786513      4.32192011
H      -0.44643210      0.82651514      4.39940723
H       1.44864216     -0.76132167      4.87405984
H       2.58324880      0.53091827      4.55135321
H       3.93577582      0.39202051      8.75583762
H       2.20117219     -0.00135402      8.84413086
H       2.59667194      1.67772338      8.59770959
23
Frame 180  Energy = -425.8860505163 Hartree
C       0.46641832      1.38674414      0.16344784
C      -0.03606183      1.59475784      1.60494626
C       0.84926236      0.83284491      2.59156563
C       0.55721107      1.11712299      4.06276504
C       1.57109957      0.32092618      4.90381271
C       1.61923996      0.69656378      6.38940546
O       0.65540886      1.09313643      7.01667208
O       2.87286604      0.44059706      6.90398624
C       2.95436316      0.65312095      8.35402238
H      -0.09336377      1.89740561     -0.60207408
H       1.52728402      1.68152636      0.15143427
H       0.32950542      0.30998196     -0.02598994
H      -1.08320811      1.19174566      1.74390811
H      -0.04808112      2.62812020      1.83342190
H       0.68678536     -0.22915045      2.39861411
H       1.91534450      1.11457999      2.43723397
H       0.69455323      2.16444535      4.31117178
H      -0.44735543      0.82714786      4.40115841
H       1.45034988     -0.76528529      4.86695615
H       2.58361222      0.52345258      4.54009663
H       3.92771909      0.39223114      8.74955444
H       2.19779180     -0.00791766      8.85782662
H       2.59271605      1.68544168      8.60037810
23
Frame 185  Energy = -425.8863286621 Hartree
C       0.46741653      1.38813069      0.16634299
C      -0.03463035      1.59371387      1.60605658
C       0.84859267      0.83040255      2.58970165
C       0.55797812      1.11722505      4.06211491
C       1.56997145      0.32029333      4.90315738
C       1.62053991      0.69715855      6.39190989
O       0.65684877      1.09025059      7.01723701
O       2.87379590      0.44123979      6.90342726
C       2.95582388      0.65345179      8.35658850
H      -0.09684082      1.91118997     -0.60356029
H       1.52950661      1.68108695      0.14473265
H       0.32979863      0.32198994     -0.03212071
H      -1.08817000      1.19087390      1.74230780
H      -0.04402539      2.63254162      1.82733564
H       0.69024265     -0.21819547      2.41028985
H       1.92147695      1.13002643      2.42534138
H       0.69646472      2.17144049      4.30046737
H      -0.44783856      0.82812990      4.40178535
H       1.45166617     -0.76899522      4.85959368
H       2.58344938      0.51552124      4.52890932
H       3.92030293      0.39303278      8.74205090
H       2.19628149     -0.01369795      8.87005479
H       2.59125301      1.69094914      8.60265086
23
Frame 190  Energy = -425.8865504995 Hartree
C       0.46841528      1.38948048      0.16941488
C      -0.03340685      1.59241238      1.60705987
C       0.84794623      0.82818674      2.58791700
C       0.55867496      1.11715733      4.06157465
C       1.56892647      0.31986269      4.90268222
C       1.62165046      0.69767238      6.39424118
O       0.65854978      1.08732825      7.01779668
O       2.87465218      0.44192823      6.90301260
C       2.95671511      0.65387711      8.35909155
H      -0.10009633      1.92531562     -0.60474983
H       1.53061279      1.67958358      0.13729479
H       0.33121940      0.33419212     -0.03897491
H      -1.09048002      1.19166866      1.74015919
H      -0.03982616      2.63916191      1.82221220
H       0.69478538     -0.20857450      2.42149324
H       1.92523598      1.14402830      2.41331041
H       0.69774233      2.17847935      4.28956132
H      -0.44801861      0.82978264      4.40137065
H       1.45260631     -0.77212207      4.85205052
H       2.58276832      0.50706318      4.51784139
H       3.91435489      0.39408696      8.73372662
H       2.19676225     -0.01804040      8.88057110
H       2.59216518      1.69386873      8.60429784
23
Frame 195  Energy = -425.8865917526 Hartree
C       0.46931533      1.39084678      0.17253867
C      -0.03239762      1.59087947      1.60808371
C       0.84741114      0.82644734      2.58626620
C       0.55943016      1.11698177      4.06123718
C       1.56805568      0.31958098      4.90233597
C       1.62263661      0.69802962      6.39639172
O       0.66043006      1.08435166      7.01832039
O       2.87534421      0.44261843      6.90275940
C       2.95696907      0.65434380      8.36171665
H      -0.10283180      1.93945453     -0.60471168
H       1.53076259      1.67785364      0.12933672
H       0.33395718      0.34571108     -0.04643800
H      -1.09032686      1.19395382      1.73725647
H      -0.03590226      2.64702383      1.81817514
H       0.69972726     -0.20104726      2.43213964
H       1.92607651      1.15619343      2.40143146
H       0.69883609      2.18515618      4.27844170
H      -0.44790373      0.83199772      4.40010407
H       1.45282467     -0.77421963      4.84437874
H       2.58161846      0.49784500      4.50676945
H       3.91053731      0.39532804      8.72509523
H       2.19940721     -0.02094179      8.88901246
H       2.59527729      1.69391663      8.60531121
23
Frame 200  Energy = -425.8867070751 Hartree
C       0.47015257      1.39227701      0.17558515
C      -0.03155311      1.58927312      1.60907123
C       0.84702196      0.82522817      2.58466762
C       0.56025890      1.11669713      4.06098098
C       1.56739538      0.31932343      4.90212187
C       1.62353360      0.69821847      6.39841072
O       0.66239709      1.08133119      7.01890109
O       2.87585568      0.44332924      6.90262121
C       2.95652789      0.65489705      8.36442587
H      -0.10475560      1.95354459     -0.60308543
H       1.53022212      1.67571501      0.12085832
H       0.33752908      0.35610198     -0.05487518
H      -1.08789085      1.19745628      1.73341643
H      -0.03260980      2.65580964      1.81504283
H       0.70537786     -0.19709042      2.44155170
H       1.92388536      1.16616923      2.38997417
H       0.69957146      2.19122607      4.26707810
H      -0.44748302      0.83477051      4.39782872
H       1.45229749     -0.77516170      4.83691705
H       2.57966485      0.48825756      4.49563854
H       3.90957055      0.39633469      8.71635133
H       2.20436338     -0.02211469      8.89556565
H       2.60020046      1.69158067      8.60572918
23
Frame 205  Energy = -425.8870014483 Hartree
C       0.47092763      1.39380449      0.17845857
C      -0.03088115      1.58765867      1.61000402
C       0.84678322      0.82461167      2.58325599
C       0.56114831      1.11638341      4.06080191
C       1.56694861      0.31910327      4.90198312
C       1.62437802      0.69821807      6.40020742
O       0.66449984      1.07829046      7.01943449
O       2.87609366      0.44407540      6.90261694
C       2.95541323      0.65553008      8.36707216
H      -0.10550574      1.96751417     -0.59972243
H       1.52896287      1.67316010      0.11200660
H       0.34195622      0.36498967     -0.06440786
H      -1.08301822      1.20248740      1.72897274
H      -0.02976238      2.66469244      1.81282929
H       0.71174115     -0.19734482      2.44974118
H       1.91891488      1.17412577      2.37938296
H       0.69980345      2.19623904      4.25553859
H      -0.44668119      0.83802265      4.39440104
H       1.45075093     -0.77499576      4.82970912
H       2.57694650      0.47887911      4.48498109
H       3.91186434      0.39687206      8.70775675
H       2.21136301     -0.02154017      8.90010295
H       2.60714101      1.68749831      8.60582073
23
Frame 210  Energy = -425.8870977974 Hartree
C       0.47149967      1.39545485      0.18133470
C      -0.03036706      1.58607325      1.61082925
C       0.84672466      0.82453661      2.58193768
C       0.56202152      1.11606000      4.06070801
C       1.56671196      0.31893079      4.90198204
C       1.62526341      0.69802212      6.40178548
O       0.66683574      1.07529193      7.02000647
O       2.87620902      0.44495107      6.90278921
C       2.95371440      0.65611154      8.36966940
H      -0.10525269      1.98070954     -0.59410739
H       1.52684860      1.66989145      0.10294185
H       0.34691301      0.37181003     -0.07469833
H      -1.07597967      1.20886666      1.72397436
H      -0.02752249      2.67295673      1.81145041
H       0.71876442     -0.20231176      2.45621433
H       1.91081463      1.17998505      2.36987895
H       0.69970237      2.19970764      4.24420720
H      -0.44552324      0.84133686      4.38971822
H       1.44803721     -0.77395127      4.82272287
H       2.57352565      0.46990017      4.47500077
H       3.91719334      0.39746315      8.69915946
H       2.22075326     -0.01929911      8.90209500
H       2.61589806      1.68206588      8.60563557
23
Frame 215  Energy = -425.8869753731 Hartree
C       0.47190658      1.39727971      0.18426720
C      -0.03001367      1.58466621      1.61151812
C       0.84679140      0.82495908      2.58076129
C       0.56292697      1.11579310      4.06064333
C       1.56665248      0.31883692      4.90208021
C       1.62618175      0.69763063      6.40323595
O       0.66931949      1.07234493      7.02069144
O       2.87609511      0.44593843      6.90316723
C       2.95152449      0.65668446      8.37212159
H      -0.10381623      1.99293503     -0.58588598
H       1.52445297      1.66621397      0.09406391
H       0.35223304      0.37605952     -0.08575845
H      -1.06757942      1.21641772      1.71842484
H      -0.02563635      2.67993824      1.81104492
H       0.72643606     -0.21195945      2.46075982
H       1.89982090      1.18382816      2.36093619
H       0.69920658      2.20189351      4.23298889
H      -0.44426735      0.84520268      4.38414534
H       1.44447563     -0.77242154      4.81634105
H       2.56930644      0.46135991      4.46541763
H       3.92559036      0.39810261      8.69068259
H       2.23210696     -0.01597399      8.90226738
H       2.62593340      1.67569390      8.60532939
23
Frame 220  Energy = -425.8867665745 Hartree
C       0.47217452      1.39924631      0.18714108
C      -0.02977262      1.58345259      1.61213837
C       0.84697992      0.82580154      2.57974386
C       0.56388733      1.11550002      4.06056293
C       1.56673694      0.31884937      4.90216179
C       1.62712720      0.69704948      6.40436266
O       0.67174694      1.06936288      7.02138868
O       2.87580557      0.44696892      6.90379974
C       2.94887144      0.65727608      8.37441237
H      -0.10107653      2.00415773     -0.57538617
H       1.52213080      1.66257146      0.08502127
H       0.35815002      0.37788569     -0.09785932
H      -1.05850083      1.22468492      1.71218606
H      -0.02378929      2.68515932      1.81105494
H       0.73467103     -0.22505657      2.46377106
H       1.88618496      1.18549268      2.35255296
H       0.69849308      2.20244135      4.22213182
H      -0.44307621      0.84979661      4.37792427
H       1.44038710     -0.76990060      4.81041150
H       2.56451342      0.45336740      4.45642193
H       3.93651663      0.39869842      8.68216889
H       2.24483415     -0.01170521      8.90054243
H       2.63696365      1.66907025      8.60505920
23
Frame 225  Energy = -425.8867847975 Hartree
C       0.47230669      1.40132837      0.18986530
C      -0.02966356      1.58247939      1.61276298
C       0.84729169      0.82692467      2.57896634
C       0.56483785      1.11510214      4.06052012
C       1.56710284      0.31887498      4.90220647
C       1.62822486      0.69636299      6.40518327
O       0.67415388      1.06634264      7.02221425
O       2.87535625      0.44806405      6.90465036
C       2.94589091      0.65776869      8.37643281
H      -0.09735536      2.01414048     -0.56314000
H       1.52008571      1.65889602      0.07591388
H       0.36386273      0.37783667     -0.11043599
H      -1.04926524      1.23389583      1.70556906
H      -0.02199388      2.68827546      1.81174331
H       0.74340043     -0.24032379      2.46553661
H       1.87123140      1.18517364      2.34469293
H       0.69747754      2.20143734      4.21151246
H      -0.44232323      0.85467210      4.37108766
H       1.43546525     -0.76646928      4.80486109
H       2.55950660      0.44594787      4.44818360
H       3.94916662      0.39961218      8.67331619
H       2.25811663     -0.00729678      8.89736126
H       2.64851485      1.66283447      8.60515133
23
Frame 230  Energy = -425.8862560411 Hartree
C       0.47227072      1.40350208      0.19244857
C      -0.02957528      1.58163003      1.61336881
C       0.84773040      0.82825285      2.57838558
C       0.56588857      1.11472192      4.06043833
C       1.56774270      0.31893871      4.90221419
C       1.62952596      0.69543831      6.40561743
O       0.67656351      1.06338391      7.02314160
O       2.87475241      0.44924081      6.90567618
C       2.94276926      0.65812859      8.37821584
H      -0.09291037      2.02300666     -0.54934707
H       1.51824162      1.65536409      0.06702638
H       0.36969816      0.37645410     -0.12350159
H      -1.04062502      1.24359374      1.69865855
H      -0.02003376      2.68917135      1.81325619
H       0.75282019     -0.25701311      2.46626394
H       1.85550183      1.18361428      2.33739095
H       0.69620851      2.19896103      4.20123844
H      -0.44177259      0.85971399      4.36381299
H       1.42935818     -0.76248115      4.79977838
H       2.55464716      0.43900716      4.44050918
H       3.96252124      0.40111983      8.66408986
H       2.27113627     -0.00364939      8.89350918
H       2.66019535      1.65749533      8.60533304
23
Frame 235  Energy = -425.8862906013 Hartree
C       0.47206196      1.40571928      0.19472310
C      -0.02950546      1.58099692      1.61395459
C       0.84819419      0.82959980      2.57800416
C       0.56705487      1.11445677      4.06031846
C       1.56853250      0.31921514      4.90218726
C       1.63096450      0.69428785      6.40560313
O       0.67898728      1.06041260      7.02415933
O       2.87400677      0.45048117      6.90695240
C       2.93973627      0.65843304      8.37975586
H      -0.08805982      2.03107118     -0.53394140
H       1.51694022      1.65224906      0.05854483
H       0.37527115      0.37386407     -0.13692332
H      -1.03423393      1.25311613      1.69156621
H      -0.01833938      2.68757270      1.81562939
H       0.76327841     -0.27346981      2.46590875
H       1.84018336      1.18071000      2.33030307
H       0.69471287      2.19573032      4.19192176
H      -0.44163649      0.86505658      4.35645942
H       1.42210135     -0.75832016      4.79533665
H       2.54994963      0.43277798      4.43377130
H       3.97547768      0.40352229      8.65439000
H       2.28337298     -0.00111037      8.88996693
H       2.67179880      1.65389285      8.60573627
23
Frame 240  Energy = -425.8861455572 Hartree
C       0.47171839      1.40793430      0.19676978
C      -0.02928789      1.58058166      1.61451772
C       0.84851395      0.83087171      2.57770457
C       0.56830694      1.11414648      4.06012477
C       1.56938003      0.31963004      4.90215158
C       1.63251110      0.69302719      6.40523520
O       0.68144159      1.05741283      7.02524530
O       2.87313111      0.45170954      6.90840249
C       2.93702508      0.65861186      8.38091049
H      -0.08255213      2.03827073     -0.51720088
H       1.51642221      1.64956254      0.05055053
H       0.38055468      0.37106288     -0.15009318
H      -1.03057957      1.26221968      1.68462961
H      -0.01667690      2.68356035      1.81875621
H       0.77450603     -0.28856933      2.46450979
H       1.82607845      1.17658635      2.32378830
H       0.69329376      2.19167374      4.18367723
H      -0.44196078      0.87003871      4.34915846
H       1.41399180     -0.75413684      4.79172364
H       2.54545528      0.42733024      4.42795549
H       3.98696941      0.40671556      8.64410660
H       2.29407806     -0.00023161      8.88698767
H       2.68333429      1.65280407      8.60698490
23
Frame 245  Energy = -425.8859802529 Hartree
C       0.47131906      1.41013227      0.19857456
C      -0.02892411      1.58037823      1.61504742
C       0.84866339      0.83189871      2.57758176
C       0.56958887      1.11387378      4.05999738
C       1.57025030      0.32008998      4.90215881
C       1.63427444      0.69145354      6.40444648
O       0.68381542      1.05437985      7.02643881
O       2.87210086      0.45294409      6.91003920
C       2.93469592      0.65864214      8.38162685
H      -0.07689268      2.04492059     -0.49972425
H       1.51662903      1.64743409      0.04348076
H       0.38583028      0.36849067     -0.16279321
H      -1.02980494      1.27071859      1.67804793
H      -0.01517213      2.67726124      1.82264227
H       0.78566294     -0.30098993      2.46195886
H       1.81397740      1.17200425      2.31765440
H       0.69193820      2.18709709      4.17625024
H      -0.44297062      0.87504207      4.34190972
H       1.40525041     -0.74980126      4.78858163
H       2.54155295      0.42244795      4.42329797
H       3.99623627      0.41077704      8.63309420
H       2.30269401     -0.00129279      8.88487498
H       2.69482972      1.65462535      8.60899159
23
Frame 250  Energy = -425.8859748234 Hartree
C       0.47082916      1.41221814      0.20011829
C      -0.02841709      1.58039377      1.61542752
C       0.84861995      0.83256820      2.57760406
C       0.57088477      1.11354345      4.05977721
C       1.57115737      0.32069073      4.90217156
C       1.63619862      0.68969545      6.40330514
O       0.68613826      1.05135266      7.02774052
O       2.87096493      0.45424777      6.91180856
C       2.93285494      0.65858131      8.38196356
H      -0.07163944      2.05138046     -0.48227088
H       1.51764860      1.64539165      0.03723200
H       0.39067049      0.36705327     -0.17513136
H      -1.03241304      1.27791922      1.67149281
H      -0.01372493      2.66925763      1.82710363
H       0.79707974     -0.31011233      2.45832842
H       1.80493223      1.16726898      2.31181656
H       0.69094132      2.18280051      4.16982366
H      -0.44516858      0.87982729      4.33456400
H       1.39557274     -0.74567987      4.78576102
H       2.53815384      0.41810421      4.41936251
H       4.00338316      0.41602062      8.62172204
H       2.30873632     -0.00479073      8.88451011
H       2.70560986      1.65978213      8.61166469
23
Frame 255  Energy = -425.8861305096 Hartree
C       0.47027552      1.41412204      0.20149337
C      -0.02775454      1.58058207      1.61570036
C       0.84835174      0.83291293      2.57778222
C       0.57217802      1.11317522      4.05943600
C       1.57214627      0.32145573      4.90216381
C       1.63819946      0.68773891      6.40183764
O       0.68843429      1.04833724      7.02913209
O       2.86975094      0.45558760      6.91379529
C       2.93157060      0.65839094      8.38190675
H      -0.06664782      2.05801367     -0.46547979
H       1.51952680      1.64366757      0.03187250
H       0.39451842      0.36718422     -0.18653787
H      -1.03843042      1.28347798      1.66496732
H      -0.01201531      2.65980064      1.83229907
H       0.80868829     -0.31520318      2.45398485
H       1.80008503      1.16260227      2.30637111
H       0.69036875      2.17959462      4.16473231
H      -0.44841939      0.88418765      4.32761353
H       1.38519439     -0.74221913      4.78402428
H       2.53526694      0.41420228      4.41610249
H       4.00792904      0.42246261      8.61009196
H       2.31223507     -0.01098598      8.88586441
H       2.71589850      1.66776653      8.61496987
23
Frame 260  Energy = -425.8861355085 Hartree
C       0.46979572      1.41583765      0.20261908
C      -0.02692980      1.58085622      1.61575392
C       0.84781662      0.83276898      2.57819927
C       0.57342999      1.11282368      4.05899293
C       1.57321785      0.32231434      4.90208807
C       1.64024826      0.68562395      6.40007508
O       0.69068158      1.04538946      7.03056815
O       2.86852542      0.45694152      6.91594871
C       2.93086825      0.65811353      8.38144222
H      -0.06300171      2.06535871     -0.44995220
H       1.52194007      1.64239576      0.02791246
H       0.39778863      0.36930522     -0.19721895
H      -1.04770342      1.28802820      1.65857459
H      -0.01022530      2.64950028      1.83815300
H       0.82020068     -0.31607150      2.44912335
H       1.79984508      1.15831758      2.30115326
H       0.69016022      2.17756020      4.16115439
H      -0.45254674      0.88830572      4.32104532
H       1.37386000     -0.73931329      4.78324040
H       2.53312019      0.41068017      4.41394264
H       4.00953703      0.42982463      8.59813739
H       2.31325163     -0.01981098      8.88872361
H       2.72539839      1.67759457      8.61894201
23
Frame 265  Energy = -425.8864879310 Hartree
C       0.46946298      1.41729529      0.20352120
C      -0.02607255      1.58123352      1.61575192
C       0.84702806      0.83218465      2.57873903
C       0.57475321      1.11244012      4.05835539
C       1.57430969      0.32322711      4.90204015
C       1.64239363      0.68339067      6.39808291
O       0.69285534      1.04251095      7.03203712
O       2.86720188      0.45833712      6.91822328
C       2.93077729      0.65774692      8.38060188
H      -0.06092441      2.07378244     -0.43643079
H       1.52475627      1.64170991      0.02549739
H       0.40053725      0.37342049     -0.20692043
H      -1.05949455      1.29165714      1.65276407
H      -0.00849445      2.63918501      1.84458314
H       0.83169059     -0.31261992      2.44356436
H       1.80435742      1.15472873      2.29609621
H       0.69026444      2.17693198      4.15895501
H      -0.45717275      0.89238037      4.31431452
H       1.36231240     -0.73674149      4.78357814
H       2.53219923      0.40815891      4.41266189
H       4.00844357      0.43784171      8.58583511
H       2.31191703     -0.03049748      8.89279642
H       2.73422690      1.68862302      8.62364248
23
Frame 270  Energy = -425.8864218090 Hartree
C       0.46929251      1.41846997      0.20421545
C      -0.02522918      1.58168896      1.61576212
C       0.84610239      0.83117779      2.57942290
C       0.57608244      1.11200230      4.05762976
C       1.57539141      0.32414972      4.90210925
C       1.64454151      0.68097199      6.39589619
O       0.69506791      1.03976726      7.03357200
O       2.86580872      0.45967112      6.92062148
C       2.93119296      0.65742603      8.37943111
H      -0.06064182      2.08363678     -0.42506461
H       1.52768626      1.64199510      0.02459615
H       0.40255467      0.37950457     -0.21553316
H      -1.07266909      1.29475930      1.64725889
H      -0.00655254      2.62947132      1.85151492
H       0.84263193     -0.30518999      2.43748589
H       1.81308208      1.15152082      2.29147398
H       0.69086485      2.17751472      4.15783914
H      -0.46183130      0.89644234      4.30775103
H       1.35019603     -0.73436074      4.78484558
H       2.53313515      0.40620792      4.41209687
H       4.00482401      0.44617826      8.57419251
H       2.30859012     -0.04225567      8.89809020
H       2.74204333      1.70014768      8.62896193
23
Frame 275  Energy = -425.8867122116 Hartree
C       0.46923975      1.41935106      0.20487351
C      -0.02451111      1.58206415      1.61573471
C       0.84500776      0.82983203      2.58021622
C       0.57738749      1.11154953      4.05680723
C       1.57644408      0.32512052      4.90219760
C       1.64657471      0.67835980      6.39344914
O       0.69726328      1.03706896      7.03517471
O       2.86434562      0.46108872      6.92319421
C       2.93200643      0.65715531      8.37804993
H      -0.06207775      2.09460742     -0.41611204
H       1.53062855      1.64288606      0.02517960
H       0.40358223      0.38740780     -0.22280497
H      -1.08633113      1.29744795      1.64208290
H      -0.00418948      2.62134712      1.85923150
H       0.85273212     -0.29475376      2.43095484
H       1.82496508      1.14842759      2.28758064
H       0.69159139      2.17911323      4.15800537
H      -0.46619499      0.90013545      4.30117694
H       1.33776729     -0.73211890      4.78697241
H       2.53533330      0.40493919      4.41247448
H       3.99909643      0.45476012      8.56337184
H       2.30445671     -0.05427215      8.90403684
H       2.74927003      1.71106467      8.63432350
23
Frame 280  Energy = -425.8864655775 Hartree
C       0.46940886      1.41997292      0.20541077
C      -0.02394635      1.58222879      1.61567758
C       0.84374940      0.82821194      2.58107411
C       0.57865052      1.11121077      4.05595633
C       1.57739108      0.32621208      4.90228152
C       1.64860073      0.67567921      6.39083030
O       0.69938349      1.03438197      7.03687709
O       2.86278589      0.46256713      6.92588175
C       2.93311670      0.65703020      8.37643894
H      -0.06521625      2.10658062     -0.40968082
H       1.53339751      1.64427727      0.02741432
H       0.40309393      0.39709660     -0.22866220
H      -1.09935218      1.29994475      1.63729744
H      -0.00155489      2.61520833      1.86790011
H       0.86186349     -0.28156276      2.42391868
H       1.83902509      1.14564243      2.28461102
H       0.69251641      2.18170558      4.15939210
H      -0.47002501      0.90312635      4.29461655
H       1.32500645     -0.72997579      4.78999011
H       2.53860243      0.40409071      4.41331240
H       3.99196396      0.46315865      8.55294156
H       2.30013477     -0.06564707      8.90990409
H       2.75593630      1.72050153      8.63965800
23
Frame 285  Energy = -425.8861764043 Hartree
C       0.46983319      1.42040010      0.20576726
C      -0.02361910      1.58220090      1.61550822
C       0.84256777      0.82626452      2.58192172
C       0.57992881      1.11081696      4.05499762
C       1.57817659      0.32734403      4.90236913
C       1.65055565      0.67291486      6.38809589
O       0.70149532      1.03165821      7.03857318
O       2.86115418      0.46406846      6.92865174
C       2.93452974      0.65703563      8.37477923
H      -0.06936780      2.11917857     -0.40532583
H       1.53589973      1.64635166      0.03116748
H       0.40162730      0.40804999     -0.23326773
H      -1.11055926      1.30225498      1.63292161
H       0.00100524      2.61129325      1.87744774
H       0.87023163     -0.26631831      2.41668707
H       1.85432274      1.14261785      2.28284718
H       0.69360396      2.18534390      4.16189697
H      -0.47336089      0.90614690      4.28816594
H       1.31207278     -0.72786566      4.79389657
H       2.54284114      0.40381091      4.41471906
H       3.98455285      0.47128717      8.54325541
H       2.29619459     -0.07575095      8.91498346
H       2.76183266      1.72794688      8.64469703
23
Frame 290  Energy = -425.8861211146 Hartree
C       0.47049230      1.42077647      0.20591229
C      -0.02356917      1.58191782      1.61518866
C       0.84159425      0.82417956      2.58277659
C       0.58128094      1.11048477      4.05400713
C       1.57894088      0.32854085      4.90246381
C       1.65233306      0.67011297      6.38531494
O       0.70355181      1.02887609      7.04024013
O       2.85950539      0.46559788      6.93145733
C       2.93610461      0.65717032      8.37302228
H      -0.07430987      2.13221285     -0.40247956
H       1.53817092      1.64914885      0.03631060
H       0.39918401      0.41964449     -0.23672022
H      -1.11927720      1.30477462      1.62920529
H       0.00405507      2.60981252      1.88763343
H       0.87769980     -0.25012796      2.40902471
H       1.86984768      1.13889276      2.28242420
H       0.69487172      2.18961097      4.16536220
H      -0.47562692      0.90882798      4.28186952
H       1.29908024     -0.72578177      4.79911228
H       2.54823905      0.40372913      4.41701155
H       3.97723080      0.47874136      8.53492424
H       2.29318691     -0.08377765      8.91890782
H       2.76663466      1.73316843      8.64931007
23
Frame 295  Energy = -425.8860053429 Hartree
C       0.47133587      1.42127821      0.20580865
C      -0.02382682      1.58135516      1.61478682
C       0.84088084      0.82207324      2.58362307
C       0.58258723      1.11030457      4.05293054
C       1.57962152      0.32970237      4.90259672
C       1.65394586      0.66733193      6.38257131
O       0.70562070      1.02602430      7.04185078
O       2.85777545      0.46714737      6.93422171
C       2.93766652      0.65737451      8.37117880
H      -0.07963948      2.14499248     -0.40067026
H       1.53928959      1.65258525      0.04286621
H       0.39557939      0.43141894     -0.23896778
H      -1.12515788      1.30733320      1.62605867
H       0.00720282      2.61061943      1.89815503
H       0.88408984     -0.23428446      2.40080769
H       1.88405748      1.13474223      2.28322045
H       0.69662214      2.19358409      4.16957592
H      -0.47637427      0.91107301      4.27625079
H       1.28666127     -0.72364165      4.80550688
H       2.55435138      0.40393690      4.42009801
H       3.97081608      0.48530602      8.52768270
H       2.29148965     -0.08911544      8.92158099
H       2.77067962      1.73545927      8.65366160
23
Frame 300  Energy = -425.8858828295 Hartree
C       0.47230991      1.42194944      0.20546243
C      -0.02438311      1.58069523      1.61437651
C       0.84054108      0.82002254      2.58433829
C       0.58380689      1.11027585      4.05169970
C       1.58029676      0.33089268      4.90267910
C       1.65543094      0.66454830      6.37991903
O       0.70774847      1.02320514      7.04349890
O       2.85597942      0.46874215      6.93707339
C       2.93913965      0.65774662      8.36932708
H      -0.08510013      2.15701276     -0.39956531
H       1.53956540      1.65616065      0.05070148
H       0.39076737      0.44251321     -0.24055588
H      -1.12792244      1.31011312      1.62343806
H       0.01043647      2.61343746      1.90899231
H       0.88934424     -0.21962647      2.39245462
H       1.89666458      1.13058706      2.28550829
H       0.69850691      2.19702246      4.17434640
H      -0.47604717      0.91277783      4.27139938
H       1.27441863     -0.72148643      4.81298084
H       2.56063475      0.40418756      4.42404556
H       3.96627566      0.49060806      8.52145476
H       2.29112973     -0.09130799      8.92280710
H       2.77371113      1.73504259      8.65755770
