23
Frame 5  Energy = -425.8919432741 Hartree
C       0.14561369      1.13209491      0.07484318
C      -0.12370280      1.49451200      1.51988039
C       0.92832659      0.88199590      2.46437200
C       0.63659202      1.19295666      3.95170624
C       1.67234498      0.55230349      4.86614882
C       1.54696152      0.92323154      6.39876651
O       0.65479511      1.57039831      6.90745020
O       2.63058530      0.38854558      7.04911556
C       2.71757330      0.70439348      8.45232862
H      -0.42213420      1.70596751     -0.63457287
H       1.20362646      1.23807271     -0.26802396
H      -0.18428555      0.09477365     -0.12479998
H      -1.15588147      1.13727590      1.87388258
H      -0.09281990      2.53815859      1.63575441
H       0.89573351     -0.16595612      2.31375096
H       1.99002296      1.25456927      2.30278676
H       0.51137491      2.26622795      4.11794044
H      -0.37454888      0.72549766      4.10077896
H       1.63389218     -0.52453484      4.71644587
H       2.68111093      0.76393181      4.50794438
H       3.57641120      0.09377055      8.90008028
H       1.81362086      0.41800707      9.00552019
H       2.77337306      1.79296059      8.57357256
23
Frame 10  Energy = -425.8917825037 Hartree
C       0.14842336      1.13273138      0.07269342
C      -0.12386437      1.49428659      1.51726817
C       0.92824460      0.88400933      2.46611024
C       0.63557126      1.19200488      3.95347829
C       1.67177625      0.55084618      4.86989451
C       1.54768174      0.92073006      6.40202332
O       0.65298955      1.57011386      6.90890829
O       2.63198748      0.38733785      7.04581175
C       2.71831037      0.70332834      8.45130017
H      -0.42775781      1.71325500     -0.63547367
H       1.20293760      1.23287177     -0.26778099
H      -0.17991789      0.09988333     -0.12450686
H      -1.14950061      1.14191625      1.86952308
H      -0.09373156      2.54464345      1.63120315
H       0.89449301     -0.16788073      2.30575549
H       1.98722774      1.24769383      2.30578185
H       0.50824855      2.26860888      4.12178334
H      -0.37092347      0.72713872      4.10333706
H       1.63138782     -0.52569975      4.72069977
H       2.68079248      0.76474880      4.50897913
H       3.57177772      0.10611713      8.88911909
H       1.81372839      0.41995347      9.00409560
H       2.78089058      1.79559854      8.57154643
23
Frame 15  Energy = -425.8917307866 Hartree
C       0.15122584      1.13316972      0.07033416
C      -0.12399815      1.49386371      1.51476720
C       0.92823163      0.88637346      2.46802197
C       0.63431995      1.19092395      3.95523409
C       1.67113100      0.54942445      4.87382722
C       1.54834314      0.91820692      6.40501147
O       0.65140185      1.56967636      6.91033394
O       2.63324971      0.38619078      7.04259655
C       2.71909027      0.70216772      8.45037206
H      -0.43382592      1.72143423     -0.63634238
H       1.20043098      1.22754580     -0.26598116
H      -0.17483984      0.10537810     -0.12405384
H      -1.13996271      1.14757157      1.86375427
H      -0.09525631      2.55411257      1.62710107
H       0.89412928     -0.17216386      2.29763332
H       1.98170006      1.23955140      2.30739862
H       0.50575547      2.27009256      4.12543050
H      -0.36553163      0.73040244      4.10697756
H       1.62830305     -0.52701170      4.72632024
H       2.68017452      0.76655332      4.51063906
H       3.56521602      0.12111059      8.87625710
H       1.81385525      0.42160915      9.00141002
H       2.78948788      1.79691762      8.56995186
23
Frame 20  Energy = -425.8915239854 Hartree
C       0.15400698      1.13346561      0.06777875
C      -0.12398880      1.49322737      1.51242008
C       0.92831272      0.88910088      2.47008054
C       0.63295868      1.18974888      3.95685461
C       1.67035105      0.54802922      4.87788422
C       1.54905099      0.91574020      6.40771143
O       0.65008371      1.56907407      6.91167024
O       2.63437858      0.38509141      7.03943569
C       2.71990535      0.70092851      8.44941822
H      -0.44002375      1.72994160     -0.63658858
H       1.19672897      1.22209985     -0.26249692
H      -0.16897493      0.11105526     -0.12354867
H      -1.12829563      1.15402502      1.85699503
H      -0.09717971      2.56583574      1.62378881
H       0.89489029     -0.17787756      2.28979237
H       1.97370619      1.23066144      2.30769971
H       0.50387602      2.27052000      4.12907509
H      -0.35900043      0.73478282      4.11159515
H       1.62497582     -0.52883560      4.73325035
H       2.67947705      0.76876588      4.51294094
H       3.55773616      0.13763867      8.86208116
H       1.81410281      0.42297382      8.99774564
H       2.79911475      1.79663889      8.56860085
23
Frame 25  Energy = -425.8910929685 Hartree
C       0.15664213      1.13378061      0.06505827
C      -0.12390880      1.49244933      1.51021784
C       0.92846553      0.89205620      2.47224434
C       0.63138914      1.18858943      3.95845242
C       1.66942220      0.54673938      4.88206924
C       1.54976610      0.91320909      6.41009834
O       0.64906684      1.56829071      6.91302038
O       2.63546260      0.38408424      7.03636524
C       2.72065783      0.69989737      8.44846028
H      -0.44604581      1.73845534     -0.63631652
H       1.19246111      1.21667295     -0.25821088
H      -0.16235107      0.11633367     -0.12303846
H      -1.11530727      1.16072018      1.84943547
H      -0.09960334      2.57898869      1.62090311
H       0.89617223     -0.18424353      2.28227708
H       1.96396762      1.22145008      2.30688969
H       0.50260268      2.26979521      4.13260064
H      -0.35151852      0.73991754      4.11747283
H       1.62142011     -0.53105014      4.74127301
H       2.67825580      0.77181481      4.51621559
H       3.55030394      0.15506461      8.84750180
H       1.81465779      0.42415723      8.99314237
H       2.80957384      1.79476524      8.56741005
23
Frame 30  Energy = -425.8910487894 Hartree
C       0.15911177      1.13407301      0.06225131
C      -0.12371763      1.49173039      1.50805125
C       0.92856914      0.89500539      2.47455670
C       0.62966620      1.18734861      3.95995598
C       1.66837297      0.54548311      4.88625725
C       1.55049038      0.91067902      6.41212720
O       0.64836886      1.56725166      6.91433044
O       2.63647394      0.38310207      7.03340567
C       2.72130942      0.69911951      8.44748460
H      -0.45144068      1.74680199     -0.63511859
H       1.18872348      1.21147018     -0.25344139
H      -0.15519869      0.12083499     -0.12275535
H      -1.10183645      1.16754699      1.84134396
H      -0.10267503      2.59235573      1.61801761
H       0.89787369     -0.19061112      2.27554670
H       1.95336235      1.21254984      2.30504941
H       0.50180727      2.26787271      4.13576649
H      -0.34395997      0.74569900      4.12447076
H       1.61778006     -0.53372556      4.75040302
H       2.67705403      0.77581016      4.52058252
H       3.54385171      0.17204583      8.83314677
H       1.81546735      0.42501558      8.98769499
H       2.82070282      1.79123682      8.56635526
23
Frame 35  Energy = -425.8909474078 Hartree
C       0.16133521      1.13440219      0.05937193
C      -0.12320719      1.49123492      1.50605302
C       0.92858045      0.89793289      2.47696613
C       0.62796497      1.18600243      3.96137664
C       1.66725770      0.54430470      4.89047195
C       1.55106980      0.90817772      6.41381283
O       0.64794223      1.56603645      6.91554099
O       2.63737161      0.38223778      7.03063838
C       2.72177787      0.69850726      8.44646861
H      -0.45569787      1.75476733     -0.63312106
H       1.18592092      1.20725991     -0.24785024
H      -0.14759114      0.12407236     -0.12269380
H      -1.08849958      1.17416309      1.83296211
H      -0.10622261      2.60480589      1.61493598
H       0.90011989     -0.19651174      2.26997929
H       1.94283276      1.20426495      2.30193708
H       0.50176097      2.26497411      4.13853381
H      -0.33734947      0.75159425      4.13217544
H       1.61394578     -0.53669982      4.76032320
H       2.67521418      0.78080502      4.52590493
H       3.53991628      0.18791404      8.81958495
H       1.81628854      0.42548501      8.98189044
H       2.83226244      1.78642498      8.56544800
23
Frame 40  Energy = -425.8912192439 Hartree
C       0.16336836      1.13484215      0.05645718
C      -0.12227824      1.49106830      1.50414026
C       0.92837383      0.90069378      2.47939711
C       0.62631802      1.18476642      3.96274480
C       1.66612359      0.54321894      4.89462550
C       1.55151554      0.90564834      6.41521162
O       0.64782976      1.56471532      6.91662588
O       2.63813414      0.38143155      7.02805650
C       2.72195144      0.69818797      8.44533157
H      -0.45818394      1.76223812     -0.63004597
H       1.18449880      1.20366859     -0.24201615
H      -0.14033393      0.12524975     -0.12321376
H      -1.07673325      1.17994901      1.82478587
H      -0.10989545      2.61547378      1.61202003
H       0.90271152     -0.20129156      2.26525052
H       1.93334567      1.19706832      2.29727088
H       0.50253345      2.26116780      4.14090271
H      -0.33235705      0.75675448      4.14095080
H       1.60993340     -0.53983088      4.77126776
H       2.67310678      0.78641148      4.53206103
H       3.54000631      0.20178308      8.80750015
H       1.81717316      0.42546602      8.97587842
H       2.84419660      1.78036159      8.56441947
23
Frame 45  Energy = -425.8913272860 Hartree
C       0.16504633      1.13544592      0.05356678
C      -0.12084943      1.49130530      1.50237714
C       0.92785071      0.90318178      2.48172067
C       0.62477553      1.18350757      3.96405212
C       1.66501512      0.54220429      4.89885444
C       1.55180557      0.90307969      6.41623794
O       0.64802530      1.56321924      6.91767886
O       2.63867166      0.38068607      7.02556975
C       2.72172708      0.69819903      8.44408296
H      -0.45917364      1.76890539     -0.62560571
H       1.18473952      1.20049154     -0.23618299
H      -0.13358589      0.12467312     -0.12413840
H      -1.06771776      1.18467110      1.81696960
H      -0.11327989      2.62359762      1.60888746
H       0.90515764     -0.20488291      2.26181640
H       1.92547614      1.19099828      2.29107200
H       0.50425385      2.25652943      4.14302759
H      -0.32950359      0.76110809      4.15098051
H       1.60591056     -0.54266568      4.78272830
H       2.67070399      0.79243861      4.53923689
H       3.54480156      0.21282554      8.79767268
H       1.81827753      0.42503353      8.96973548
H       2.85628290      1.77377294      8.56359635
23
Frame 50  Energy = -425.8914542261 Hartree
C       0.16620994      1.13619934      0.05062264
C      -0.11888611      1.49199954      1.50065631
C       0.92700582      0.90537202      2.48395074
C       0.62333528      1.18222410      3.96537131
C       1.66387048      0.54126299      4.90320874
C       1.55194362      0.90060281      6.41688066
O       0.64856977      1.56155739      6.91865684
O       2.63913307      0.38003175      7.02319712
C       2.72115635      0.69851655      8.44262641
H      -0.45912454      1.77423217     -0.61976029
H       1.18717358      1.19827756     -0.23051156
H      -0.12710211      0.12226456     -0.12528024
H      -1.06228620      1.18797424      1.80973333
H      -0.11650875      2.62880527      1.60522989
H       0.90753316     -0.20690630      2.25970993
H       1.92007977      1.18632975      2.28369955
H       0.50688034      2.25174191      4.14522960
H      -0.32931292      0.76440913      4.16214295
H       1.60201235     -0.54532719      4.79458890
H       2.66814514      0.79887368      4.54705516
H       3.55438165      0.22050507      8.79000219
H       1.81912511      0.42402210      8.96329867
H       2.86844309      1.76730852      8.56303831
23
Frame 55  Energy = -425.8917412939 Hartree
C       0.16692799      1.13699919      0.04767910
C      -0.11632712      1.49324410      1.49897324
C       0.92580006      0.90731446      2.48615301
C       0.62205543      1.18085263      3.96675076
C       1.66265170      0.54047778      4.90753385
C       1.55183023      0.89821012      6.41716521
O       0.64938946      1.55970853      6.91954035
O       2.63943584      0.37943414      7.02098346
C       2.72029093      0.69907333      8.44090631
H      -0.45805283      1.77789382     -0.61301374
H       1.19196695      1.19702556     -0.22537362
H      -0.12127069      0.11829165     -0.12693195
H      -1.06099158      1.18960347      1.80352255
H      -0.11967263      2.63103366      1.60157187
H       0.91026835     -0.20682279      2.25903692
H       1.91762987      1.18303407      2.27521216
H       0.51041447      2.24695913      4.14750585
H      -0.33186169      0.76670049      4.17442578
H       1.59800268     -0.54781035      4.80671340
H       2.66516857      0.80529407      4.55560968
H       3.56814685      0.22478017      8.78440316
H       1.81941912      0.42236296      8.95689925
H       2.88028920      1.76123606      8.56235398
23
Frame 60  Energy = -425.8918251469 Hartree
C       0.16734190      1.13774556      0.04482430
C      -0.11321472      1.49496830      1.49733695
C       0.92430975      0.90888618      2.48831003
C       0.62087855      1.17948261      3.96813293
C       1.66131699      0.53975741      4.91186352
C       1.55159342      0.89595164      6.41706325
O       0.65047536      1.55767498      6.92043972
O       2.63964931      0.37894761      7.01892355
C       2.71927798      0.69984945      8.43902338
H      -0.45528907      1.78019266     -0.60553074
H       1.19910644      1.19678238     -0.22024780
H      -0.11579130      0.11277758     -0.12894636
H      -1.06379446      1.18936095      1.79825034
H      -0.12254978      2.62995647      1.59760028
H       0.91384945     -0.20437156      2.25983118
H       1.91790782      1.18144477      2.26528591
H       0.51448501      2.24252202      4.14990380
H      -0.33735604      0.76789476      4.18748566
H       1.59430982     -0.55058985      4.81875228
H       2.66185006      0.81149065      4.56489032
H       3.58568488      0.22596177      8.78077258
H       1.81934682      0.41997394      8.95110014
H       2.89160738      1.75601147      8.56132502
23
Frame 65  Energy = -425.8918882801 Hartree
C       0.16740239      1.13855838      0.04207822
C      -0.10973152      1.49711615      1.49575405
C       0.92260650      0.90999787      2.49037961
C       0.61987495      1.17806039      3.96956911
C       1.65983883      0.53913352      4.91622991
C       1.55132721      0.89391780      6.41665501
O       0.65178092      1.55546435      6.92134596
O       2.63980724      0.37852559      7.01700453
C       2.71817259      0.70077444      8.43695548
H      -0.45093738      1.78118916     -0.59780032
H       1.20788908      1.19737830     -0.21527360
H      -0.11108822      0.10634614     -0.13108615
H      -1.07043279      1.18769731      1.79359954
H      -0.12532771      2.62585770      1.59354172
H       0.91779875     -0.19920568      2.26244930
H       1.92077780      1.18146835      2.25385086
H       0.51915571      2.23854864      4.15227547
H      -0.34501866      0.76855491      4.20122343
H       1.59092257     -0.55323529      4.83081093
H       2.65850640      0.81754875      4.57527963
H       3.60542247      0.22476115      8.77872370
H       1.81865748      0.41688364      8.94585334
H       2.90278038      1.75211364      8.55998795
23
Frame 70  Energy = -425.8915722542 Hartree
C       0.16732915      1.13940294      0.03940482
C      -0.10590109      1.49968030      1.49437307
C       0.92067757      0.91070291      2.49245480
C       0.61900935      1.17659068      3.97094349
C       1.65829690      0.53866095      4.92055741
C       1.55095081      0.89197205      6.41590427
O       0.65338664      1.55309027      6.92217897
O       2.63985310      0.37813607      7.01529621
C       2.71701105      0.70168377      8.43469825
H      -0.44548012      1.78150297     -0.59064752
H       1.21762769      1.19902779     -0.21035380
H      -0.10695188      0.09935148     -0.13372277
H      -1.07976032      1.18450662      1.78931138
H      -0.12752733      2.61910273      1.58934437
H       0.92182411     -0.19203444      2.26696328
H       1.92595722      1.18281550      2.24177077
H       0.52430782      2.23503728      4.15422286
H      -0.35375597      0.76866504      4.21549135
H       1.58781350     -0.55522072      4.84289805
H       2.65501486      0.82332648      4.58646779
H       3.62606763      0.22174462      8.77733683
H       1.81769211      0.41315406      8.94140952
H       2.91352106      1.74968023      8.55888254
23
Frame 75  Energy = -425.8914858959 Hartree
C       0.16711677      1.14022554      0.03675523
C      -0.10172593      1.50258930      1.49318396
C       0.91854590      0.91103005      2.49443820
C       0.61824834      1.17503094      3.97224893
C       1.65661299      0.53824186      4.92481081
C       1.55044842      0.89014165      6.41485095
O       0.65522803      1.55051697      6.92290555
O       2.63975566      0.37784274      7.01373064
C       2.71593008      0.70266818      8.43222771
H      -0.43940291      1.78148144     -0.58423258
H       1.22801119      1.20173570     -0.20598242
H      -0.10311277      0.09230627     -0.13681302
H      -1.09067934      1.18032570      1.78530483
H      -0.12961767      2.61052553      1.58540017
H       0.92587810     -0.18311331      2.27254792
H       1.93259432      1.18565123      2.22936776
H       0.52991027      2.23245928      4.15658504
H      -0.36289006      0.76832848      4.22984828
H       1.58481628     -0.55639114      4.85510043
H       2.65181559      0.82889641      4.59774672
H       3.64614733      0.21752613      8.77648796
H       1.81648848      0.40855725      8.93776609
H       2.92369238      1.74853560      8.55775912
23
Frame 80  Energy = -425.8913909193 Hartree
C       0.16692186      1.14086765      0.03411027
C      -0.09738097      1.50571207      1.49212049
C       0.91628777      0.91106461      2.49634983
C       0.61749943      1.17326695      3.97363365
C       1.65482184      0.53790441      4.92896731
C       1.54980877      0.88840567      6.41347755
O       0.65731815      1.54766742      6.92351734
O       2.63962482      0.37772093      7.01231310
C       2.71510133      0.70355934      8.42961588
H      -0.43292129      1.78127332     -0.57862869
H       1.23803877      1.20537051     -0.20179152
H      -0.09957973      0.08580325     -0.14007938
H      -1.10199125      1.17571097      1.78127472
H      -0.13141114      2.60099107      1.58174986
H       0.92942704     -0.17326510      2.27912597
H       1.93947405      1.18980924      2.21687034
H       0.53606950      2.23110817      4.15920835
H      -0.37197652      0.76818745      4.24357703
H       1.58220076     -0.55677878      4.86704368
H       2.64878715      0.83419294      4.60926057
H       3.66424129      0.21295936      8.77541865
H       1.81513239      0.40338780      8.93513096
H       2.93298143      1.74884614      8.55630769
23
Frame 85  Energy = -425.8910126882 Hartree
C       0.16679046      1.14135408      0.03156913
C      -0.09300544      1.50900571      1.49125194
C       0.91400143      0.91091377      2.49815433
C       0.61672840      1.17141242      3.97516784
C       1.65291458      0.53760329      4.93298430
C       1.54898608      0.88674649      6.41187187
O       0.65954583      1.54459488      6.92409831
O       2.63940905      0.37776830      7.01097285
C       2.71461191      0.70420437      8.42688051
H      -0.42690543      1.78179573     -0.57444513
H       1.24675920      1.20995932     -0.19769654
H      -0.09652827      0.08010698     -0.14335255
H      -1.11304610      1.17097668      1.77690543
H      -0.13307370      2.59089519      1.57824094
H       0.93278909     -0.16299437      2.28665565
H       1.94585001      1.19481009      2.20483124
H       0.54253147      2.23106025      4.16159995
H      -0.38049803      0.76821316      4.25659193
H       1.58023384     -0.55670204      4.87886145
H       2.64623733      0.83891692      4.62082211
H       3.67946700      0.20810397      8.77412737
H       1.81397248      0.39768809      8.93332011
H       2.94100702      1.75025202      8.55471671
23
Frame 90  Energy = -425.8913779154 Hartree
C       0.16681051      1.14164197      0.02920590
C      -0.08868760      1.51233148      1.49058917
C       0.91172892      0.91057564      2.49989630
C       0.61587615      1.16941715      3.97676169
C       1.65088224      0.53730155      4.93682780
C       1.54805282      0.88533071      6.41008423
O       0.66194451      1.54132858      6.92465908
O       2.63914691      0.37783438      7.00974377
C       2.71450428      0.70476929      8.42398877
H      -0.42171488      1.78327927     -0.57247223
H       1.25403586      1.21502853     -0.19395007
H      -0.09400855      0.07613538     -0.14621360
H      -1.12273330      1.16685718      1.77217332
H      -0.13455221      2.58132149      1.57480480
H       0.93585552     -0.15322235      2.29473600
H       1.95137236      1.20074009      2.19363211
H       0.54912663      2.23178463      4.16390439
H      -0.38791057      0.76862941      4.26862068
H       1.57905386     -0.55662537      4.89045281
H       2.64419862      0.84301054      4.63224609
H       3.69073099      0.20359380      8.77232179
H       1.81297256      0.39170834      8.93214862
H       2.94816327      1.75269478      8.55302841
23
Frame 95  Energy = -425.8912020211 Hartree
C       0.16699568      1.14171561      0.02715831
C      -0.08459726      1.51556909      1.49010276
C       0.90953708      0.91021955      2.50147280
C       0.61483323      1.16728287      3.97858781
C       1.64867866      0.53699305      4.94045102
C       1.54699060      0.88403278      6.40806439
O       0.66446554      1.53796257      6.92529033
O       2.63891996      0.37809292      7.00875678
C       2.71478317      0.70521872      8.42105423
H      -0.41758050      1.78566200     -0.57266308
H       1.25962948      1.22043767     -0.19014566
H      -0.09185420      0.07425033     -0.14924354
H      -1.13029201      1.16366851      1.76687329
H      -0.13573163      2.57334331      1.57150374
H       0.93835389     -0.14451062      2.30351735
H       1.95513894      1.20740565      2.18353599
H       0.55558882      2.23305406      4.16635481
H      -0.39378211      0.76991586      4.27949176
H       1.57869018     -0.55589023      4.90161373
H       2.64294997      0.84669107      4.64333504
H       3.69758039      0.19973187      8.77025485
H       1.81268406      0.38569488      8.93147470
H       2.95392844      1.75594884      8.55106814
23
Frame 100  Energy = -425.8912438702 Hartree
C       0.16745649      1.14158860      0.02541612
C      -0.08082731      1.51857173      1.48969751
C       0.90751003      0.91001213      2.50279963
C       0.61357761      1.16500095      3.98052149
C       1.64629000      0.53662618      4.94390630
C       1.54579444      0.88280931      6.40587371
O       0.66712638      1.53447607      6.92601169
O       2.63863503      0.37845887      7.00797938
C       2.71561035      0.70540877      8.41807698
H      -0.41433161      1.78885226     -0.57509762
H       1.26311846      1.22614117     -0.18644320
H      -0.08978177      0.07476811     -0.15246496
H      -1.13503159      1.16112688      1.76112846
H      -0.13643163      2.56749259      1.56878882
H       0.94063543     -0.13759446      2.31256750
H       1.95659370      1.21476032      2.17484617
H       0.56220423      2.23479495      4.16892594
H      -0.39772596      0.77191360      4.28887346
H       1.57912427     -0.55465770      4.91225904
H       2.64256615      0.84962924      4.65384174
H       3.69933118      0.19678475      8.76728059
H       1.81297053      0.37970154      8.93155720
H       2.95816473      1.75991327      8.54913648
23
Frame 105  Energy = -425.8913311856 Hartree
C       0.16828143      1.14119238      0.02399036
C      -0.07741127      1.52121573      1.48933602
C       0.90556499      0.91006465      2.50394981
C       0.61213403      1.16259218      3.98261778
C       1.64376910      0.53627935      4.94724990
C       1.54442729      0.88173744      6.40353954
O       0.66975795      1.53090521      6.92681414
O       2.63829047      0.37889699      7.00732623
C       2.71698274      0.70552397      8.41499145
H      -0.41202008      1.79281297     -0.57964907
H       1.26416158      1.23175135     -0.18323069
H      -0.08774362      0.07730470     -0.15522705
H      -1.13678375      1.15947018      1.75488771
H      -0.13668020      2.56458936      1.56657270
H       0.94240371     -0.13335332      2.32153768
H       1.95512484      1.22219938      2.16797627
H       0.56908262      2.23662971      4.17149932
H      -0.39990759      0.77469992      4.29681365
H       1.58022019     -0.55287904      4.92239947
H       2.64273387      0.85151890      4.66384898
H       3.69626853      0.19477920      8.76330833
H       1.81426667      0.37410233      8.93205162
H       2.96051666      1.76397779      8.54740346
23
Frame 110  Energy = -425.8913937474 Hartree
C       0.16942297      1.14061948      0.02282376
C      -0.07441479      1.52338869      1.48906151
C       0.90387700      0.91031577      2.50497490
C       0.61052622      1.16014041      3.98495449
C       1.64121321      0.53602162      4.95046509
C       1.54297366      0.88075628      6.40113018
O       0.67233495      1.52729399      6.92759413
O       2.63791794      0.37940726      7.00688674
C       2.71893341      0.70558051      8.41186875
H      -0.41014285      1.79738218     -0.58630154
H       1.26307209      1.23736826     -0.18030078
H      -0.08540395      0.08135220     -0.15788719
H      -1.13540704      1.15863037      1.74816810
H      -0.13667936      2.56557331      1.56486391
H       0.94390687     -0.13215807      2.33037301
H       1.95071368      1.22996870      2.16305241
H       0.57614515      2.23860418      4.17360034
H      -0.40005868      0.77813115      4.30330625
H       1.58184503     -0.55097104      4.93208084
H       2.64351981      0.85270649      4.67333879
H       3.68863743      0.19373793      8.75817668
H       1.81632998      0.36868177      8.93241520
H       2.96120461      1.76770707      8.54543440
23
Frame 115  Energy = -425.8916372415 Hartree
C       0.17087312      1.13998609      0.02191208
C      -0.07185482      1.52511271      1.48886104
C       0.90247850      0.91087222      2.50582063
C       0.60884355      1.15774436      3.98744918
C       1.63867173      0.53576622      4.95349127
C       1.54150793      0.87992126      6.39857575
O       0.67494242      1.52369711      6.92842296
O       2.63753356      0.38006085      7.00665330
C       2.72157522      0.70554873      8.40886807
H      -0.40894776      1.80221460     -0.59442588
H       1.26020237      1.24313731     -0.17791504
H      -0.08299078      0.08679630     -0.16053631
H      -1.13062593      1.15884145      1.74125652
H      -0.13611355      2.57026023      1.56393409
H       0.94518585     -0.13407931      2.33910148
H       1.94357985      1.23765086      2.16003447
H       0.58333346      2.24039006      4.17550379
H      -0.39832768      0.78252476      4.30848035
H       1.58416863     -0.54981592      4.94085007
H       2.64467423      0.85351398      4.68223593
H       3.67688479      0.19321890      8.75228166
H       1.81920091      0.36340680      8.93256785
H       2.96009148      1.77124373      8.54330126
23
Frame 120  Energy = -425.8914925421 Hartree
C       0.17254853      1.13921401      0.02131211
C      -0.06972504      1.52644259      1.48880611
C       0.90141503      0.91166992      2.50643402
C       0.60707530      1.15543859      3.99010644
C       1.63609725      0.53540323      4.95633406
C       1.54000661      0.87915637      6.39595564
O       0.67760752      1.52008152      6.92932112
O       2.63715364      0.38083660      7.00653848
C       2.72479160      0.70529045      8.40581864
H      -0.40782783      1.80691398     -0.60397236
H       1.25585258      1.24936964     -0.17578433
H      -0.08088301      0.09319877     -0.16327818
H      -1.12283317      1.16049345      1.73413892
H      -0.13508206      2.57850171      1.56398189
H       0.94613497     -0.13899988      2.34769087
H       1.93391890      1.24516209      2.15926631
H       0.59026592      2.24133849      4.17717693
H      -0.39513056      0.78738986      4.31221639
H       1.58735334     -0.54932605      4.94849149
H       2.64590806      0.85350213      4.69040145
H       3.66170689      0.19331474      8.74603432
H       1.82305094      0.35858089      8.93256773
H       2.95704540      1.77447129      8.54134735
23
Frame 125  Energy = -425.8917120879 Hartree
C       0.17447693      1.13852937      0.02090699
C      -0.06799726      1.52737558      1.48893378
C       0.90062945      0.91255062      2.50692823
C       0.60515046      1.15324584      3.99289683
C       1.63348332      0.53509555      4.95891222
C       1.53845742      0.87852740      6.39326318
O       0.68023829      1.51654886      6.93031844
O       2.63670296      0.38166832      7.00657327
C       2.72823799      0.70495623      8.40274296
H      -0.40647579      1.81138797     -0.61448180
H       1.25030787      1.25552837     -0.17419022
H      -0.07930092      0.10037935     -0.16643336
H      -1.11213299      1.16326246      1.72680762
H      -0.13369136      2.58951258      1.56466556
H       0.94662386     -0.14669471      2.35537709
H       1.92190602      1.25233644      2.16085544
H       0.59672894      2.24140965      4.17881674
H      -0.39057999      0.79294643      4.31425286
H       1.59137178     -0.54974412      4.95510144
H       2.64708959      0.85292947      4.69783174
H       3.64387458      0.19359583      8.73951052
H       1.82813381      0.35457012      8.93203425
H       2.95240837      1.77654750      8.53971333
23
Frame 130  Energy = -425.8915878905 Hartree
C       0.17656142      1.13794242      0.02060475
C      -0.06668764      1.52801573      1.48910417
C       0.90008565      0.91351110      2.50730959
C       0.60327720      1.15121204      3.99582210
C       1.63089115      0.53471993      4.96123005
C       1.53702724      0.87791901      6.39039245
O       0.68283954      1.51307167      6.93141961
O       2.63626822      0.38256462      7.00674552
C       2.73174532      0.70458051      8.39982444
H      -0.40446007      1.81512513     -0.62499630
H       1.24404005      1.26188262     -0.17323942
H      -0.07821504      0.10766035     -0.16980572
H      -1.09889117      1.16666832      1.71926639
H      -0.13146510      2.60240850      1.56584023
H       0.94678449     -0.15607715      2.36213540
H       1.90809282      1.25904162      2.16476762
H       0.60263698      2.24062676      4.18032673
H      -0.38516977      0.79891302      4.31476628
H       1.59575874     -0.55081054      4.96046595
H       2.64783667      0.85150173      4.70485555
H       3.62464044      0.19393231      8.73297411
H       1.83454251      0.35170754      8.93139154
H       2.94607465      1.77775540      8.53784271
23
Frame 135  Energy = -425.8914953261 Hartree
C       0.17882203      1.13749716      0.02053280
C      -0.06572198      1.52839279      1.48926799
C       0.89968148      0.91449749      2.50757356
C       0.60142997      1.14928135      3.99876529
C       1.62834594      0.53424081      4.96327449
C       1.53565358      0.87730865      6.38739928
O       0.68531010      1.50959759      6.93254488
O       2.63582941      0.38346679      7.00697631
C       2.73526347      0.70412417      8.39677103
H      -0.40164175      1.81781573     -0.63531871
H       1.23754658      1.26812341     -0.17323348
H      -0.07764313      0.11421301     -0.17361631
H      -1.08434574      1.17087043      1.71147815
H      -0.12866597      2.61595936      1.56717578
H       0.94658598     -0.16632243      2.36814790
H       1.89286278      1.26555756      2.17098814
H       0.60844986      2.23917525      4.18184007
H      -0.37950886      0.80469004      4.31380236
H       1.60031512     -0.55273775      4.96455421
H       2.64821887      0.84944289      4.71128002
H       3.60519574      0.19391300      8.72701113
H       1.84199899      0.34973949      8.93066830
H       2.93813095      1.77816974      8.53617794
23
Frame 140  Energy = -425.8914249950 Hartree
C       0.18115766      1.13716371      0.02065525
C      -0.06502330      1.52859912      1.48941103
C       0.89929096      0.91541612      2.50783993
C       0.59970972      1.14755039      4.00175396
C       1.62583097      0.53370018      4.96502609
C       1.53433698      0.87674500      6.38445703
O       0.68759232      1.50615211      6.93381147
O       2.63529746      0.38441812      7.00728007
C       2.73875359      0.70371262      8.39365832
H      -0.39792485      1.81908254     -0.64503555
H       1.23135766      1.27423957     -0.17423626
H      -0.07776643      0.11961534     -0.17777049
H      -1.06949989      1.17543221      1.70414807
H      -0.12540101      2.62917127      1.56866996
H       0.94572469     -0.17688821      2.37361466
H       1.87724310      1.27170695      2.17893466
H       0.61398498      2.23706314      4.18319437
H      -0.37447492      0.81023885      4.31175802
H       1.60510135     -0.55508688      4.96723974
H       2.64801088      0.84682959      4.71635071
H       3.58734452      0.19265646      8.72206599
H       1.85036332      0.34836368      8.92945378
H       2.92904063      1.77785327      8.53470630
23
Frame 145  Energy = -425.8914118192 Hartree
C       0.18357884      1.13700496      0.02087183
C      -0.06446382      1.52872649      1.48957305
C       0.89895045      0.91618878      2.50805626
C       0.59818546      1.14608415      4.00476190
C       1.62327477      0.53318374      4.96646638
C       1.53314824      0.87620834      6.38158026
O       0.68978740      1.50277612      6.93516995
O       2.63463765      0.38534995      7.00755384
C       2.74211032      0.70344191      8.39046917
H      -0.39317244      1.81849450     -0.65361166
H       1.22627626      1.28060839     -0.17664287
H      -0.07828735      0.12357831     -0.18248069
H      -1.05559898      1.18033080      1.69763128
H      -0.12152830      2.64116966      1.57020704
H       0.94439061     -0.18724032      2.37846793
H       1.86230737      1.27805163      2.18846950
H       0.61886405      2.23409733      4.18455101
H      -0.37070033      0.81493884      4.30896592
H       1.61025627     -0.55739109      4.96879097
H       2.64758237      0.84373276      4.72010987
H       3.57280655      0.18972511      8.71862576
H       1.85934976      0.34816226      8.92813324
H       2.91919800      1.77696952      8.53354284
23
Frame 150  Energy = -425.8913280131 Hartree
C       0.18603453      1.13718723      0.02115869
C      -0.06402034      1.52895925      1.48984142
C       0.89857177      0.91671326      2.50831531
C       0.59685692      1.14488185      4.00783790
C       1.62082632      0.53265036      4.96765112
C       1.53220506      0.87559251      6.37880453
O       0.69181861      1.49947892      6.93666321
O       2.63393963      0.38630290      7.00782609
C       2.74526159      0.70350730      8.38733824
H      -0.38740506      1.81595802     -0.66060927
H       1.22255256      1.28707870     -0.18053871
H      -0.07937754      0.12584597     -0.18760947
H      -1.04341593      1.18564357      1.69236195
H      -0.11688629      2.65094272      1.57167183
H       0.94242488     -0.19625356      2.38261484
H       1.84882493      1.28466254      2.19954386
H       0.62324242      2.23034708      4.18609705
H      -0.36896227      0.81906363      4.30562036
H       1.61552988     -0.55952125      4.96903036
H       2.64694203      0.84009571      4.72251679
H       3.56255718      0.18397432      8.71699750
H       1.86900769      0.34887763      8.92677613
H       2.90849071      1.77568006      8.53286009
23
Frame 155  Energy = -425.8915581480 Hartree
C       0.18842911      1.13779020      0.02157299
C      -0.06360243      1.52943822      1.49016655
C       0.89810435      0.91697928      2.50862091
C       0.59579042      1.14398337      4.01082336
C       1.61862124      0.53200696      4.96849372
C       1.53149481      0.87489449      6.37619718
O       0.69369586      1.49629595      6.93829608
O       2.63321263      0.38726848      7.00809231
C       2.74815865      0.70382934      8.38418156
H      -0.38079350      1.81211095     -0.66596465
H       1.22068975      1.29341261     -0.18554299
H      -0.08082866      0.12642154     -0.19307701
H      -1.03394868      1.19029222      1.68869016
H      -0.11174792      2.65810244      1.57329806
H       0.94035249     -0.20310822      2.38604912
H       1.83801211      1.29178761      2.21147932
H       0.62700610      2.22626309      4.18774936
H      -0.36942776      0.82243418      4.30179767
H       1.62110661     -0.56150918      4.96815509
H       2.64582896      0.83578593      4.72383215
H       3.55711933      0.17501831      8.71761093
H       1.87880041      0.35066873      8.92573936
H       2.89706252      1.77427210      8.53235407
23
Frame 160  Energy = -425.8919651100 Hartree
C       0.19065488      1.13869653      0.02205921
C      -0.06311312      1.53014098      1.49045175
C       0.89759524      0.91704217      2.50895254
C       0.59501156      1.14336156      4.01365765
C       1.61669348      0.53116043      4.96897615
C       1.53101152      0.87421583      6.37383088
O       0.69530134      1.49324337      6.93999782
O       2.63238797      0.38822001      7.00829742
C       2.75072844      0.70426372      8.38097664
H      -0.37331882      1.80687782     -0.66990256
H       1.22113897      1.29914571     -0.19153577
H      -0.08258336      0.12558320     -0.19860663
H      -1.02865093      1.19420920      1.68642599
H      -0.10602967      2.66248057      1.57473365
H       0.93838261     -0.20774850      2.38886220
H       1.83061822      1.29960867      2.22392737
H       0.63028480      2.22176661      4.18956739
H      -0.37242822      0.82495015      4.29797632
H       1.62669049     -0.56354737      4.96613949
H       2.64406116      0.83092714      4.72423493
H       3.55646667      0.16319181      8.72034576
H       1.88840591      0.35289570      8.92522088
H       2.88539383      1.77311560      8.53187995
23
Frame 165  Energy = -425.8920361707 Hartree
C       0.19273655      1.13978709      0.02260879
C      -0.06259376      1.53106605      1.49062907
C       0.89695275      0.91676876      2.50933615
C       0.59444028      1.14303920      4.01641241
C       1.61503929      0.53016059      4.96908770
C       1.53081807      0.87351212      6.37168682
O       0.69663827      1.49028002      6.94179569
O       2.63144998      0.38915116      7.00838999
C       2.75294849      0.70492724      8.37763607
H      -0.36483574      1.80048427     -0.67230668
H       1.22377608      1.30457537     -0.19854282
H      -0.08452076      0.12372415     -0.20359292
H      -1.02818191      1.19715695      1.68591167
H      -0.09962990      2.66384291      1.57612336
H       0.93620968     -0.20979803      2.39098989
H       1.82712964      1.30788082      2.23699825
H       0.63278411      2.21721056      4.19184479
H      -0.37792253      0.82643715      4.29385352
H       1.63208126     -0.56561159      4.96320986
H       2.64182877      0.82564090      4.72379247
H       3.56034937      0.14904521      8.72502497
H       1.89733739      0.35523516      8.92511482
H       2.87358264      1.77173418      8.53196134
23
Frame 170  Energy = -425.8921885221 Hartree
C       0.19474763      1.14109909      0.02318997
C      -0.06198947      1.53226969      1.49072984
C       0.89609175      0.91610227      2.50975957
C       0.59410043      1.14291835      4.01906543
C       1.61352638      0.52914382      4.96881809
C       1.53082165      0.87276508      6.36967984
O       0.69777567      1.48737763      6.94366551
O       2.63054213      0.39000005      7.00844554
C       2.75491864      0.70564192      8.37427541
H      -0.35587424      1.79323698     -0.67325783
H       1.22859083      1.30963075     -0.20609480
H      -0.08643556      0.12076453     -0.20809496
H      -1.03205079      1.19911386      1.68702006
H      -0.09256766      2.66192870      1.57744001
H       0.93386896     -0.20892065      2.39244463
H       1.82810145      1.31694562      2.24993366
H       0.63451732      2.21277138      4.19468694
H      -0.38534119      0.82706591      4.28970148
H       1.63730067     -0.56773744      4.95937858
H       2.63929733      0.82011402      4.72257038
H       3.56765415      0.13363831      8.73100510
H       1.90505965      0.35761690      8.92560099
H       2.86180655      1.77060073      8.53220841
23
Frame 175  Energy = -425.8920821906 Hartree
C       0.19672254      1.14258196      0.02381969
C      -0.06132050      1.53376832      1.49074481
C       0.89501142      0.91504912      2.51024140
C       0.59390815      1.14292478      4.02163179
C       1.61216249      0.52804531      4.96823507
C       1.53095185      0.87205839      6.36787151
O       0.69873958      1.48465338      6.94557180
O       2.62969250      0.39077962      7.00845702
C       2.75676133      0.70629546      8.37093716
H      -0.34691501      1.78519117     -0.67298843
H       1.23495927      1.31419919     -0.21455635
H      -0.08822639      0.11714624     -0.21220270
H      -1.03999628      1.20042305      1.68971048
H      -0.08511418      2.65717322      1.57887250
H       0.93162598     -0.20505644      2.39305581
H       1.83367096      1.32685192      2.26287196
H       0.63543420      2.20854270      4.19755664
H      -0.39465559      0.82678315      4.28555920
H       1.64223153     -0.56962701      4.95460732
H       2.63658083      0.81437991      4.72043680
H       3.57757817      0.11755166      8.73803460
H       1.91106260      0.36002272      8.92705200
H       2.85072904      1.77015188      8.53252365
23
Frame 180  Energy = -425.8920676195 Hartree
C       0.19875523      1.14414656      0.02450603
C      -0.06051678      1.53543791      1.49064607
C       0.89368936      0.91376974      2.51084639
C       0.59377993      1.14305144      4.02405596
C       1.61101223      0.52673916      4.96735728
C       1.53125127      0.87133174      6.36637434
O       0.69951560      1.48215018      6.94756224
O       2.62888474      0.39155274      7.00834122
C       2.75849350      0.70685404      8.36780676
H      -0.33825490      1.77712374     -0.67188562
H       1.24223473      1.31836456     -0.22370626
H      -0.08967181      0.11347126     -0.21586089
H      -1.05124159      1.20153858      1.69342470
H      -0.07682795      2.64997365      1.58010506
H       0.92949539     -0.19834640      2.39302297
H       1.84284755      1.33727345      2.27577381
H       0.63588415      2.20508111      4.20043665
H      -0.40525461      0.82615568      4.28119532
H       1.64672484     -0.57145337      4.94906444
H       2.63375079      0.80860453      4.71706452
H       3.58915441      0.10213306      8.74544263
H       1.91540897      0.36230673      8.92909416
H       2.84049843      1.77028544      8.53275334
23
Frame 185  Energy = -425.8918110366 Hartree
C       0.20090882      1.14574982      0.02522837
C      -0.05969412      1.53707425      1.49038268
C       0.89219446      0.91227509      2.51166776
C       0.59359733      1.14325700      4.02628878
C       1.60997458      0.52516942      4.96607708
C       1.53183138      0.87053105      6.36523024
O       0.69993625      1.47980241      6.94964592
O       2.62804494      0.39228290      7.00804944
C       2.76032526      0.70722884      8.36491080
H      -0.33046696      1.76949460     -0.67072184
H       1.24971571      1.32189248     -0.23302174
H      -0.09041092      0.11042145     -0.21898633
H      -1.06488647      1.20249423      1.69812429
H      -0.06807788      2.64039380      1.58119940
H       0.92753698     -0.18947554      2.39234779
H       1.85450674      1.34799530      2.28887061
H       0.63609554      2.20282413      4.20369680
H      -0.41619053      0.82526362      4.27670594
H       1.65060059     -0.57298527      4.94305638
H       2.63071013      0.80279875      4.71243057
H       3.60103447      0.08816275      8.75239744
H       1.91807313      0.36482609      8.93189819
H       2.83135615      1.77084853      8.53308960
23
Frame 190  Energy = -425.8918723969 Hartree
C       0.20317776      1.14727539      0.02601136
C      -0.05898143      1.53867421      1.49002690
C       0.89073756      0.91065792      2.51266616
C       0.59337750      1.14351955      4.02837996
C       1.60912900      0.52326059      4.96429088
C       1.53254698      0.86972613      6.36447658
O       0.70009003      1.47759193      6.95187662
O       2.62722752      0.39302836      7.00765832
C       2.76220273      0.70738595      8.36218598
H      -0.32360575      1.76254265     -0.66970234
H       1.25722385      1.32457258     -0.24187860
H      -0.08981118      0.10843619     -0.22103687
H      -1.07959309      1.20374357      1.70312444
H      -0.05903701      2.62953285      1.58246178
H       0.92603523     -0.17950204      2.39112458
H       1.86765206      1.35804780      2.30213543
H       0.63594714      2.20199995      4.20753630
H      -0.42700142      0.82443638      4.27194966
H       1.65400475     -0.57434366      4.93694038
H       2.62760241      0.79678249      4.70646062
H       3.61228321      0.07677144      8.75878006
H       1.91932544      0.36726065      8.93531314
H       2.82323063      1.77155508      8.53364455
23
Frame 195  Energy = -425.8919752828 Hartree
C       0.20559422      1.14873103      0.02687602
C      -0.05837580      1.54012240      1.48966383
C       0.88933234      0.90904755      2.51373250
C       0.59307515      1.14390037      4.03030083
C       1.60841234      0.52113875      4.96221143
C       1.53342064      0.86890676      6.36408979
O       0.69999408      1.47551258      6.95411375
O       2.62648761      0.39379566      7.00721406
C       2.76426088      0.70720762      8.35970396
H      -0.31834220      1.75671153     -0.66927126
H       1.26457565      1.32621863     -0.25035229
H      -0.08789888      0.10764105     -0.22197647
H      -1.09417794      1.20559861      1.70832932
H      -0.04991591      2.61835531      1.58379193
H       0.92478969     -0.16959739      2.38942623
H       1.88100817      1.36713949      2.31568345
H       0.63516361      2.20260379      4.21158884
H      -0.43690778      0.82354722      4.26682183
H       1.65671130     -0.57530870      4.93026086
H       2.62484125      0.79104292      4.69898960
H       3.62220163      0.06851477      8.76339699
H       1.91910517      0.36939581      8.93880442
H       2.81663060      1.77290869      8.53450730
23
Frame 200  Energy = -425.8918673768 Hartree
C       0.20824468      1.15001792      0.02780316
C      -0.05800446      1.54131722      1.48925137
C       0.88801030      0.90756192      2.51485244
C       0.59261023      1.14436489      4.03208978
C       1.60778954      0.51879269      4.95981776
C       1.53438822      0.86803689      6.36397820
O       0.69976685      1.47355060      6.95635795
O       2.62586795      0.39461809      7.00664877
C       2.76646961      0.70672227      8.35758840
H      -0.31497485      1.75220727     -0.66975456
H       1.27125733      1.32644372     -0.25818147
H      -0.08485912      0.10789988     -0.22218897
H      -1.10797561      1.20801135      1.71390744
H      -0.04066339      2.60786278      1.58550174
H       0.92409994     -0.15988333      2.38661492
H       1.89363511      1.37467912      2.32965934
H       0.63368398      2.20413780      4.21573455
H      -0.44543967      0.82262521      4.26182091
H       1.65889075     -0.57607240      4.92305995
H       2.62255613      0.78609940      4.69048595
H       3.63013418      0.06405311      8.76611400
H       1.91777060      0.37115978      8.94239736
H       2.81168868      1.77497462      8.53524831
23
Frame 205  Energy = -425.8920831231 Hartree
C       0.21117054      1.15110773      0.02879552
C      -0.05792233      1.54225558      1.48880582
C       0.88688539      0.90628171      2.51605183
C       0.59203520      1.14489812      4.03379061
C       1.60729794      0.51626488      4.95714328
C       1.53545395      0.86721040      6.36416408
O       0.69941879      1.47173692      6.95871680
O       2.62526558      0.39539110      7.00590907
C       2.76879199      0.70601774      8.35584005
H      -0.31376272      1.74965403     -0.67124276
H       1.27683322      1.32546230     -0.26535395
H      -0.08049953      0.10938519     -0.22141150
H      -1.11986053      1.21105956      1.71963312
H      -0.03149185      2.59907313      1.58760997
H       0.92394260     -0.15113171      2.38264857
H       1.90476383      1.38042329      2.34362831
H       0.63160237      2.20693267      4.22008905
H      -0.45245058      0.82150858      4.25678501
H       1.66010757     -0.57707271      4.91532796
H       2.62105303      0.78182961      4.68104444
H       3.63571060      0.06314317      8.76714220
H       1.91554642      0.37259149      8.94599891
H       2.80845261      1.77729888      8.53579581
23
Frame 210  Energy = -425.8920096139 Hartree
C       0.21435307      1.15203571      0.02977185
C      -0.05820410      1.54294419      1.48844291
C       0.88602978      0.90524665      2.51743065
C       0.59115850      1.14544672      4.03525878
C       1.60696310      0.51366185      4.95421997
C       1.53655107      0.86637102      6.36473198
O       0.69886826      1.47009822      6.96112388
O       2.62470732      0.39609498      7.00512034
C       2.77123362      0.70509506      8.35449897
H      -0.31473349      1.74890034     -0.67330236
H       1.28108005      1.32334843     -0.27147747
H      -0.07467056      0.11200027     -0.21967578
H      -1.12896239      1.21544809      1.72542561
H      -0.02210406      2.59275776      1.59011445
H       0.92468194     -0.14407251      2.37758779
H       1.91393410      1.38380517      2.35768941
H       0.62868540      2.21092882      4.22431682
H      -0.45764092      0.82045217      4.25188362
H       1.66032943     -0.57831152      4.90736901
H       2.62028121      0.77768853      4.67076154
H       3.63885618      0.06594725      8.76603913
H       1.91261803      0.37376369      8.94941770
H       2.80649732      1.77992278      8.53651901
23
Frame 215  Energy = -425.8921308232 Hartree
C       0.21772917      1.15281264      0.03071525
C      -0.05880876      1.54319176      1.48817533
C       0.88543841      0.90446144      2.51902791
C       0.59004246      1.14602960      4.03654790
C       1.60675970      0.51095069      4.95120043
C       1.53765387      0.86548605      6.36562525
O       0.69822144      1.46860988      6.96361799
O       2.62414282      0.39672044      7.00420744
C       2.77377091      0.70395697      8.35359103
H      -0.31758562      1.74979529     -0.67600188
H       1.28355076      1.32033437     -0.27620086
H      -0.06778791      0.11563228     -0.21698053
H      -1.13512843      1.22102035      1.73105553
H      -0.01283412      2.58943626      1.59312985
H       0.92651811     -0.13953426      2.37119722
H       1.92068271      1.38465801      2.37161851
H       0.62508105      2.21554038      4.22829991
H      -0.46073762      0.81977605      4.24724078
H       1.65953336     -0.57937775      4.89961446
H       2.61990990      0.77393976      4.65969421
H       3.63959405      0.07224812      8.76261644
H       1.90934985      0.37502799      8.95202333
H       2.80603187      1.78244172      8.53715233
23
Frame 220  Energy = -425.8918890968 Hartree
C       0.22135245      1.15346739      0.03150359
C      -0.05973347      1.54297808      1.48798476
C       0.88508992      0.90402531      2.52085118
C       0.58856779      1.14656451      4.03761079
C       1.60658084      0.50811756      4.94793695
C       1.53870501      0.86466416      6.36677694
O       0.69744969      1.46729642      6.96610575
O       2.62358340      0.39724359      7.00313959
C       2.77635006      0.70253780      8.35315734
H      -0.32219673      1.75213300     -0.67921326
H       1.28409189      1.31670204     -0.27983577
H      -0.06006821      0.12017153     -0.21317685
H      -1.13803729      1.22776104      1.73598036
H      -0.00348578      2.58933016      1.59690437
H       0.92924576     -0.13777632      2.36352169
H       1.92451284      1.38263609      2.38560724
H       0.62091853      2.22068382      4.23195776
H      -0.46177477      0.81975720      4.24294096
H       1.65804451     -0.58040988      4.89183637
H       2.61980246      0.77048422      4.64769509
H       3.63813718      0.08213266      8.75715634
H       1.90616380      0.37644744      8.95373215
H       2.80707757      1.78465013      8.53746150
23
Frame 225  Energy = -425.8919304639 Hartree
C       0.22503417      1.15396975      0.03217065
C      -0.06104800      1.54242680      1.48786008
C       0.88490374      0.90402763      2.52291781
C       0.58673637      1.14721804      4.03842085
C       1.60648726      0.50511482      4.94441279
C       1.53989020      0.86386624      6.36819865
O       0.69653105      1.46610162      6.96848091
O       2.62314200      0.39771120      7.00188465
C       2.77887199      0.70094005      8.35311598
H      -0.32786640      1.75540544     -0.68245389
H       1.28323935      1.31243094     -0.28224276
H      -0.05155859      0.12540078     -0.20832206
H      -1.13725444      1.23596080      1.74017920
H       0.00622452      2.59241199      1.60137693
H       0.93275963     -0.13912623      2.35534086
H       1.92509944      1.37771908      2.39926452
H       0.61639729      2.22566943      4.23558420
H      -0.46086843      0.81992098      4.23917126
H       1.65568856     -0.58130737      4.88394327
H       2.61985465      0.76745322      4.63502503
H       3.63510561      0.09546875      8.74998474
H       1.90333608      0.37794968      8.95441196
H       2.80977305      1.78639587      8.53723385
23
Frame 230  Energy = -425.8916589529 Hartree
C       0.22883920      1.15442278      0.03274020
C      -0.06276213      1.54153033      1.48781039
C       0.88499275      0.90452273      2.52517867
C       0.58457021      1.14803242      4.03897766
C       1.60647344      0.50205453      4.94068447
C       1.54115133      0.86305145      6.36990990
O       0.69550401      1.46509267      6.97082622
O       2.62293764      0.39807500      7.00044658
C       2.78128740      0.69925810      8.35352170
H      -0.33426187      1.75886765     -0.68508925
H       1.28104047      1.30765794     -0.28321847
H      -0.04281832      0.13075171     -0.20266425
H      -1.13337371      1.24568839      1.74369094
H       0.01582850      2.59832073      1.60611603
H       0.93683708     -0.14332993      2.34679511
H       1.92257543      1.37026434      2.41187907
H       0.61173356      2.22997162      4.23923580
H      -0.45814078      0.82021053      4.23582670
H       1.65241706     -0.58269890      4.87584032
H       2.62004823      0.76474410      4.62211185
H       3.63091914      0.11137146      8.74163636
H       1.90095051      0.37944807      8.95396647
H       2.81415015      1.78728230      8.53658452
23
Frame 235  Energy = -425.8916476719 Hartree
C       0.23277763      1.15483595      0.03330827
C      -0.06457907      1.54040346      1.48787893
C       0.88537969      0.90533991      2.52756574
C       0.58212534      1.14882489      4.03924780
C       1.60657455      0.49893539      4.93673849
C       1.54235367      0.86219400      6.37183838
O       0.69439245      1.46415658      6.97318255
O       2.62291974      0.39836054      6.99887556
C       2.78356446      0.69755695      8.35429785
H      -0.34114497      1.76227638     -0.68686753
H       1.27770413      1.30234233     -0.28307728
H      -0.03363293      0.13542533     -0.19654657
H      -1.12648400      1.25654360      1.74654212
H       0.02525278      2.60644488      1.61101698
H       0.94161037     -0.14950889      2.33787846
H       1.91725700      1.36041745      2.42364936
H       0.60694915      2.23324011      4.24263769
H      -0.45372590      0.82054983      4.23305853
H       1.64798605     -0.58445864      4.86757178
H       2.62021629      0.76270504      4.60894930
H       3.62630758      0.12890601      8.73215447
H       1.89954926      0.38040481      8.95273282
H       2.81995789      1.78694242      8.53541931
23
Frame 240  Energy = -425.8912917960 Hartree
C       0.23680296      1.15527065      0.03380868
C      -0.06641412      1.53899521      1.48814877
C       0.88595292      0.90639846      2.53007486
C       0.57943399      1.14969086      4.03930804
C       1.60686173      0.49573442      4.93261726
C       1.54355080      0.86132899      6.37393007
O       0.69325548      1.46327056      6.97550813
O       2.62307391      0.39858740      6.99728663
C       2.78556705      0.69591026      8.35546842
H      -0.34791687      1.76524634     -0.68726402
H       1.27389275      1.29686364     -0.28209534
H      -0.02414137      0.13887378     -0.19021683
H      -1.11714182      1.26806340      1.74857200
H       0.03421611      2.61549963      1.61603407
H       0.94699170     -0.15722894      2.32881414
H       1.90994365      1.34907337      2.43472893
H       0.60177586      2.23556922      4.24553005
H      -0.44818743      0.82077152      4.23083757
H       1.64258269     -0.58715255      4.85917760
H       2.61985952      0.76129616      4.59552386
H       3.62257180      0.14695700      8.72211538
H       1.89923886      0.38139587      8.95006221
H       2.82705253      1.78546213      8.53336060
23
Frame 245  Energy = -425.8912708734 Hartree
C       0.24077635      1.15584402      0.03421587
C      -0.06816545      1.53749282      1.48853664
C       0.88667931      0.90767546      2.53262388
C       0.57661218      1.15066083      4.03906589
C       1.60730662      0.49256622      4.92820911
C       1.54471073      0.86048107      6.37605751
O       0.69202677      1.46245748      6.97776511
O       2.62339484      0.39870850      6.99565550
C       2.78723150      0.69442026      8.35700270
H      -0.35418178      1.76783423     -0.68622244
H       1.27037442      1.29146021     -0.27999190
H      -0.01475577      0.14079307     -0.18412871
H      -1.10631397      1.27996248      1.74995101
H       0.04236307      2.62466760      1.62069082
H       0.95292291     -0.16540871      2.32000574
H       1.90118907      1.33640359      2.44446266
H       0.59622325      2.23664170      4.24802193
H      -0.44199563      0.82118922      4.22891582
H       1.63627219     -0.59025782      4.85085277
H       2.61898942      0.76053697      4.58210383
H       3.62047737      0.16509035      8.71195313
H       1.90015958      0.38231245      8.94585454
H       2.83517132      1.78280645      8.53088801
23
Frame 250  Energy = -425.8912334979 Hartree
C       0.24458036      1.15657488      0.03449904
C      -0.06975804      1.53601345      1.48911763
C       0.88746307      0.90903911      2.53528215
C       0.57366517      1.15175341      4.03859244
C       1.60794086      0.48949490      4.92366414
C       1.54577691      0.85958710      6.37824909
O       0.69082396      1.46159616      6.97998151
O       2.62387542      0.39867160      6.99389443
C       2.78841452      0.69313813      8.35872072
H      -0.35951922      1.76995759     -0.68347022
H       1.26736206      1.28633445     -0.27693330
H      -0.00609334      0.14096964     -0.17774714
H      -1.09473352      1.29192867      1.75110087
H       0.04964870      2.63338034      1.62488677
H       0.95921638     -0.17328858      2.31191708
H       1.89163243      1.32289849      2.45264125
H       0.59030475      2.23620133      4.25018504
H      -0.43625109      0.82106096      4.22789152
H       1.62936134     -0.59342611      4.84298560
H       2.61750091      0.76025236      4.56874620
H       3.62145857      0.18238874      8.70253449
H       1.90221314      0.38296265      8.94072128
H       2.84388973      1.77908169      8.52815387
23
Frame 255  Energy = -425.8910667170 Hartree
C       0.24812596      1.15758447      0.03470595
C      -0.07115828      1.53472091      1.48995601
C       0.88817795      0.91036103      2.53807991
C       0.57071193      1.15295119      4.03796899
C       1.60880025      0.48646280      4.91912904
C       1.54668374      0.85873512      6.38047144
O       0.68965185      1.46068740      6.98207652
O       2.62447843      0.39856455      6.99203960
C       2.78908403      0.69201468      8.36049815
H      -0.36382699      1.77149659     -0.67897740
H       1.26529401      1.28154677     -0.27303402
H       0.00206298      0.13939915     -0.17111810
H      -1.08350788      1.30390016      1.75204557
H       0.05628419      2.64104300      1.62812470
H       0.96568098     -0.18045913      2.30432104
H       1.88231765      1.30941150      2.45929795
H       0.58481257      2.23458510      4.25157052
H      -0.43106642      0.82018638      4.22789032
H       1.62160826     -0.59669905      4.83534292
H       2.61521948      0.76035682      4.55546638
H       3.62632515      0.19794799      8.69423895
H       1.90487887      0.38332287      8.93474681
H       2.85339064      1.77439304      8.52501185
23
Frame 260  Energy = -425.8914047673 Hartree
C       0.25133981      1.15878946      0.03483687
C      -0.07219884      1.53371034      1.49093296
C       0.88877578      0.91151540      2.54099594
C       0.56782968      1.15422509      4.03714823
C       1.60984829      0.48339245      4.91457714
C       1.54748006      0.85799182      6.38269369
O       0.68835285      1.45980965      6.98403748
O       2.62524015      0.39836971      6.99018071
C       2.78924949      0.69121913      8.36236251
H      -0.36702467      1.77220103     -0.67273201
H       1.26478765      1.27724192     -0.26867616
H       0.00936871      0.13618735     -0.16475932
H      -1.07392044      1.31512117      1.75298155
H       0.06227702      2.64720221      1.63054472
H       0.97217005     -0.18588154      2.29801648
H       1.87453092      1.29667922      2.46404668
H       0.57935296      2.23206085      4.25236636
H      -0.42692676      0.81872057      4.22920937
H       1.61321968     -0.59979850      4.82785857
H       2.61193141      0.76081382      4.54281804
H       3.63573595      0.21096305      8.68711573
H       1.90838817      0.38317854      8.92827420
H       2.86387249      1.76917005      8.52150908
23
Frame 265  Energy = -425.8917519760 Hartree
C       0.25419439      1.16016251      0.03492077
C      -0.07285311      1.53296816      1.49196567
C       0.88920108      0.91247074      2.54397263
C       0.56499959      1.15553073      4.03617872
C       1.61097398      0.48048842      4.90997768
C       1.54824228      0.85717230      6.38484133
O       0.68699589      1.45893042      6.98592710
O       2.62616412      0.39799806      6.98842602
C       2.78900609      0.69085252      8.36410623
H      -0.36917711      1.77196841     -0.66495060
H       1.26646282      1.27380697     -0.26394389
H       0.01601927      0.13135493     -0.15874326
H      -1.06693141      1.32554378      1.75400147
H       0.06737743      2.65119608      1.63192933
H       0.97848596     -0.18923519      2.29345289
H       1.86922540      1.28532321      2.46721414
H       0.57356082      2.22924685      4.25252828
H      -0.42487270      0.81644759      4.23172569
H       1.60392983     -0.60310802      4.82028103
H       2.60794768      0.76173894      4.53102622
H       3.64948952      0.22103062      8.68142847
H       1.91253524      0.38281268      8.92170814
H       2.87484221      1.76395466      8.51747623
23
Frame 270  Energy = -425.8916276076 Hartree
C       0.25670664      1.16161977      0.03500553
C      -0.07299133      1.53267965      1.49302384
C       0.88944885      0.91314555      2.54699893
C       0.56228129      1.15691219      4.03506030
C       1.61221043      0.47766602      4.90538086
C       1.54883692      0.85634076      6.38688854
O       0.68560676      1.45808446      6.98781716
O       2.62728191      0.39745456      6.98673700
C       2.78839233      0.69077390      8.36580547
H      -0.37010149      1.77073954     -0.65614374
H       1.27085758      1.27152294     -0.25887832
H       0.02209479      0.12529859     -0.15297875
H      -1.06361579      1.33515932      1.75526456
H       0.07112367      2.65244722      1.63250943
H       0.98416031     -0.19050006      2.29017806
H       1.86721965      1.27538998      2.46850568
H       0.56737403      2.22615419      4.25184582
H      -0.42514042      0.81361000      4.23526462
H       1.59373604     -0.60705099      4.81278630
H       2.60334497      0.76254509      4.52009121
H       3.66748746      0.22830690      8.67682600
H       1.91620623      0.38214683      8.91537397
H       2.88560925      1.75913206      8.51353157
23
Frame 275  Energy = -425.8915159664 Hartree
C       0.25885369      1.16315816      0.03519624
C      -0.07249405      1.53274547      1.49419607
C       0.88937588      0.91345848      2.54995041
C       0.55975149      1.15835835      4.03383836
C       1.61341648      0.47494983      4.90080427
C       1.54943021      0.85548225      6.38898317
O       0.68419536      1.45731746      6.98965608
O       2.62862870      0.39679728      6.98507442
C       2.78743669      0.69094613      8.36737789
H      -0.36979807      1.76819118     -0.64624501
H       1.27780716      1.27034488     -0.25357370
H       0.02777174      0.11825815     -0.14736841
H      -1.06421040      1.34387655      1.75700099
H       0.07377303      2.65105112      1.63255832
H       0.98927848     -0.18955231      2.28847107
H       1.86895454      1.26711002      2.46765447
H       0.56127330      2.22309058      4.25072609
H      -0.42766221      0.81004087      4.23967400
H       1.58331024     -0.61154930      4.80520555
H       2.59812081      0.76366466      4.50995284
H       3.68881948      0.23334532      8.67325200
H       1.91943508      0.38063755      8.90974834
H       2.89635051      1.75484277      8.50948840
23
Frame 280  Energy = -425.8916547169 Hartree
C       0.26062945      1.16477717      0.03544521
C      -0.07139627      1.53317203      1.49543849
C       0.88904190      0.91347321      2.55271110
C       0.55714069      1.15976215      4.03248620
C       1.61458178      0.47233058      4.89634209
C       1.55003461      0.85461083      6.39087436
O       0.68279402      1.45661332      6.99137169
O       2.63020585      0.39615748      6.98349700
C       2.78638225      0.69127643      8.36881793
H      -0.36874499      1.76474759     -0.63538445
H       1.28690195      1.27025379     -0.24818078
H       0.03325034      0.11072201     -0.14166842
H      -1.06894655      1.35120757      1.75913612
H       0.07532837      2.64699170      1.63191919
H       0.99404629     -0.18633284      2.28865391
H       1.87469964      1.26062073      2.46509371
H       0.55511189      2.22039654      4.24891358
H      -0.43208433      0.80577570      4.24461884
H       1.57274313     -0.61630304      4.79777095
H       2.59235166      0.76483247      4.50091807
H       3.71178501      0.23663440      8.67071722
H       1.92219376      0.37816984      8.90528536
H       2.90696511      1.75140300      8.50559373
23
Frame 285  Energy = -425.8914385674 Hartree
C       0.26201728      1.16638269      0.03583959
C      -0.06970294      1.53395696      1.49680132
C       0.88840170      0.91320503      2.55540995
C       0.55452824      1.16094666      4.03101470
C       1.61563572      0.46979601      4.89193507
C       1.55043581      0.85371213      6.39252727
O       0.68149264      1.45590126      6.99287318
O       2.63195212      0.39549954      6.98197681
C       2.78531701      0.69171955      8.37011051
H      -0.36695920      1.76078135     -0.62410434
H       1.29767875      1.27089124     -0.24252055
H       0.03841793      0.10319039     -0.13618362
H      -1.07752697      1.35720277      1.76161730
H       0.07607885      2.64067059      1.63076366
H       0.99822374     -0.18092490      2.29045799
H       1.88352964      1.25597306      2.46065371
H       0.54895530      2.21832076      4.24661959
H      -0.43766808      0.80050791      4.25012062
H       1.56178105     -0.62070228      4.79066833
H       2.58644657      0.76603532      4.49271855
H       3.73508595      0.23888778      8.66897424
H       1.92404290      0.37476155      8.90208955
H       2.91716340      1.74920704      8.50193726
23
Frame 290  Energy = -425.8916197249 Hartree
C       0.26321442      1.16791611      0.03632771
C      -0.06753540      1.53504224      1.49829509
C       0.88754776      0.91271889      2.55793955
C       0.55201960      1.16186592      4.02941494
C       1.61657624      0.46742663      4.88751536
C       1.55060805      0.85277126      6.39406786
O       0.68035492      1.45517326      6.99419121
O       2.63388653      0.39479884      6.98044012
C       2.78445048      0.69221234      8.37118569
H      -0.36508793      1.75682299     -0.61292644
H       1.30925438      1.27256367     -0.23668407
H       0.04320731      0.09615370     -0.13091490
H      -1.08856029      1.36194301      1.76415135
H       0.07588176      2.63244004      1.62911312
H       1.00140173     -0.17324466      2.29416158
H       1.89442518      1.25304059      2.45449206
H       0.54310327      2.21700606      4.24436374
H      -0.44410927      0.79442963      4.25598089
H       1.55073971     -0.62455308      4.78410219
H       2.58071146      0.76710412      4.48488007
H       3.75735587      0.24059873      8.66753021
H       1.92463272      0.37038227      8.90075867
H       2.92726451      1.74843089      8.49850174
23
Frame 295  Energy = -425.8913852612 Hartree
C       0.26432504      1.16932151      0.03689569
C      -0.06493366      1.53640512      1.49990610
C       0.88653911      0.91195409      2.56029154
C       0.54958015      1.16262972      4.02776824
C       1.61727093      0.46525141      4.88320515
C       1.55059531      0.85176859      6.39540975
O       0.67920918      1.45447667      6.99539026
O       2.63591078      0.39400473      6.97889737
C       2.78397842      0.69262150      8.37214708
H      -0.36332423      1.75300705     -0.60238377
H       1.32103777      1.27511990     -0.23037088
H       0.04780701      0.09063938     -0.12533037
H      -1.10095630      1.36546274      1.76676966
H       0.07478005      2.62329006      1.62690797
H       1.00357475     -0.16426534      2.29964372
H       1.90661364      1.25146475      2.44734980
H       0.53738851      2.21683434      4.24173987
H      -0.45066823      0.78815296      4.26220154
H       1.53987903     -0.62775774      4.77798412
H       2.57531832      0.76798308      4.47740410
H       3.77716632      0.24216599      8.66605407
H       1.92433169      0.36494133      8.90147824
H       2.93652455      1.74903247      8.49557163
23
Frame 300  Energy = -425.8915139182 Hartree
C       0.26534488      1.17050065      0.03756408
C      -0.06195016      1.53796305      1.50158796
C       0.88545624      0.91095676      2.56246110
C       0.54715335      1.16316468      4.02610026
C       1.61773591      0.46327660      4.87903590
C       1.55032831      0.85070032      6.39652192
O       0.67813870      1.45367352      6.99645073
O       2.63806443      0.39312985      6.97747027
C       2.78382977      0.69305524      8.37299538
H      -0.36212716      1.74976781     -0.59371425
H       1.33235981      1.27862203     -0.22340314
H       0.05226893      0.08703233     -0.11974606
H      -1.11385720      1.36770610      1.76948857
H       0.07267416      2.61361410      1.62410267
H       1.00462725     -0.15463290      2.30631553
H       1.91957217      1.25097207      2.43934990
H       0.53174655      2.21779425      4.23896061
H      -0.45666535      0.78217870      4.26853154
H       1.52930048     -0.63009941      4.77249088
H       2.57095353      0.76864466      4.47015805
H       3.79375628      0.24382177      8.66413557
H       1.92334799      0.35859398      8.90410459
H       2.94528122      1.75099618      8.49299778
