23
Frame 5  Energy = -425.8887718272 Hartree
C       0.39217263      1.21223705      0.16898952
C      -0.04251795      1.61586094      1.59704661
C       0.89018909      0.87265129      2.57260596
C       0.47693772      1.12307951      4.01717937
C       1.52567770      0.44910619      4.92420877
C       1.58373588      0.78441685      6.39253406
O       0.65287981      1.31995977      6.93631400
O       2.72211393      0.38356798      6.92669383
C       2.85079358      0.67567362      8.32431202
H      -0.28194378      1.57177727     -0.60408451
H       1.39182198      1.56926920     -0.00775665
H       0.34544805      0.12151215      0.12265616
H      -1.04434888      1.34510430      1.77516740
H       0.00837267      2.73508081      1.68239088
H       0.79174856     -0.25134045      2.33258440
H       1.87506594      1.15229977      2.35614732
H       0.47575625      2.20163511      4.15538417
H      -0.51568774      0.76722217      4.22343804
H       1.44447307     -0.63205958      4.83357247
H       2.46962282      0.72980470      4.46235482
H       3.83953548      0.29160100      8.56099168
H       2.12356437      0.19683774      8.91875738
H       2.80555136      1.72829805      8.46570292
23
Frame 10  Energy = -425.8890450586 Hartree
C       0.39247000      1.21347773      0.16957503
C      -0.04099475      1.61814467      1.59833757
C       0.88949053      0.87181844      2.57432212
C       0.47661500      1.12099465      4.01928326
C       1.52772302      0.44711308      4.92143295
C       1.58266298      0.78466755      6.39190901
O       0.65032362      1.31869337      6.93828078
O       2.72458535      0.38350087      6.92530736
C       2.85033900      0.67564167      8.32283027
H      -0.26913409      1.56544781     -0.60721668
H       1.39446864      1.57914813     -0.00518387
H       0.34910808      0.11477194      0.12033021
H      -1.04625926      1.34084490      1.77344709
H       0.01052672      2.73021251      1.68319716
H       0.78803331     -0.25376393      2.34444897
H       1.86729246      1.16356226      2.35094092
H       0.48112422      2.19789535      4.15149771
H      -0.51846779      0.76681234      4.22859907
H       1.44771319     -0.63729179      4.82868472
H       2.47023021      0.72069573      4.45984264
H       3.85248793      0.27976901      8.56439712
H       2.13503169      0.19980052      8.92432200
H       2.79554146      1.72704958      8.46564611
23
Frame 15  Energy = -425.8893468371 Hartree
C       0.39252507      1.21463181      0.17029251
C      -0.03923940      1.62048975      1.59947617
C       0.88818778      0.87074737      2.57596741
C       0.47658124      1.11897682      4.02151239
C       1.52971623      0.44513346      4.91856528
C       1.58132326      0.78489657      6.39079456
O       0.64780062      1.31750771      6.94035640
O       2.72704213      0.38342234      6.92402507
C       2.85030501      0.67549910      8.32125185
H      -0.25700239      1.55977064     -0.61073436
H       1.39768330      1.58849750     -0.00331266
H       0.35322643      0.10843296      0.11778344
H      -1.05056821      1.33585712      1.77212886
H       0.01293318      2.72351323      1.68473791
H       0.78528664     -0.25233269      2.35685276
H       1.86376733      1.17560779      2.34577857
H       0.48623762      2.19427655      4.14883489
H      -0.52236791      0.76610182      4.23320249
H       1.45054470     -0.64250161      4.82378956
H       2.47173384      0.71121019      4.45789090
H       3.86392393      0.26878118      8.56762397
H       2.14401912      0.20111573      8.93109057
H       2.78569953      1.72807074      8.46638510
23
Frame 20  Energy = -425.8893876101 Hartree
C       0.39248133      1.21565507      0.17123353
C      -0.03721894      1.62274324      1.60041174
C       0.88636383      0.86941360      2.57756177
C       0.47679590      1.11703129      4.02371281
C       1.53166329      0.44315842      4.91559485
C       1.57966806      0.78518373      6.38931142
O       0.64542268      1.31642654      6.94260097
O       2.72944502      0.38334831      6.92289114
C       2.85078540      0.67526707      8.31948529
H      -0.24568260      1.55513084     -0.61499585
H       1.40107307      1.59706023     -0.00207894
H       0.35817469      0.10347406      0.11476586
H      -1.05672343      1.33046580      1.77097080
H       0.01574405      2.71524950      1.68703246
H       0.78336410     -0.24741993      2.36954561
H       1.86400332      1.18865899      2.34081424
H       0.49127644      2.19094170      4.14745748
H      -0.52701030      0.76517623      4.23735189
H       1.45308854     -0.64762895      4.81942210
H       2.47418431      0.70165665      4.45646188
H       3.87335777      0.25914392      8.57085892
H       2.15019836      0.20078640      8.93887260
H       2.77632400      1.73088077      8.46797101
23
Frame 25  Energy = -425.8894255586 Hartree
C       0.39243106      1.21653608      0.17241892
C      -0.03501389      1.62491880      1.60107307
C       0.88407770      0.86790411      2.57899268
C       0.47710528      1.11502084      4.02588733
C       1.53358116      0.44109593      4.91256154
C       1.57777712      0.78546795      6.38753721
O       0.64314243      1.31542958      6.94496346
O       2.73176714      0.38323064      6.92185665
C       2.85182214      0.67489688      8.31767425
H      -0.23543161      1.55183326     -0.62005431
H       1.40439957      1.60483534     -0.00138927
H       0.36408175      0.10034568      0.11119604
H      -1.06412610      1.32480160      1.77005514
H       0.01908408      2.70630822      1.68978353
H       0.78225320     -0.23901647      2.38229746
H       1.86714540      1.20193591      2.33629935
H       0.49592022      2.18833805      4.14704894
H      -0.53172053      0.76441947      4.24116100
H       1.45586575     -0.65218318      4.81535128
H       2.47814741      0.69208083      4.45551351
H       3.88042554      0.25133667      8.57392298
H       2.15358711      0.19856323      8.94750669
H       2.76751186      1.73507050      8.47003663
23
Frame 30  Energy = -425.8892972991 Hartree
C       0.39249651      1.21731306      0.17372487
C      -0.03276305      1.62687185      1.60154854
C       0.88133107      0.86624811      2.58023741
C       0.47749805      1.11299328      4.02810446
C       1.53542590      0.43887271      4.90954478
C       1.57559883      0.78577875      6.38544777
O       0.64105674      1.31440722      6.94748992
O       2.73406241      0.38305237      6.92091683
C       2.85336919      0.67445163      8.31596572
H      -0.22668177      1.55018616     -0.62589539
H       1.40749664      1.61165894     -0.00113480
H       0.37073248      0.09907525      0.10772351
H      -1.07179956      1.31934868      1.76945874
H       0.02292374      2.69765675      1.69330112
H       0.78219978     -0.22774920      2.39473510
H       1.87241164      1.21507012      2.33252425
H       0.50063542      2.18628964      4.14761862
H      -0.53613195      0.76380406      4.24455155
H       1.45908166     -0.65580984      4.81188485
H       2.48308287      0.68236549      4.45485258
H       3.88424274      0.24563231      8.57698906
H       2.15436167      0.19466652      8.95693736
H       2.75906483      1.74066417      8.47255543
23
Frame 35  Energy = -425.8892754041 Hartree
C       0.39269099      1.21784255      0.17525282
C      -0.03049682      1.62856708      1.60189819
C       0.87822213      0.86454327      2.58142875
C       0.47798104      1.11081618      4.03037548
C       1.53719946      0.43655980      4.90645875
C       1.57329047      0.78600267      6.38303472
O       0.63916948      1.31325818      6.95010879
O       2.73633678      0.38285520      6.92012663
C       2.85543110      0.67398821      8.31435576
H      -0.21924039      1.55026523     -0.63269332
H       1.40979473      1.61736034     -0.00156122
H       0.37835739      0.09999942      0.10456331
H      -1.07909247      1.31413798      1.76914885
H       0.02693869      2.69016250      1.69748709
H       0.78335916     -0.21461512      2.40667950
H       1.87907501      1.22753732      2.32955650
H       0.50531461      2.18499537      4.14908482
H      -0.54018859      0.76326391      4.24761241
H       1.46247548     -0.65849301      4.80881144
H       2.48939077      0.67286845      4.45445166
H       3.88452973      0.24231565      8.57974858
H       2.15277219      0.18975198      8.96633444
H       2.75108560      1.74660591      8.47571412
23
Frame 40  Energy = -425.8893255418 Hartree
C       0.39306999      1.21827741      0.17688490
C      -0.02840186      1.62992497      1.60193569
C       0.87491207      0.86294455      2.58247225
C       0.47850213      1.10854587      4.03267742
C       1.53893094      0.43434441      4.90329359
C       1.57081380      0.78622475      6.38039137
O       0.63752549      1.31203643      6.95277774
O       2.73849494      0.38270112      6.91946415
C       2.85799485      0.67339531      8.31284783
H      -0.21318240      1.55192166     -0.64040144
H       1.41096676      1.62170738     -0.00199857
H       0.38696062      0.10307037      0.10128832
H      -1.08550967      1.30987872      1.76868777
H       0.03112077      2.68419794      1.70267438
H       0.78551933     -0.20072201      2.41767919
H       1.88593943      1.23883611      2.32777090
H       0.50946768      2.18450093      4.15192840
H      -0.54356381      0.76271910      4.25021870
H       1.46587765     -0.66023048      4.80630198
H       2.49688678      0.66377854      4.45430505
H       3.88138473      0.24164492      8.58230558
H       2.14934464      0.18397634      8.97547504
H       2.74384439      1.75220437      8.47922500
23
Frame 45  Energy = -425.8894316886 Hartree
C       0.39365933      1.21861033      0.17847044
C      -0.02656368      1.63073319      1.60177275
C       0.87152405      0.86168985      2.58346968
C       0.47914235      1.10629722      4.03499034
C       1.54061496      0.43214675      4.90010671
C       1.56806813      0.78645959      6.37756893
O       0.63610248      1.31082079      6.95552193
O       2.74061213      0.38264250      6.91891564
C       2.86091691      0.67265354      8.31148046
H      -0.20880854      1.55457077     -0.64871022
H       1.41162746      1.62505817     -0.00267983
H       0.39623200      0.10788880      0.09808595
H      -1.09042680      1.30694137      1.76809701
H       0.03568980      2.68049216      1.70883377
H       0.78840371     -0.18757465      2.42734263
H       1.89239113      1.24859394      2.32729760
H       0.51340563      2.18422149      4.15616693
H      -0.54593682      0.76269767      4.25249292
H       1.46897727     -0.66136801      4.80428458
H       2.50521819      0.65512993      4.45457963
H       3.87505293      0.24346985      8.58459396
H       2.14505769      0.17767729      8.98357170
H       2.73753425      1.75700335      8.48251784
23
Frame 50  Energy = -425.8894448851 Hartree
C       0.39431927      1.21891958      0.18000774
C      -0.02488589      1.63099666      1.60155200
C       0.86814412      0.86077970      2.58432695
C       0.47997825      1.10408519      4.03732150
C       1.54227533      0.42998542      4.89697222
C       1.56506064      0.78678108      6.37458875
O       0.63486656      1.30951818      6.95822269
O       2.74264288      0.38264574      6.91839859
C       2.86411548      0.67183098      8.31035475
H      -0.20567281      1.55812114     -0.65731338
H       1.41131512      1.62706379     -0.00353226
H       0.40611149      0.11431903      0.09515012
H      -1.09322017      1.30524130      1.76733614
H       0.04035831      2.67944228      1.71573703
H       0.79197815     -0.17634288      2.43585202
H       1.89756718      1.25653915      2.32840970
H       0.51675086      2.18438149      4.16142135
H      -0.54755695      0.76305669      4.25418924
H       1.47186134     -0.66189953      4.80298419
H       2.51405262      0.64687256      4.45526797
H       3.86636122      0.24812433      8.58654277
H       2.14074296      0.17101467      8.98970076
H       2.73270393      1.76076977      8.48560206
23
Frame 55  Energy = -425.8895606544 Hartree
C       0.39504279      1.21910351      0.18149476
C      -0.02356290      1.63067514      1.60119739
C       0.86467892      0.86031308      2.58519291
C       0.48098473      1.10192067      4.03963910
C       1.54396387      0.42792060      4.89393379
C       1.56188414      0.78715666      6.37151616
O       0.63383454      1.30807419      6.96084571
O       2.74449783      0.38270205      6.91797485
C       2.86748617      0.67103775      8.30949881
H      -0.20368779      1.56253491     -0.66570417
H       1.41009150      1.62767542     -0.00439988
H       0.41653872      0.12210044      0.09226229
H      -1.09385610      1.30523328      1.76629063
H       0.04516872      2.68119033      1.72332327
H       0.79626172     -0.16820529      2.44263677
H       1.90094263      1.26279813      2.33115729
H       0.51984750      2.18495174      4.16771610
H      -0.54785015      0.76344173      4.25587101
H       1.47479846     -0.66223720      4.80225793
H       2.52312063      0.63941141      4.45647693
H       3.85569847      0.25499923      8.58834971
H       2.13667339      0.16432109      8.99373337
H       2.72923034      1.76293686      8.48868691
23
Frame 60  Energy = -425.8894560779 Hartree
C       0.39590784      1.21937788      0.18283463
C      -0.02258251      1.62983659      1.60076497
C       0.86114005      0.86042774      2.58604752
C       0.48203696      1.09978801      4.04189013
C       1.54567406      0.42592173      4.89095962
C       1.55860392      0.78752098      6.36834329
O       0.63302526      1.30660042      6.96340641
O       2.74607484      0.38288256      6.91765003
C       2.87087293      0.67020731      8.30894804
H      -0.20249860      1.56756367     -0.67309906
H       1.40774589      1.62708536     -0.00518247
H       0.42743691      0.13113506      0.08956960
H      -1.09205893      1.30657595      1.76486895
H       0.05015514      2.68530589      1.73182717
H       0.80082299     -0.16443406      2.44761113
H       1.90207068      1.26689920      2.33581253
H       0.52259455      2.18514865      4.17520738
H      -0.54678582      0.76418333      4.25739629
H       1.47785987     -0.66258012      4.80219968
H       2.53188660      0.63246144      4.45859041
H       3.84391718      0.26404183      8.58970601
H       2.13322152      0.15819865      8.99494878
H       2.72703937      1.76318984      8.49143446
23
Frame 65  Energy = -425.8894439482 Hartree
C       0.39698410      1.21971497      0.18414984
C      -0.02197440      1.62850928      1.60019484
C       0.85765545      0.86119511      2.58688693
C       0.48318310      1.09782790      4.04412248
C       1.54752568      0.42397556      4.88802352
C       1.55515182      0.78788342      6.36506531
O       0.63255320      1.30500056      6.96594009
O       2.74748153      0.38315500      6.91748302
C       2.87406458      0.66923758      8.30869528
H      -0.20173004      1.57318108     -0.67888882
H       1.40448727      1.62560120     -0.00573638
H       0.43825789      0.14089124      0.08758972
H      -1.08788825      1.30923764      1.76334156
H       0.05530843      2.69108576      1.74089618
H       0.80558841     -0.16542088      2.45062061
H       1.90079761      1.26886748      2.34216962
H       0.52519696      2.18496404      4.18364068
H      -0.54437911      0.76525952      4.25860871
H       1.48063287     -0.66345311      4.80257211
H       2.54004161      0.62617425      4.46160890
H       3.83243824      0.27449434      8.59105789
H       2.13094450      0.15250863      8.99310914
H       2.72613351      1.76106657      8.49348153
23
Frame 70  Energy = -425.8894435449 Hartree
C       0.39815249      1.22031054      0.18527994
C      -0.02175032      1.62691857      1.59952236
C       0.85434133      0.86255670      2.58768351
C       0.48446850      1.09606410      4.04629817
C       1.54951751      0.42209510      4.88513982
C       1.55169587      0.78826789      6.36170364
O       0.63243824      1.30322634      6.96833693
O       2.74870106      0.38354134      6.91733659
C       2.87715457      0.66837149      8.30873759
H      -0.20138908      1.57879523     -0.68289619
H       1.40047844      1.62303201     -0.00605497
H       0.44932321      0.15036953      0.08580448
H      -1.08205079      1.31302196      1.76131644
H       0.06049673      2.69801402      1.75029271
H       0.81092349     -0.17082640      2.45146236
H       1.89712958      1.26864197      2.35012498
H       0.52711331      2.18434483      4.19272152
H      -0.54103622      0.76646617      4.25956333
H       1.48298656     -0.66435592      4.80327891
H       2.54751913      0.62032964      4.46550808
H       3.82210240      0.28581083      8.59283259
H       2.12978386      0.14739940      8.98821040
H       2.72662195      1.75684304      8.49540265
23
Frame 75  Energy = -425.8892593485 Hartree
C       0.39936889      1.22104640      0.18620917
C      -0.02165765      1.62506327      1.59874525
C       0.85120030      0.86441797      2.58845203
C       0.48583286      1.09445538      4.04829307
C       1.55161470      0.42023097      4.88224856
C       1.54826626      0.78858154      6.35821831
O       0.63260657      1.30130629      6.97067193
O       2.74963274      0.38413020      6.91711004
C       2.87993690      0.66753045      8.30895881
H      -0.20100824      1.58438951     -0.68472272
H       1.39627014      1.61960447     -0.00610800
H       0.46054870      0.15911281      0.08446233
H      -1.07493013      1.31788773      1.75893437
H       0.06557542      2.70550675      1.76001156
H       0.81681584     -0.18021907      2.45002927
H       1.89131406      1.26593701      2.35966038
H       0.52819718      2.18337027      4.20255443
H      -0.53684891      0.76803543      4.26050531
H       1.48536103     -0.66542562      4.80447746
H       2.55417393      0.61468005      4.46999181
H       3.81425325      0.29715968      8.59525957
H       2.13031264      0.14334207      8.98023963
H       2.72765658      1.75065842      8.49747713
23
Frame 80  Energy = -425.8892545590 Hartree
C       0.40064395      1.22195115      0.18685070
C      -0.02174585      1.62304128      1.59787570
C       0.84829056      0.86669167      2.58924814
C       0.48726460      1.09305541      4.05015469
C       1.55378008      0.41825856      4.87946202
C       1.54481023      0.78880699      6.35466398
O       0.63311896      1.29928107      6.97298266
O       2.75027550      0.38477317      6.91687159
C       2.88212701      0.66679341      8.30929731
H      -0.20052520      1.58959739     -0.68425208
H       1.39224329      1.61582255     -0.00598514
H       0.47193499      0.16606380      0.08317199
H      -1.06710373      1.32389973      1.75655942
H       0.07056078      2.71253727      1.76953606
H       0.82285154     -0.19260216      2.44651338
H       1.88332353      1.26134995      2.37067360
H       0.52903786      2.18205345      4.21319215
H      -0.53178615      0.76945744      4.26153463
H       1.48735348     -0.66699960      4.80609430
H       2.55986458      0.60946208      4.47503177
H       3.81013641      0.30807723      8.59844426
H       2.13228007      0.14029228      8.96921594
H       2.72956301      1.74271760      8.49918576
23
Frame 85  Energy = -425.8888239969 Hartree
C       0.40196149      1.22319401      0.18726183
C      -0.02202929      1.62089690      1.59703243
C       0.84548318      0.86922261      2.59005987
C       0.48879037      1.09183568      4.05194134
C       1.55601013      0.41616707      4.87680549
C       1.54136557      0.78894890      6.35114312
O       0.63379972      1.29718117      6.97531975
O       2.75073595      0.38550065      6.91663448
C       2.88372902      0.66617245      8.30972158
H      -0.19955020      1.59444447     -0.68151961
H       1.38869915      1.61178905     -0.00600635
H       0.48341149      0.17064552      0.08231585
H      -1.05881346      1.33078670      1.75393999
H       0.07509992      2.71772783      1.77879648
H       0.82903950     -0.20670622      2.44117341
H       1.87358838      1.25478141      2.38296252
H       0.52944477      2.18009975      4.22453606
H      -0.52648947      0.77041107      4.26253744
H       1.48869925     -0.66902442      4.80835145
H       2.56446820      0.60439292      4.48063175
H       3.81043576      0.31819299      8.60264833
H       2.13524967      0.13796313      8.95569952
H       2.73245686      1.73357650      8.50032809
23
Frame 90  Energy = -425.8886615885 Hartree
C       0.40313742      1.22480344      0.18751600
C      -0.02239809      1.61875138      1.59624197
C       0.84270976      0.87184170      2.59079152
C       0.49037485      1.09082575      4.05373059
C       1.55829031      0.41408535      4.87435854
C       1.53793923      0.78899899      6.34770617
O       0.63466666      1.29502592      6.97758431
O       2.75099502      0.38623180      6.91640749
C       2.88479262      0.66569154      8.31018322
H      -0.19823284      1.59885180     -0.67638048
H       1.38653653      1.60802387     -0.00605332
H       0.49484677      0.17265365      0.08169701
H      -1.05130185      1.33839514      1.75135071
H       0.07929191      2.72119137      1.78735097
H       0.83515048     -0.22120782      2.43482716
H       1.86251801      1.24640004      2.39589682
H       0.52945118      2.17745245      4.23660035
H      -0.52118786      0.77098555      4.26384468
H       1.48952437     -0.67176239      4.81086419
H       2.56829438      0.59959222      4.48677459
H       3.81557786      0.32740370      8.60792478
H       2.13868463      0.13587516      8.94026199
H       2.73587931      1.72370062      8.50125462
23
Frame 95  Energy = -425.8887659230 Hartree
C       0.40418895      1.22670350      0.18757794
C      -0.02271708      1.61663523      1.59542710
C       0.84010351      0.87439438      2.59154401
C       0.49206643      1.09010279      4.05539519
C       1.56062795      0.41199153      4.87217142
C       1.53466348      0.78888571      6.34443256
O       0.63570895      1.29269140      6.97975141
O       2.75095455      0.38704275      6.91616859
C       2.88541407      0.66525587      8.31063118
H      -0.19691222      1.60248744     -0.66886552
H       1.38605175      1.60485333     -0.00585889
H       0.50571359      0.17205364      0.08146539
H      -1.04526283      1.34615467      1.74893905
H       0.08337387      2.72257020      1.79491596
H       0.84120391     -0.23482810      2.42755491
H       1.85078462      1.23697907      2.40950417
H       0.52922456      2.17413048      4.24906534
H      -0.51627523      0.77080323      4.26552972
H       1.48999352     -0.67456207      4.81373752
H       2.57149013      0.59546751      4.49315028
H       3.82574947      0.33564326      8.61426973
H       2.14265115      0.13409370      8.92319339
H       2.73984387      1.71360295      8.50240703
23
Frame 100  Energy = -425.8889083916 Hartree
C       0.40509539      1.22882125      0.18754989
C      -0.02300765      1.61461692      1.59461617
C       0.83764312      0.87676933      2.59237209
C       0.49390734      1.08960596      4.05698380
C       1.56295296      0.40991991      4.87016876
C       1.53157952      0.78867046      6.34138264
O       0.63688733      1.29026321      6.98175001
O       2.75069517      0.38795233      6.91581161
C       2.88571319      0.66481053      8.31102552
H      -0.19565349      1.60573902     -0.65968368
H       1.38747552      1.60269896     -0.00535557
H       0.51588743      0.16907333      0.08162003
H      -1.04090857      1.35346059      1.74688862
H       0.08712601      2.72139323      1.80176050
H       0.84686170     -0.24599025      2.41991220
H       1.83974479      1.22681687      2.42376841
H       0.52885385      2.17021488      4.26161405
H      -0.51159464      0.76974730      4.26778240
H       1.48993963     -0.67761425      4.81699857
H       2.57399509      0.59222334      4.49946393
H       3.84029376      0.34266178      8.62118365
H       2.14620754      0.13211278      8.90506553
H       2.74424451      1.70423711      8.50361223
23
Frame 105  Energy = -425.8887273902 Hartree
C       0.40596877      1.23110524      0.18746562
C      -0.02309605      1.61269794      1.59377250
C       0.83514767      0.87881441      2.59318534
C       0.49583139      1.08934294      4.05845520
C       1.56529717      0.40778514      4.86838782
C       1.52870486      0.78830812      6.33846906
O       0.63831195      1.28777428      6.98364750
O       2.75028063      0.38893781      6.91535856
C       2.88573013      0.66429096      8.31135124
H      -0.19465513      1.60899014     -0.64882024
H       1.39069875      1.60131312     -0.00534431
H       0.52522456      0.16436826      0.08191335
H      -1.03893159      1.36027581      1.74500464
H       0.09062134      2.71725165      1.80759106
H       0.85215379     -0.25425296      2.41212684
H       1.83031666      1.21666452      2.43817766
H       0.52810400      2.16538798      4.27467663
H      -0.50756482      0.76783925      4.27085014
H       1.48920149     -0.68052921      4.82048291
H       2.57633657      0.58962591      4.50577302
H       3.85732551      0.34896669      8.62803269
H       2.14911087      0.12989390      8.88670149
H       2.74918119      1.69649913      8.50467472
23
Frame 110  Energy = -425.8889619018 Hartree
C       0.40672581      1.23355811      0.18722319
C      -0.02295924      1.61090075      1.59297256
C       0.83252539      0.88040350      2.59393472
C       0.49782542      1.08925453      4.05971807
C       1.56764371      0.40560790      4.86687647
C       1.52602047      0.78783905      6.33574385
O       0.63994235      1.28522501      6.98544828
O       2.74974088      0.39003103      6.91488567
C       2.88562331      0.66369103      8.31155482
H      -0.19416406      1.61239423     -0.63696048
H       1.39567560      1.60079039     -0.00541024
H       0.53366477      0.15881453      0.08209841
H      -1.03954602      1.36705507      1.74329859
H       0.09382155      2.71041816      1.81256771
H       0.85692775     -0.25900530      2.40431606
H       1.82358827      1.20696326      2.45254514
H       0.52726695      2.16017606      4.28754506
H      -0.50400470      0.76505823      4.27479254
H       1.48787205     -0.68332527      4.82431717
H       2.57871934      0.58751083      4.51204079
H       3.87535721      0.35478844      8.63471179
H       2.15115451      0.12706727      8.86866363
H       2.75397706      1.69111500      8.50588583
23
Frame 115  Energy = -425.8889218318 Hartree
C       0.40756603      1.23607225      0.18683240
C      -0.02266984      1.60931516      1.59223261
C       0.82971405      0.88145420      2.59468915
C       0.49994030      1.08939197      4.06071707
C       1.57004006      0.40341070      4.86555160
C       1.52365966      0.78715525      6.33332214
O       0.64172268      1.28264518      6.98709135
O       2.74905173      0.39123468      6.91440327
C       2.88562811      0.66289559      8.31175095
H      -0.19422996      1.61572491     -0.62457120
H       1.40197250      1.60126800     -0.00548287
H       0.54101808      0.15284579      0.08249061
H      -1.04303987      1.37358069      1.74200832
H       0.09642895      2.70165137      1.81635437
H       0.86098357     -0.25987929      2.39673483
H       1.82008042      1.19809546      2.46644751
H       0.52635261      2.15466438      4.30035068
H      -0.50089929      0.76116815      4.27968157
H       1.48637258     -0.68615616      4.82829112
H       2.58095389      0.58618664      4.51801408
H       3.89298819      0.36013452      8.64087461
H       2.15192092      0.12324902      8.85137444
H       2.75826334      1.68853544      8.50725844
23
Frame 120  Energy = -425.8890437666 Hartree
C       0.40854350      1.23859147      0.18641401
C      -0.02228381      1.60789496      1.59144765
C       0.82671832      0.88206968      2.59553345
C       0.50210921      1.08965011      4.06161615
C       1.57235858      0.40124747      4.86456224
C       1.52159370      0.78638499      6.33112534
O       0.64357044      1.28004030      6.98867278
O       2.74812825      0.39255105      6.91395155
C       2.88582375      0.66194723      8.31187978
H      -0.19516439      1.61886014     -0.61201907
H       1.40930288      1.60253187     -0.00540090
H       0.54742139      0.14703665      0.08305044
H      -1.04919366      1.37960542      1.74114745
H       0.09890900      2.69097894      1.81939495
H       0.86456851     -0.25672642      2.38973268
H       1.82041629      1.19000572      2.47969657
H       0.52531661      2.14905364      4.31315820
H      -0.49883131      0.75661808      4.28506796
H       1.48416069     -0.68914644      4.83266477
H       2.58318644      0.58576984      4.52353143
H       3.90882918      0.36558917      8.64572803
H       2.15093207      0.11827169      8.83551994
H       2.76203461      1.68898055      8.50889640
23
Frame 125  Energy = -425.8888473576 Hartree
C       0.40971431      1.24108170      0.18608000
C      -0.02187224      1.60659551      1.59062369
C       0.82360288      0.88216271      2.59640342
C       0.50426617      1.08999016      4.06230760
C       1.57461465      0.39899094      4.86380050
C       1.51987903      0.78545330      6.32929921
O       0.64542870      1.27729490      6.99012194
O       2.74713505      0.39392995      6.91337510
C       2.88625187      0.66084800      8.31195802
H      -0.19776001      1.62243112     -0.59953056
H       1.41736941      1.60487039     -0.00469182
H       0.55270068      0.14230585      0.08339771
H      -1.05796677      1.38522560      1.74037236
H       0.10114812      2.67922573      1.82142067
H       0.86731015     -0.24962034      2.38313724
H       1.82492451      1.18281214      2.49192425
H       0.52428254      2.14385525      4.32563267
H      -0.49721885      0.75167986      4.29123142
H       1.48180118     -0.69178122      4.83697922
H       2.58582100      0.58583832      4.52843455
H       3.92229944      0.37084444      8.64937150
H       2.14809860      0.11147872      8.82178619
H       2.76543203      1.69255733      8.51077413
23
Frame 130  Energy = -425.8888913311 Hartree
C       0.41118006      1.24341421      0.18583792
C      -0.02149254      1.60534962      1.58992958
C       0.82040281      0.88182530      2.59732745
C       0.50639971      1.09050777      4.06290607
C       1.57683862      0.39668998      4.86324228
C       1.51841313      0.78441323      6.32783330
O       0.64730392      1.27455169      6.99143004
O       2.74605818      0.39540211      6.91269256
C       2.88702534      0.65961667      8.31216588
H      -0.20180754      1.62649991     -0.58815447
H       1.42579911      1.60814598     -0.00379464
H       0.55645999      0.13933923      0.08370600
H      -1.06857612      1.39028252      1.73941891
H       0.10291329      2.66689789      1.82219305
H       0.86898210     -0.23890097      2.37731956
H       1.83312351      1.17670760      2.50285885
H       0.52299798      2.13948810      4.33790719
H      -0.49603393      0.74626992      4.29828474
H       1.47925853     -0.69381788      4.84111577
H       2.58911879      0.58634213      4.53284274
H       3.93300865      0.37605271      8.65163147
H       2.14332601      0.10329059      8.81018795
H       2.76826911      1.69872978      8.51270866
23
Frame 135  Energy = -425.8887813792 Hartree
C       0.41301727      1.24557980      0.18568770
C      -0.02114055      1.60410980      1.58926047
C       0.81711826      0.88105140      2.59823287
C       0.50859471      1.09107520      4.06343931
C       1.57907401      0.39425066      4.86293603
C       1.51731770      0.78324767      6.32668985
O       0.64919255      1.27188195      6.99269004
O       2.74491880      0.39695866      6.91187564
C       2.88811422      0.65830075      8.31229385
H      -0.20743904      1.63090180     -0.57825805
H       1.43385785      1.61198584     -0.00295409
H       0.55877118      0.13798982      0.08376469
H      -1.08040750      1.39525550      1.73860597
H       0.10483830      2.65493240      1.82200171
H       0.86974553     -0.22496359      2.37196267
H       1.84381413      1.17172186      2.51248439
H       0.52182760      2.13604973      4.34973934
H      -0.49520104      0.74044576      4.30624222
H       1.47652277     -0.69559442      4.84548635
H       2.59248006      0.58717181      4.53650053
H       3.94028875      0.38131507      8.65252419
H       2.13689071      0.09379179      8.80086709
H       2.77044409      1.70671121      8.51466780
23
Frame 140  Energy = -425.8888344245 Hartree
C       0.41524155      1.24761305      0.18562344
C      -0.02088016      1.60287724      1.58870338
C       0.81384221      0.87997553      2.59922234
C       0.51070162      1.09166691      4.06387660
C       1.58117369      0.39170482      4.86286518
C       1.51663031      0.78192299      6.32593689
O       0.65106260      1.26919603      6.99376918
O       2.74371592      0.39859756      6.91097272
C       2.88957280      0.65702514      8.31229603
H      -0.21471444      1.63554956     -0.56995546
H       1.44117933      1.61606909     -0.00166343
H       0.55932155      0.13874417      0.08375295
H      -1.09251845      1.39980184      1.73789896
H       0.10669423      2.64378519      1.82124357
H       0.86979551     -0.20874684      2.36717341
H       1.85611702      1.16785350      2.52073103
H       0.52076861      2.13338057      4.36073779
H      -0.49398070      0.73411688      4.31446508
H       1.47358652     -0.69741611      4.84973385
H       2.59608437      0.58844134      4.53928889
H       3.94415449      0.38665868      8.65172756
H       2.12889989      0.08352142      8.79379051
H       2.77214240      1.71578289      8.51653536
23
Frame 145  Energy = -425.8888364116 Hartree
C       0.41773324      1.24945698      0.18562918
C      -0.02078166      1.60158613      1.58819481
C       0.81067265      0.87871634      2.60029772
C       0.51279868      1.09229399      4.06421525
C       1.58317962      0.38926235      4.86305016
C       1.51630590      0.78045733      6.32545178
O       0.65289604      1.26653837      6.99468455
O       2.74250573      0.40028683      6.90999787
C       2.89133780      0.65580390      8.31229535
H      -0.22364519      1.64070859     -0.56334118
H       1.44695640      1.62051790      0.00011094
H       0.55822918      0.14153722      0.08378564
H      -1.10410056      1.40415676      1.73710823
H       0.10837547      2.63463556      1.82001561
H       0.86945656     -0.19117504      2.36282766
H       1.86875687      1.16499286      2.52723032
H       0.51969193      2.13154377      4.37112307
H      -0.49175178      0.72746211      4.32250067
H       1.47039927     -0.69910889      4.85403005
H       2.59991616      0.58994322      4.54142713
H       3.94444668      0.39181320      8.64911611
H       2.12017232      0.07277330      8.78845499
H       2.77318269      1.72497184      8.51814619
23
Frame 150  Energy = -425.8888656758 Hartree
C       0.42054990      1.25101023      0.18573350
C      -0.02073299      1.60028344      1.58764940
C       0.80779897      0.87733158      2.60145363
C       0.51489005      1.09290729      4.06447037
C       1.58505427      0.38687846      4.86347973
C       1.51645536      0.77886974      6.32528378
O       0.65474097      1.26381556      6.99549658
O       2.74119545      0.40199664      6.90894015
C       2.89327648      0.65463854      8.31226841
H      -0.23375088      1.64639795     -0.55835749
H       1.45101316      1.62501706      0.00217308
H       0.55551245      0.14630323      0.08361081
H      -1.11415961      1.40806804      1.73641465
H       0.10949635      2.62790631      1.81815136
H       0.86801682     -0.17338385      2.35887026
H       1.88102309      1.16304897      2.53248563
H       0.51871433      2.13057913      4.38044006
H      -0.48869317      0.72068621      4.33049741
H       1.46732121     -0.70050870      4.85808843
H       2.60393952      0.59153969      4.54274589
H       3.94123516      0.39687960      8.64512898
H       2.11161659      0.06187064      8.78492274
H       2.77348686      1.73352746      8.51972314
23
Frame 155  Energy = -425.8885992987 Hartree
C       0.42365942      1.25237210      0.18588771
C      -0.02086802      1.59887287      1.58713491
C       0.80523896      0.87599984      2.60260917
C       0.51682050      1.09343595      4.06477396
C       1.58687671      0.38449911      4.86417846
C       1.51695338      0.77712687      6.32535756
O       0.65648756      1.26108668      6.99621489
O       2.73987228      0.40366181      6.90783652
C       2.89527734      0.65363224      8.31224442
H      -0.24471147      1.65247498     -0.55507802
H       1.45322606      1.62958444      0.00446734
H       0.55148609      0.15289758      0.08327703
H      -1.12241575      1.41172158      1.73549097
H       0.11036092      2.62402024      1.81563625
H       0.86556106     -0.15690295      2.35501773
H       1.89199211      1.16143179      2.53604324
H       0.51757184      2.13048354      4.38878491
H      -0.48445706      0.71406093      4.33850626
H       1.46399152     -0.70179142      4.86167031
H       2.60795136      0.59347353      4.54339944
H       3.93481006      0.40186751      8.63940481
H       2.10381922      0.05128102      8.78315140
H       2.77310312      1.74106808      8.52142463
23
Frame 160  Energy = -425.8890266041 Hartree
C       0.42707936      1.25358590      0.18605041
C      -0.02131635      1.59730508      1.58676237
C       0.80301397      0.87486082      2.60381467
C       0.51850321      1.09384002      4.06514459
C       1.58864854      0.38208025      4.86506866
C       1.51787217      0.77514427      6.32578552
O       0.65821113      1.25840923      6.99684914
O       2.73855204      0.40534096      6.90662299
C       2.89722932      0.65266427      8.31214963
H      -0.25579159      1.65843558     -0.55276880
H       1.45360023      1.63433297      0.00691338
H       0.54627529      0.16090154      0.08263711
H      -1.12799025      1.41506606      1.73398934
H       0.11117360      2.62345482      1.81266651
H       0.86254653     -0.14318587      2.35105605
H       1.90100572      1.15974191      2.53821378
H       0.51637296      2.13102990      4.39579512
H      -0.47940987      0.70771430      4.34619465
H       1.46051531     -0.70289055      4.86492543
H       2.61137033      0.59528531      4.54354816
H       3.92581471      0.40603522      8.63232236
H       2.09710619      0.04189733      8.78267934
H       2.77193857      1.74660589      8.52282167
23
Frame 165  Energy = -425.8891939123 Hartree
C       0.43077690      1.25472750      0.18618180
C      -0.02204875      1.59563175      1.58646964
C       0.80130048      0.87405644      2.60505397
C       0.52001306      1.09413355      4.06552748
C       1.59039429      0.37970375      4.86613264
C       1.51937887      0.77304475      6.32649895
O       0.65980691      1.25582645      6.99737425
O       2.73715903      0.40706028      6.90521604
C       2.89896091      0.65177319      8.31196533
H      -0.26651878      1.66407491     -0.55081512
H       1.45250766      1.63925659      0.00914042
H       0.53996154      0.16962315      0.08158167
H      -1.13012151      1.41812756      1.73207664
H       0.11200448      2.62589998      1.80903555
H       0.85870267     -0.13361212      2.34742818
H       1.90753136      1.15863027      2.53845649
H       0.51522790      2.13232245      4.40159275
H      -0.47312720      0.70177240      4.35354477
H       1.45733048     -0.70377904      4.86769728
H       2.61398223      0.59722577      4.54366594
H       3.91541027      0.40924043      8.62401113
H       2.09257134      0.03417501      8.78297426
H       2.77024505      1.74977605      8.52412869
23
Frame 170  Energy = -425.8892886638 Hartree
C       0.43457153      1.25580769      0.18624642
C      -0.02306407      1.59395165      1.58615551
C       0.80007789      0.87357839      2.60630641
C       0.52134503      1.09433959      4.06607283
C       1.59201160      0.37737945      4.86743697
C       1.52121540      0.77075388      6.32756502
O       0.66127527      1.25320564      6.99783445
O       2.73580387      0.40877729      6.90365795
C       2.90027065      0.65109900      8.31178590
H      -0.27655217      1.66923613     -0.54905931
H       1.45028106      1.64383338      0.01129468
H       0.53278442      0.17887004      0.08030266
H      -1.12903088      1.42085006      1.72952102
H       0.11282744      2.63106416      1.80511256
H       0.85478245     -0.12902051      2.34403273
H       1.91113695      1.15796350      2.53696376
H       0.51410629      2.13404345      4.40667696
H      -0.46591367      0.69629279      4.36067998
H       1.45436128     -0.70452449      4.87026407
H       2.61564532      0.59924765      4.54359100
H       3.90451999      0.41139377      8.61497131
H       2.09012823      0.02808812      8.78425867
H       2.76841767      1.75057007      8.52516802
23
Frame 175  Energy = -425.8892928042 Hartree
C       0.43832707      1.25693792      0.18621316
C      -0.02422555      1.59233046      1.58588233
C       0.79928376      0.87348565      2.60756645
C       0.52257400      1.09444184      4.06667243
C       1.59343371      0.37518625      4.86903599
C       1.52344705      0.76828393      6.32885855
O       0.66273619      1.25053933      6.99824882
O       2.73441268      0.41054393      6.90196655
C       2.90113001      0.65048090      8.31155109
H      -0.28560295      1.67386542     -0.54670332
H       1.44732185      1.64818824      0.01350314
H       0.52483572      0.18774037      0.07851671
H      -1.12526547      1.42298438      1.72626555
H       0.11343818      2.63878264      1.80088964
H       0.85029659     -0.12980098      2.34072013
H       1.91152208      1.15741528      2.53422989
H       0.51280847      2.13579223      4.41051367
H      -0.45802569      0.69088658      4.36738523
H       1.45142760     -0.70513455      4.87271033
H       2.61658730      0.60117985      4.54304673
H       3.89417525      0.41196704      8.60548175
H       2.09075782      0.02427825      8.78601337
H       2.76630735      1.74847725      8.52565849
23
Frame 180  Energy = -425.8892375827 Hartree
C       0.44200651      1.25817806      0.18609615
C      -0.02547352      1.59076579      1.58573974
C       0.79889269      0.87368147      2.60882989
C       0.52368377      1.09441064      4.06736082
C       1.59483005      0.37312999      4.87080671
C       1.52614221      0.76562257      6.33034571
O       0.66409249      1.24794172      6.99865116
O       2.73313726      0.41237273      6.90023085
C       2.90149868      0.64998817      8.31135184
H      -0.29315392      1.67769570     -0.54367073
H       1.44373786      1.65244780      0.01560961
H       0.51642405      0.19565653      0.07619252
H      -1.11925005      1.42439282      1.72270920
H       0.11370953      2.64834274      1.79587821
H       0.84545765     -0.13583057      2.33738480
H       1.90869151      1.15725268      2.52984024
H       0.51134227      2.13697450      4.41280150
H      -0.44962667      0.68605709      4.37375901
H       1.44850039     -0.70611224      4.87460928
H       2.61687956      0.60277779      4.54229878
H       3.88531785      0.41055989      8.59580281
H       2.09461855      0.02270675      8.78817437
H       2.76352897      1.74357281      8.52568983
23
Frame 185  Energy = -425.8891219281 Hartree
C       0.44567700      1.25952658      0.18592554
C      -0.02686513      1.58951531      1.58571221
C       0.79894668      0.87413337      2.61015110
C       0.52469899      1.09428481      4.06819157
C       1.59612885      0.37116727      4.87275754
C       1.52922404      0.76276421      6.33211270
O       0.66525823      1.24541246      6.99897266
O       2.73186672      0.41427247      6.89851517
C       2.90124444      0.64979266      8.31103565
H      -0.29876600      1.68009166     -0.53990335
H       1.43950680      1.65710752      0.01761812
H       0.50759240      0.20190519      0.07309692
H      -1.11112324      1.42531419      1.71890473
H       0.11395954      2.65880802      1.79005118
H       0.83985261     -0.14646548      2.33400167
H       1.90306532      1.15748325      2.52404300
H       0.51022332      2.13784669      4.41359828
H      -0.44092422      0.68197606      4.37973463
H       1.44595957     -0.70723380      4.87583388
H       2.61626568      0.60400088      4.54148161
H       3.87881979      0.40734307      8.58629322
H       2.10133713      0.02323968      8.79061394
H       2.76076560      1.73625212      8.52528527
23
Frame 190  Energy = -425.8896741199 Hartree
C       0.44912483      1.26103991      0.18572205
C      -0.02830427      1.58862243      1.58588371
C       0.79939008      0.87476950      2.61142110
C       0.52570485      1.09407604      4.06918561
C       1.59736142      0.36934820      4.87485937
C       1.53264427      0.75974885      6.33407488
O       0.66629599      1.24294950      6.99920791
O       2.73073321      0.41619337      6.89683372
C       2.90039850      0.64989368      8.31062119
H      -0.30234098      1.68142960     -0.53545952
H       1.43536790      1.66225062      0.01905064
H       0.49833377      0.20582636      0.06907459
H      -1.10170915      1.42559928      1.71492454
H       0.11402897      2.66903476      1.78362637
H       0.83321732     -0.16020920      2.33120375
H       1.89466390      1.15819444      2.51720646
H       0.50906019      2.13824370      4.41304338
H      -0.43238643      0.67839095      4.38574178
H       1.44398790     -0.70864686      4.87620230
H       2.61483161      0.60470294      4.54002916
H       3.87563359      0.40207308      8.57720283
H       2.11057727      0.02584526      8.79350080
H       2.75792261      1.72679701      8.52462067
23
Frame 195  Energy = -425.8896530817 Hartree
C       0.45222192      1.26280885      0.18555027
C      -0.02975889      1.58801765      1.58621390
C       0.80023000      0.87547148      2.61264370
C       0.52668187      1.09381955      4.07030030
C       1.59850727      0.36768888      4.87713005
C       1.53636875      0.75665334      6.33615007
O       0.66721140      1.24057235      6.99944110
O       2.72969139      0.41814102      6.89517924
C       2.89889870      0.65011213      8.31003356
H      -0.30392016      1.68160006     -0.53034311
H       1.43198683      1.66744870      0.01983331
H       0.48908268      0.20742457      0.06446585
H      -1.09191797      1.42520925      1.71123029
H       0.11381763      2.67783972      1.77655817
H       0.82602725     -0.17593059      2.32915073
H       1.88356709      1.15926925      2.50935705
H       0.50786043      2.13843813      4.41125666
H      -0.42421485      0.67508425      4.39152795
H       1.44235015     -0.70998209      4.87603096
H       2.61281694      0.60486499      4.53852167
H       3.87589508      0.39501316      8.56887226
H       2.12216472      0.03040241      8.79674777
H       2.75485095      1.71575495      8.52398637
23
Frame 200  Energy = -425.8897013807 Hartree
C       0.45497528      1.26484910      0.18548221
C      -0.03109589      1.58782641      1.58669636
C       0.80142688      0.87618769      2.61373118
C       0.52758627      1.09347310      4.07162777
C       1.59956403      0.36617859      4.87960128
C       1.54044348      0.75348809      6.33834201
O       0.66804818      1.23824280      6.99967380
O       2.72874725      0.42004278      6.89354851
C       2.89691448      0.65037977      8.30932794
H      -0.30288805      1.68079505     -0.52434983
H       1.42944754      1.67297358      0.01999248
H       0.47996288      0.20653395      0.05928629
H      -1.08238172      1.42428513      1.70741777
H       0.11264021      2.68474352      1.76897729
H       0.81822851     -0.19249490      2.32818798
H       1.87036375      1.16056495      2.50036258
H       0.50661990      2.13840387      4.40818383
H      -0.41687138      0.67218291      4.39710260
H       1.44106573     -0.71131532      4.87513665
H       2.61025440      0.60453358      4.53674995
H       3.87956327      0.38650792      8.56115988
H       2.13565589      0.03658517      8.80079617
H       2.75166815      1.70397508      8.52338429
23
Frame 205  Energy = -425.8892290715 Hartree
C       0.45738164      1.26708169      0.18541219
C      -0.03216802      1.58793094      1.58716350
C       0.80287556      0.87681707      2.61474372
C       0.52856976      1.09306071      4.07311519
C       1.60052107      0.36479798      4.88225489
C       1.54474867      0.75022092      6.34069047
O       0.66875081      1.23596098      6.99983388
O       2.72791538      0.42188369      6.89198159
C       2.89455964      0.65069129      8.30853774
H      -0.29939067      1.67912257     -0.51785650
H       1.42812590      1.67891077      0.01943025
H       0.47099653      0.20390040      0.05349697
H      -1.07394882      1.42246400      1.70340445
H       0.11078860      2.68975487      1.76087580
H       0.80960458     -0.20848601      2.32871534
H       1.85569427      1.16220925      2.49015513
H       0.50564077      2.13831708      4.40415531
H      -0.41044729      0.66973655      4.40218749
H       1.44003873     -0.71302870      4.87352946
H       2.60693224      0.60361634      4.53481466
H       3.88621532      0.37674929      8.55377010
H       2.15030790      0.04356304      8.80545751
H       2.74811685      1.69262217      8.52279037
23
Frame 210  Energy = -425.8893018229 Hartree
C       0.45947572      1.26945831      0.18524743
C      -0.03301322      1.58838575      1.58764053
C       0.80449554      0.87724507      2.61567959
C       0.52957996      1.09253214      4.07476678
C       1.60142260      0.36364156      4.88503224
C       1.54919444      0.74693231      6.34327167
O       0.66940151      1.23364718      6.99994837
O       2.72717844      0.42375834      6.89043296
C       2.89199561      0.65103199      8.30761645
H      -0.29414404      1.67696488     -0.51083505
H       1.42809719      1.68538692      0.01799627
H       0.46275520      0.19962662      0.04723081
H      -1.06748717      1.41936845      1.69969520
H       0.10843523      2.69300138      1.75205163
H       0.80040532     -0.22284934      2.33038367
H       1.84051246      1.16427118      2.47922529
H       0.50471473      2.13812157      4.39905469
H      -0.40512424      0.66741628      4.40677862
H       1.43889944     -0.71492958      4.87140316
H       2.60319460      0.60197147      4.53284166
H       3.89498468      0.36569712      8.54648416
H       2.16498897      0.05052461      8.81104430
H       2.74428485      1.68247744      8.52254140
23
Frame 215  Energy = -425.8890476002 Hartree
C       0.46124832      1.27191218      0.18507538
C      -0.03359228      1.58931177      1.58832312
C       0.80615475      0.87734162      2.61649040
C       0.53064633      1.09178752      4.07648589
C       1.60220936      0.36258563      4.88790472
C       1.55375665      0.74359564      6.34602426
O       0.66997002      1.23130702      7.00007722
O       2.72657630      0.42557886      6.88896334
C       2.88930040      0.65127912      8.30639731
H      -0.28743581      1.67496462     -0.50395916
H       1.42928073      1.69224820      0.01562105
H       0.45514090      0.19399930      0.04068986
H      -1.06431649      1.41494588      1.69652854
H       0.10495676      2.69395233      1.74270921
H       0.79112510     -0.23455965      2.33390108
H       1.82600832      1.16686802      2.46730401
H       0.50411255      2.13786098      4.39289681
H      -0.40108589      0.66520414      4.41061486
H       1.43787320     -0.71660266      4.86871361
H       2.59938608      0.60000241      4.53078537
H       3.90489262      0.35414315      8.53975724
H       2.17889413      0.05673799      8.81783191
H       2.73978257      1.67434086      8.52288491
23
Frame 220  Energy = -425.8891295162 Hartree
C       0.46261294      1.27436363      0.18486923
C      -0.03377797      1.59073447      1.58918268
C       0.80770195      0.87716153      2.61713073
C       0.53179356      1.09091841      4.07827005
C       1.60290228      0.36173606      4.89087060
C       1.55836300      0.74015796      6.34883331
O       0.67047412      1.22894582      7.00016623
O       2.72615738      0.42737313      6.88758920
C       2.88668407      0.65144447      8.30495397
H      -0.27947589      1.67302798     -0.49766341
H       1.43145543      1.69940727      0.01295273
H       0.44846551      0.18798187      0.03371876
H      -1.06469291      1.40922805      1.69357318
H       0.10097259      2.69295532      1.73332902
H       0.78190845     -0.24327859      2.33934792
H       1.81315102      1.17010225      2.45472151
H       0.50415126      2.13757221      4.38582509
H      -0.39833563      0.66302499      4.41401709
H       1.43740210     -0.71818846      4.86533532
H       2.59600023      0.59747939      4.52883646
H       3.91517442      0.34235392      8.53319056
H       2.19135046      0.06183011      8.82641186
H       2.73475989      1.66867764      8.52388965
23
Frame 225  Energy = -425.8893153450 Hartree
C       0.46365759      1.27668777      0.18471320
C      -0.03359183      1.59253715      1.59007968
C       0.80909508      0.87658813      2.61754354
C       0.53299755      1.08995659      4.08017873
C       1.60353568      0.36117352      4.89387169
C       1.56295136      0.73665364      6.35148050
O       0.67085153      1.22661093      7.00020982
O       2.72586513      0.42917813      6.88630465
C       2.88436712      0.65143604      8.30327005
H      -0.27105911      1.67176194     -0.49219681
H       1.43444407      1.70648598      0.00953776
H       0.44296895      0.18249346      0.02658422
H      -1.06829730      1.40250013      1.69063407
H       0.09649468      2.69060280      1.72384281
H       0.77282653     -0.24885029      2.34643061
H       1.80340824      1.17432649      2.44121779
H       0.50491470      2.13779845      4.37797639
H      -0.39722670      0.66062630      4.41712724
H       1.43751574     -0.71948800      4.86192296
H       2.59306737      0.59444879      4.52675091
H       3.92460233      0.33087777      8.52664767
H       2.20165190      0.06544652      8.83646915
H       2.72955317      1.66592564      8.52602651
23
Frame 230  Energy = -425.8890208370 Hartree
C       0.46446139      1.27875504      0.18468776
C      -0.03312837      1.59466508      1.59104455
C       0.81037294      0.87567383      2.61776767
C       0.53431583      1.08888438      4.08225304
C       1.60394571      0.36067067      4.89702930
C       1.56750155      0.73316440      6.35412729
O       0.67113841      1.22429940      7.00021050
O       2.72584198      0.43089991      6.88516827
C       2.88235855      0.65141535      8.30131390
H      -0.26282253      1.67098477     -0.48805323
H       1.43815316      1.71342805      0.00560336
H       0.43856542      0.17833820      0.01936892
H      -1.07462303      1.39468557      1.68793513
H       0.09138548      2.68695036      1.71493734
H       0.76370067     -0.25092339      2.35530407
H       1.79726575      1.17917947      2.42710252
H       0.50602351      2.13819266      4.36942002
H      -0.39772459      0.65863216      4.41944783
H       1.43819792     -0.72046026      4.85822916
H       2.59077845      0.59108946      4.52431252
H       3.93229450      0.32016267      8.52005890
H       2.20944905      0.06701382      8.84824782
H       2.72419999      1.66645006      8.52932198
23
Frame 235  Energy = -425.8892563801 Hartree
C       0.46515943      1.28059970      0.18479134
C      -0.03234580      1.59706200      1.59206520
C       0.81139521      0.87437564      2.61793888
C       0.53567340      1.08770930      4.08442191
C       1.60418632      0.36028040      4.90022542
C       1.57194552      0.72965204      6.35673416
O       0.67138467      1.22196082      7.00013757
O       2.72604837      0.43264816      6.88423028
C       2.88074154      0.65126256      8.29912518
H      -0.25527925      1.67118743     -0.48608341
H       1.44231415      1.71981066      0.00112778
H       0.43508969      0.17612525      0.01223067
H      -1.08290176      1.38601733      1.68539248
H       0.08597086      2.68228954      1.70670006
H       0.75477863     -0.24935547      2.36548806
H       1.79495311      1.18470780      2.41276350
H       0.50752218      2.13854645      4.36019234
H      -0.39955467      0.65703137      4.42081536
H       1.43924367     -0.72101350      4.85410983
H       2.58952190      0.58732703      4.52138005
H       3.93767957      0.31068960      8.51325124
H       2.21459724      0.06642151      8.86166167
H       2.71885711      1.66993343      8.53325055
23
Frame 240  Energy = -425.8893488831 Hartree
C       0.46564649      1.28210832      0.18493232
C      -0.03137933      1.59954353      1.59310210
C       0.81219665      0.87283911      2.61807258
C       0.53709450      1.08645009      4.08653392
C       1.60422912      0.35997439      4.90330240
C       1.57617147      0.72617377      6.35926067
O       0.67156033      1.21960725      6.99997014
O       2.72651244      0.43432848      6.88345402
C       2.87958578      0.65096487      8.29673011
H      -0.24866408      1.67271067     -0.48633798
H       1.44638617      1.72558003     -0.00395815
H       0.43286599      0.17605147      0.00529437
H      -1.09212343      1.37696633      1.68266488
H       0.08029359      2.67724039      1.69899583
H       0.74622054     -0.24448141      2.37698518
H       1.79608397      1.19062628      2.39809626
H       0.50927845      2.13955412      4.35077355
H      -0.40233957      0.65564525      4.42147208
H       1.44071124     -0.72134372      4.84963387
H       2.58908497      0.58291595      4.51823229
H       3.94008329      0.30281213      8.50603610
H       2.21760600      0.06401493      8.87640496
H       2.71366453      1.67578502      8.53794891
23
Frame 245  Energy = -425.8892088151 Hartree
C       0.46606646      1.28330681      0.18519073
C      -0.03044776      1.60203187      1.59410454
C       0.81289848      0.87097892      2.61816764
C       0.53860409      1.08519364      4.08881057
C       1.60412218      0.35965674      4.90633394
C       1.58017228      0.72286027      6.36176220
O       0.67179921      1.21724609      6.99974027
O       2.72727228      0.43589840      6.88288855
C       2.87886318      0.65053573      8.29433361
H      -0.24328994      1.67578707     -0.48904071
H       1.45036283      1.73044063     -0.00923755
H       0.43170086      0.17799781     -0.00130298
H      -1.10173503      1.36770252      1.67980723
H       0.07412951      2.67224303      1.69230977
H       0.73810661     -0.23654032      2.38908457
H       1.80031755      1.19696979      2.38353970
H       0.51114133      2.14095324      4.34139179
H      -0.40576498      0.65506064      4.42121306
H       1.44241159     -0.72131527      4.84505504
H       2.58920124      0.57772577      4.51498589
H       3.93931937      0.29686058      8.49796423
H       2.21876698      0.06015309      8.89172002
H       2.70890091      1.68339818      8.54282018
23
Frame 250  Energy = -425.8894515447 Hartree
C       0.46639123      1.28425579      0.18559607
C      -0.02949935      1.60445591      1.59500897
C       0.81339340      0.86882403      2.61817774
C       0.54017560      1.08397567      4.09123788
C       1.60383355      0.35942463      4.90931956
C       1.58381025      0.71967912      6.36427183
O       0.67201033      1.21482789      6.99944722
O       2.72835181      0.43738991      6.88257093
C       2.87853379      0.64998289      8.29199351
H      -0.23918857      1.68035592     -0.49441353
H       1.45396960      1.73441708     -0.01457284
H       0.43200535      0.18172233     -0.00737036
H      -1.11052544      1.35838053      1.67681903
H       0.06743800      2.66803495      1.68677375
H       0.73026175     -0.22609414      2.40164615
H       1.80738829      1.20348924      2.36956804
H       0.51297240      2.14266346      4.33194133
H      -0.40991467      0.65489889      4.42012973
H       1.44458398     -0.72129429      4.84054234
H       2.58985994      0.57221719      4.51145261
H       3.93546756      0.29271433      8.48964243
H       2.21860064      0.05516764      8.90689573
H       2.70468897      1.69227461      8.54776124
23
Frame 255  Energy = -425.8892748570 Hartree
C       0.46668926      1.28502578      0.18608310
C      -0.02869828      1.60672513      1.59593210
C       0.81377196      0.86658951      2.61805144
C       0.54175054      1.08276530      4.09373505
C       1.60345140      0.35924333      4.91221338
C       1.58704672      0.71668285      6.36675935
O       0.67224130      1.21235522      6.99908608
O       2.72963024      0.43870786      6.88246691
C       2.87850502      0.64933241      8.28958129
H      -0.23639114      1.68637978     -0.50207113
H       1.45666869      1.73698571     -0.01954803
H       0.43374473      0.18743961     -0.01297663
H      -1.11777684      1.34944225      1.67412445
H       0.06034446      2.66530124      1.68247396
H       0.72312460     -0.21378117      2.41439128
H       1.81594999      1.20929233      2.35639375
H       0.51470083      2.14443476      4.32262662
H      -0.41413801      0.65525537      4.41801256
H       1.44695544     -0.72113984      4.83621516
H       2.59067295      0.56644356      4.50781099
H       3.92856714      0.29053934      8.48123135
H       2.21759950      0.04975540      8.92097607
H       2.70104788      1.70127479      8.55233824
23
Frame 260  Energy = -425.8891755280 Hartree
C       0.46695589      1.28568705      0.18651201
C      -0.02818363      1.60876584      1.59679772
C       0.81415758      0.86434940      2.61792349
C       0.54316567      1.08142949      4.09626913
C       1.60290042      0.35918912      4.91509886
C       1.58986051      0.71379608      6.36914698
O       0.67252551      1.20979081      6.99862334
O       2.73117523      0.43984861      6.88267030
C       2.87875515      0.64854982      8.28724155
H      -0.23432240      1.69382935     -0.51177889
H       1.45852378      1.73798348     -0.02416421
H       0.43618714      0.19520596     -0.01809397
H      -1.12298578      1.34103265      1.67153527
H       0.05265730      2.66481886      1.67917907
H       0.71641088     -0.20062955      2.42691657
H       1.82543783      1.21363797      2.34437060
H       0.51656274      2.14627189      4.31361850
H      -0.41847587      0.65665707      4.41516933
H       1.44930867     -0.72082788      4.83183068
H       2.59122026      0.56051387      4.50411137
H       3.91930115      0.29037100      8.47278936
H       2.21636894      0.04386117      8.93354405
H       2.69806798      1.70956113      8.55667666
23
Frame 265  Energy = -425.8894245856 Hartree
C       0.46726851      1.28623516      0.18679581
C      -0.02796593      1.61056108      1.59753547
C       0.81456503      0.86228220      2.61774573
C       0.54444834      1.08001572      4.09884112
C       1.60231405      0.35930536      4.91796193
C       1.59217083      0.71103536      6.37136657
O       0.67282113      1.20717374      6.99810645
O       2.73310559      0.44080108      6.88313306
C       2.87928168      0.64768317      8.28513739
H      -0.23283523      1.70229311     -0.52301228
H       1.45943684      1.73749295     -0.02823807
H       0.43970150      0.20439111     -0.02272341
H      -1.12566168      1.33356834      1.66895338
H       0.04473360      2.66665680      1.67737549
H       0.71037392     -0.18841881      2.43872894
H       1.83509738      1.21654890      2.33366908
H       0.51833856      2.14795549      4.30539107
H      -0.42319691      0.65883482      4.41122249
H       1.45167866     -0.72026709      4.82766096
H       2.59180057      0.55476867      4.50069632
H       3.90793704      0.29161252      8.46467283
H       2.21559791      0.03807937      8.94391768
H       2.69625165      1.71643450      8.56070996
23
Frame 270  Energy = -425.8893971746 Hartree
C       0.46751295      1.28669483      0.18702313
C      -0.02802108      1.61200485      1.59807730
C       0.81496092      0.86043407      2.61749580
C       0.54565446      1.07860387      4.10133873
C       1.60179118      0.35946572      4.92065703
C       1.59389558      0.70844166      6.37343266
O       0.67326948      1.20451455      6.99752079
O       2.73535321      0.44165725      6.88377177
C       2.87985784      0.64677819      8.28348580
H      -0.23134009      1.71139448     -0.53514091
H       1.45915791      1.73549333     -0.03183912
H       0.44423125      0.21443694     -0.02667405
H      -1.12553999      1.32695779      1.66674314
H       0.03689428      2.67128879      1.67732701
H       0.70498704     -0.17818928      2.44953477
H       1.84400132      1.21740973      2.32461283
H       0.52016296      2.14972077      4.29817249
H      -0.42781416      0.66184783      4.40630361
H       1.45383750     -0.71964287      4.82387251
H       2.59236667      0.54883317      4.49794748
H       3.89542637      0.29424692      8.45700338
H       2.21499915      0.03308568      8.95210298
H       2.69540940      1.72079767      8.56404265
23
Frame 275  Energy = -425.8896401557 Hartree
C       0.46763933      1.28716535      0.18716675
C      -0.02838210      1.61323245      1.59837464
C       0.81550702      0.85893617      2.61707741
C       0.54683997      1.07715595      4.10370307
C       1.60131046      0.35971851      4.92324130
C       1.59500720      0.70610509      6.37534230
O       0.67378495      1.20181806      6.99685787
O       2.73786008      0.44232399      6.88461670
C       2.88040519      0.64598224      8.28221920
H      -0.22971289      1.72056763     -0.54740588
H       1.45748939      1.73196072     -0.03501350
H       0.44979605      0.22487076     -0.03023294
H      -1.12264646      1.32093475      1.66481293
H       0.02902422      2.67849535      1.67897029
H       0.69994549     -0.17056544      2.45901151
H       1.85159186      1.21621621      2.31741919
H       0.52188959      2.15149436      4.29169292
H      -0.43221310      0.66583643      4.40040504
H       1.45633917     -0.71869149      4.82030321
H       2.59326862      0.54288948      4.49602063
H       3.88281005      0.29842705      8.45017433
H       2.21513770      0.02895017      8.95745551
H       2.69556088      1.72232613      8.56628610
23
Frame 280  Energy = -425.8896328596 Hartree
C       0.46758530      1.28782334      0.18719839
C      -0.02902380      1.61411363      1.59850657
C       0.81621035      0.85787515      2.61661625
C       0.54799343      1.07574435      4.10595368
C       1.60099819      0.36001089      4.92560450
C       1.59560413      0.70415407      6.37705362
O       0.67429520      1.19903889      6.99611450
O       2.74066864      0.44288926      6.88568545
C       2.88088439      0.64528736      8.28103589
H      -0.22742370      1.72945209     -0.55894315
H       1.45493786      1.72741775     -0.03735482
H       0.45600305      0.23475970     -0.03340431
H      -1.11697144      1.31546102      1.66291336
H       0.02110972      2.68709418      1.68210693
H       0.69537240     -0.16639491      2.46671583
H       1.85732678      1.21289340      2.31205259
H       0.52362587      2.15323910      4.28619007
H      -0.43616069      0.67056028      4.39403548
H       1.45883747     -0.71771896      4.81684207
H       2.59395702      0.53701474      4.49464562
H       3.87145270      0.30340083      8.44400998
H       2.21608400      0.02619205      8.95969716
H       2.69650566      1.72128812      8.56767538
23
Frame 285  Energy = -425.8894817869 Hartree
C       0.46739579      1.28858527      0.18698885
C      -0.02984530      1.61473119      1.59852209
C       0.81711115      0.85730108      2.61615553
C       0.54909877      1.07435392      4.10812721
C       1.60068396      0.36028195      4.92776927
C       1.59576588      0.70234702      6.37853022
O       0.67489811      1.19618947      6.99530855
O       2.74386315      0.44334826      6.88690270
C       2.88126380      0.64477618      8.28013697
H      -0.22449309      1.73831269     -0.56975080
H       1.45128268      1.72197983     -0.03910512
H       0.46272256      0.24350695     -0.03613961
H      -1.10887001      1.31090590      1.66120432
H       0.01277145      2.69664746      1.68671329
H       0.69129378     -0.16639077      2.47261311
H       1.86077061      1.20770250      2.30852999
H       0.52584665      2.15438062      4.28159183
H      -0.43929373      0.67611700      4.38720491
H       1.46131594     -0.71718650      4.81381482
H       2.59430567      0.53134789      4.49386209
H       3.86236522      0.30869647      8.43874815
H       2.21788895      0.02482633      8.95868169
H       2.69845309      1.71741041      8.56827863
23
Frame 290  Energy = -425.8895865345 Hartree
C       0.46698807      1.28957229      0.18654171
C      -0.03089597      1.61518368      1.59848993
C       0.81823092      0.85720578      2.61578766
C       0.55012266      1.07316057      4.11022640
C       1.60033649      0.36054747      4.92968739
C       1.59546128      0.70070107      6.37976120
O       0.67560126      1.19329724      6.99445064
O       2.74729355      0.44376712      6.88835849
C       2.88143531      0.64446070      8.27961927
H      -0.22061099      1.74694953     -0.57925704
H       1.44722831      1.71595348     -0.04026899
H       0.46987624      0.25054047     -0.03858436
H      -1.09853579      1.30699260      1.65957050
H       0.00435049      2.70646353      1.69275652
H       0.68730946     -0.17052125      2.47677840
H       1.86181929      1.20057147      2.30706507
H       0.52848982      2.15509674      4.27767925
H      -0.44182326      0.68244829      4.38018823
H       1.46329560     -0.71685951      4.81140429
H       2.59411581      0.52605330      4.49401321
H       3.85665380      0.31379246      8.43500392
H       2.22060603      0.02472368      8.95429834
H       2.70136930      1.71100307      8.56764822
23
Frame 295  Energy = -425.8898573946 Hartree
C       0.46644502      1.29094966      0.18592238
C      -0.03205633      1.61550541      1.59846025
C       0.81948896      0.85757019      2.61534720
C       0.55103506      1.07208279      4.11217819
C       1.59997808      0.36071840      4.93143975
C       1.59466706      0.69926715      6.38071997
O       0.67635660      1.19036819      6.99355703
O       2.75097848      0.44409597      6.88997788
C       2.88128855      0.64432664      8.27945867
H      -0.21548716      1.75491882     -0.58704835
H       1.44361339      1.70953917     -0.04106278
H       0.47743686      0.25534031     -0.04095331
H      -1.08669767      1.30383318      1.65810865
H      -0.00375615      2.71544258      1.69984626
H       0.68356643     -0.17872175      2.47901316
H       1.86054984      1.19114896      2.30796745
H       0.53116845      2.15494239      4.27487108
H      -0.44372688      0.68945222      4.37265634
H       1.46504628     -0.71683247      4.80955018
H       2.59362186      0.52111714      4.49498141
H       3.85514443      0.31857839      8.43294843
H       2.22366067      0.02585399      8.94698004
H       2.70521016      1.70251628      8.56574865
23
Frame 300  Energy = -425.8898828662 Hartree
C       0.46573783      1.29260663      0.18514167
C      -0.03339294      1.61575604      1.59841810
C       0.82093478      0.85829782      2.61495727
C       0.55176309      1.07120633      4.11400703
C       1.59971093      0.36083429      4.93299457
C       1.59348961      0.69803109      6.38138997
O       0.67722255      1.18740296      6.99265204
O       2.75489081      0.44433255      6.89168505
C       2.88079950      0.64431826      8.27965115
H      -0.20917370      1.76201256     -0.59293414
H       1.44068351      1.70307091     -0.04119315
H       0.48515960      0.25728605     -0.04332690
H      -1.07409258      1.30085217      1.65725850
H      -0.01150474      2.72312304      1.70781011
H       0.68055716     -0.18989834      2.47958945
H       1.85731445      1.17975529      2.31098458
H       0.53412939      2.15440089      4.27346619
H      -0.44521690      0.69683755      4.36474484
H       1.46669611     -0.71702266      4.80825182
H       2.59260260      0.51665728      4.49676095
H       3.85782625      0.32326428      8.43299930
H       2.22729238      0.02782574      8.93721346
H       2.71002151      1.69230884      8.56293084
