23
Frame 5  Energy = -425.8895919785 Hartree
C       0.26644479      1.17135965      0.03848186
C      -0.05887193      1.53966835      1.50343449
C       0.88430142      0.90982448      2.56438758
C       0.54462735      1.16343440      4.02443143
C       1.61795244      0.46152036      4.87501467
C       1.54985245      0.84952313      6.39739015
O       0.67722367      1.45274626      6.99744523
O       2.64038482      0.39211147      6.97619883
C       2.78408467      0.69349447      8.37378528
H      -0.36188241      1.74704613     -0.58711265
H       1.34264568      1.28272088     -0.21547249
H       0.05653536      0.08504850     -0.11399197
H      -1.12584249      1.36909375      1.77182156
H       0.06971121      2.60439654      1.62095571
H       1.00447876     -0.14491947      2.31414846
H       1.93221182      1.25158089      2.43048423
H       0.52582083      2.21971500      4.23578171
H      -0.46179970      0.77666040      4.27504884
H       1.51907239     -0.63131046      4.76761612
H       2.56780786      0.76891069      4.46353643
H       3.80624188      0.24577423      8.66162018
H       1.92205625      0.35147929      8.90819102
H       2.95338071      1.75409520      8.49081307
23
Frame 10  Energy = -425.8898284435 Hartree
C       0.26773079      1.17189328      0.03970743
C      -0.05573355      1.54141985      1.50540329
C       0.88315199      0.90867754      2.56601158
C       0.54202884      1.16355446      4.02272443
C       1.61784309      0.45994940      4.87121487
C       1.54909220      0.84831711      6.39793238
O       0.67632007      1.45168961      6.99841669
O       2.64283792      0.39100927      6.97503120
C       2.78480879      0.69387246      8.37450099
H      -0.36290366      1.74548673     -0.58282279
H       1.35125453      1.28788520     -0.20695037
H       0.06102077      0.08478802     -0.10815467
H      -1.13613629      1.36995971      1.77332831
H       0.06661957      2.59658824      1.61812960
H       1.00337722     -0.13605449      2.32277148
H       1.94328848      1.25284566      2.42093924
H       0.52002794      2.22246996      4.23259514
H      -0.46579272      0.77148114      4.28157936
H       1.50923707     -0.63134932      4.76323425
H       2.56582367      0.76892192      4.45751852
H       3.81435795      0.24813688      8.65876958
H       1.92088574      0.34377760      8.91335638
H       2.96033585      1.75807806      8.48916421
23
Frame 15  Energy = -425.8902825227 Hartree
C       0.26923399      1.17205424      0.04130071
C      -0.05258924      1.54313191      1.50755276
C       0.88214742      0.90764027      2.56732278
C       0.53939403      1.16340012      4.02104599
C       1.61746354      0.45855832      4.86763790
C       1.54811664      0.84712245      6.39816664
O       0.67548864      1.45058033      6.99930355
O       2.64533306      0.38988964      6.97399997
C       2.78599481      0.69419733      8.37511254
H      -0.36508838      1.74507329     -0.58146460
H       1.35769265      1.29345160     -0.19809269
H       0.06549740      0.08622557     -0.10267780
H      -1.14345104      1.37025520      1.77373292
H       0.06350423      2.59115986      1.61537132
H       1.00145486     -0.12867557      2.33203828
H       1.95217055      1.25455571      2.41097223
H       0.51428274      2.22571919      4.22936808
H      -0.46859753      0.76687409      4.28730294
H       1.49982647     -0.63033526      4.75933329
H       2.56539508      0.76877954      4.45196745
H       3.81711287      0.25098280      8.65566528
H       1.92006839      0.33586943      8.91943475
H       2.96580917      1.76249286      8.48764387
23
Frame 20  Energy = -425.8906217327 Hartree
C       0.27091350      1.17192151      0.04318269
C      -0.04954540      1.54462350      1.50985728
C       0.88138112      0.90677051      2.56848012
C       0.53662294      1.16303598      4.01949683
C       1.61672464      0.45736175      4.86432937
C       1.54690776      0.84585728      6.39807423
O       0.67478217      1.44939246      6.99993267
O       2.64781806      0.38873955      6.97308234
C       2.78764226      0.69445111      8.37562837
H      -0.36818031      1.74579545     -0.58277825
H       1.36170923      1.29954544     -0.18901369
H       0.06987612      0.08951723     -0.09752211
H      -1.14802740      1.37037518      1.77316787
H       0.06014251      2.58865591      1.61262343
H       0.99855595     -0.12393110      2.34153990
H       1.95843459      1.25667860      2.40113361
H       0.50868849      2.22944629      4.22624447
H      -0.46980173      0.76305174      4.29204650
H       1.49115106     -0.62851657      4.75585870
H       2.56618258      0.76823424      4.44725068
H       3.81496968      0.25446366      8.65247454
H       1.91999247      0.32824334      8.92615661
H       2.97008294      1.76678760      8.48623762
23
Frame 25  Energy = -425.8904600928 Hartree
C       0.27279111      1.17163730      0.04532288
C      -0.04669738      1.54594142      1.51241913
C       0.88082689      0.90612601      2.56942201
C       0.53376325      1.16242580      4.01790576
C       1.61569864      0.45644025      4.86120889
C       1.54545560      0.84458197      6.39769321
O       0.67420976      1.44814571      7.00044872
O       2.65035143      0.38754297      6.97228125
C       2.78970148      0.69458509      8.37616998
H      -0.37195583      1.74713227     -0.58615264
H       1.36309474      1.30592762     -0.17959106
H       0.07422965      0.09435323     -0.09241102
H      -1.14917080      1.36998098      1.77185517
H       0.05703807      2.58936727      1.61044779
H       0.99496419     -0.12235320      2.35124828
H       1.96160598      1.25897272      2.39137497
H       0.50341343      2.23352065      4.22334823
H      -0.46957963      0.75987994      4.29574784
H       1.48336467     -0.62575098      4.75246641
H       2.56796215      0.76687666      4.44348380
H       3.80807067      0.25825923      8.64887238
H       1.92067577      0.32120061      8.93315176
H       2.97291802      1.77065486      8.48504918
23
Frame 30  Energy = -425.8906734193 Hartree
C       0.27484038      1.17123513      0.04769514
C      -0.04393681      1.54711755      1.51515116
C       0.88055190      0.90573365      2.57010637
C       0.53073805      1.16166539      4.01643763
C       1.61450614      0.45571168      4.85822891
C       1.54381159      0.84340225      6.39703416
O       0.67377312      1.44688527      7.00092116
O       2.65298557      0.38640014      6.97164556
C       2.79207520      0.69464109      8.37673141
H      -0.37612371      1.74864983     -0.59091411
H       1.36195693      1.31286047     -0.16986924
H       0.07839585      0.10060603     -0.08760209
H      -1.14671845      1.36902273      1.76975471
H       0.05419085      2.59354479      1.60884627
H       0.99080244     -0.12419425      2.36114630
H       1.96133030      1.26148446      2.38211340
H       0.49854612      2.23732780      4.22067007
H      -0.46776900      0.75698302      4.29836862
H       1.47643514     -0.62222925      4.74957427
H       2.57014885      0.76501231      4.44066078
H       3.79700092      0.26226048      8.64501004
H       1.92277354      0.31477041      8.94046743
H       2.97406761      1.77388776      8.48416924
23
Frame 35  Energy = -425.8905226025 Hartree
C       0.27702583      1.17071955      0.05031692
C      -0.04129402      1.54802204      1.51795772
C       0.88050780      0.90553739      2.57065454
C       0.52760499      1.16075966      4.01513023
C       1.61310544      0.45533412      4.85556610
C       1.54209143      0.84231068      6.39616568
O       0.67350544      1.44557189      7.00134011
O       2.65569987      0.38522290      6.97110214
C       2.79477444      0.69466496      8.37720925
H      -0.38004829      1.75022364     -0.59649729
H       1.35862077      1.32034917     -0.16022323
H       0.08234228      0.10765908     -0.08349685
H      -1.14066759      1.36783369      1.76628654
H       0.05182423      2.60115051      1.60762562
H       0.98614837     -0.12930107      2.37090302
H       1.95765941      1.26429409      2.37358059
H       0.49386619      2.24079209      4.21779929
H      -0.46480286      0.75468524      4.30014154
H       1.47015705     -0.61865733      4.74738685
H       2.57291026      0.76269739      4.43864296
H       3.78243573      0.26614240      8.64121327
H       1.92661213      0.30872487      8.94734433
H       2.97340952      1.77656203      8.48352148
23
Frame 40  Energy = -425.8906877351 Hartree
C       0.27920262      1.17016235      0.05319052
C      -0.03885159      1.54871179      1.52081051
C       0.88062178      0.90560804      2.57100719
C       0.52440639      1.15984033      4.01397555
C       1.61137268      0.45515250      4.85322067
C       1.54027285      0.84118245      6.39516179
O       0.67335230      1.44412278      7.00167387
O       2.65847477      0.38407663      6.97077056
C       2.79777249      0.69456148      8.37754580
H      -0.38340163      1.75198949     -0.60260266
H       1.35331490      1.32837235     -0.15075278
H       0.08599724      0.11478553     -0.08011051
H      -1.13107388      1.36662106      1.76175350
H       0.05006804      2.61130720      1.60716357
H       0.98096449     -0.13720535      2.38089299
H       1.95056744      1.26725284      2.36586967
H       0.48941419      2.24331036      4.21490119
H      -0.46101862      0.75285496      4.30099337
H       1.46483682     -0.61510482      4.74561463
H       2.57600763      0.75957130      4.43804802
H       3.76578066      0.26965858      8.63783033
H       1.93192782      0.30399519      8.95389499
H       2.97093228      1.77809061      8.48331939
23
Frame 45  Energy = -425.8907945304 Hartree
C       0.28131130      1.16958257      0.05635697
C      -0.03649863      1.54931934      1.52367345
C       0.88084038      0.90596040      2.57104417
C       0.52121392      1.15887753      4.01301272
C       1.60935775      0.45513673      4.85119053
C       1.53849572      0.84013727      6.39398290
O       0.67326608      1.44256342      7.00172263
O       2.66121930      0.38302980      6.97051320
C       2.80080030      0.69451046      8.37773472
H      -0.38563709      1.75315392     -0.60853947
H       1.34674337      1.33705259     -0.14175909
H       0.08953061      0.12127260     -0.07721646
H      -1.11856127      1.36497323      1.75623759
H       0.04893824      2.62316895      1.60706006
H       0.97494541     -0.14756359      2.39076224
H       1.93998978      1.26982451      2.35897389
H       0.48522976      2.24467878      4.21212423
H      -0.45664390      0.75170027      4.30110860
H       1.46016630     -0.61186963      4.74422294
H       2.57897087      0.75550624      4.43894701
H       3.74832302      0.27209832      8.63525954
H       1.93917775      0.30049168      8.95951143
H       2.96647003      1.77845500      8.48338671
23
Frame 50  Energy = -425.8909086476 Hartree
C       0.28328165      1.16907784      0.05969433
C      -0.03428149      1.54990171      1.52642633
C       0.88117256      0.90648598      2.57083747
C       0.51814511      1.15789420      4.01214594
C       1.60722928      0.45543290      4.84936686
C       1.53673666      0.83918715      6.39262665
O       0.67324847      1.44091944      7.00152263
O       2.66394997      0.38202928      6.97030226
C       2.80381617      0.69449805      8.37776071
H      -0.38626276      1.75325687     -0.61359629
H       1.33923359      1.34602405     -0.13343544
H       0.09280302      0.12609765     -0.07493615
H      -1.10406732      1.36254664      1.75042319
H       0.04809955      2.63598721      1.60713458
H       0.96858296     -0.15967239      2.40035446
H       1.92638646      1.27165775      2.35276947
H       0.48114740      2.24481831      4.20918432
H      -0.45194319      0.75092884      4.30071223
H       1.45603620     -0.60913406      4.74322657
H       2.58178809      0.75034317      4.44098666
H       3.73156062      0.27328792      8.63390221
H       1.94859354      0.29850585      8.96462300
H       2.96036595      1.77788715      8.48379879
23
Frame 55  Energy = -425.8910862330 Hartree
C       0.28511311      1.16875554      0.06313876
C      -0.03218718      1.55049620      1.52909547
C       0.88153223      0.90704433      2.57033180
C       0.51517327      1.15698980      4.01134828
C       1.60503907      0.45595620      4.84783953
C       1.53489477      0.83823709      6.39115299
O       0.67344666      1.43911018      7.00110032
O       2.66654802      0.38099159      6.97016100
C       2.80660477      0.69464646      8.37766490
H      -0.38507971      1.75204411     -0.61797377
H       1.33112416      1.35512080     -0.12590156
H       0.09561392      0.12889946     -0.07328990
H      -1.08848397      1.35959985      1.74450208
H       0.04712735      2.64892873      1.60781210
H       0.96213141     -0.17269676      2.40960726
H       1.91041606      1.27307666      2.34725754
H       0.47764482      2.24356509      4.20627867
H      -0.44719617      0.75021470      4.29968448
H       1.45222431     -0.60708910      4.74284346
H       2.58434942      0.74428003      4.44428099
H       3.71699045      0.27231389      8.63375692
H       1.95976158      0.29777850      8.96882037
H       2.95271291      1.77676772      8.48461784
23
Frame 60  Energy = -425.8912774694 Hartree
C       0.28666834      1.16870443      0.06672487
C      -0.03013003      1.55120271      1.53169854
C       0.88195441      0.90763885      2.56962335
C       0.51251476      1.15608768      4.01067355
C       1.60263575      0.45673585      4.84673251
C       1.53312179      0.83714990      6.38953372
O       0.67368244      1.43716231      7.00054916
O       2.66900469      0.38001011      6.97010462
C       2.80904237      0.69500758      8.37740280
H      -0.38218041      1.74954797     -0.62152676
H       1.32364423      1.36460473     -0.11963558
H       0.09806503      0.13008324     -0.07208335
H      -1.07276341      1.35613503      1.73863907
H       0.04622156      2.66110275      1.60900802
H       0.95520571     -0.18601376      2.41832962
H       1.89346741      1.27414969      2.34251543
H       0.47479390      2.24089087      4.20310012
H      -0.44303505      0.74947744      4.29812713
H       1.44920694     -0.60598553      4.74300035
H       2.58660382      0.73748128      4.44861572
H       3.70574587      0.26882429      8.63533037
H       1.97219245      0.29792845      8.97209505
H       2.94391346      1.77499660      8.48562287
23
Frame 65  Energy = -425.8911882476 Hartree
C       0.28802159      1.16891233      0.07044107
C      -0.02797317      1.55211658      1.53421721
C       0.88235534      0.90823973      2.56868238
C       0.51013605      1.15517379      4.01003397
C       1.59995379      0.45787095      4.84596193
C       1.53144884      0.83589033      6.38773824
O       0.67391025      1.43511177      6.99984350
O       2.67137953      0.37911769      6.97009963
C       2.81118610      0.69557869      8.37697841
H      -0.37722836      1.74574283     -0.62378065
H       1.31743664      1.37441360     -0.11466152
H       0.10019918      0.12908393     -0.07105496
H      -1.05788823      1.35209822      1.73311235
H       0.04556239      2.67133223      1.61055240
H       0.94784552     -0.19850445      2.42649031
H       1.87632097      1.27486829      2.33850768
H       0.47219331      2.23693108      4.19979624
H      -0.43996230      0.74890854      4.29627611
H       1.44718918     -0.60580669      4.74340024
H       2.58868729      0.72979709      4.45388398
H       3.69907942      0.26191798      8.63882054
H       1.98541126      0.29906474      8.97474325
H       2.93408106      1.77282401      8.48706122
23
Frame 70  Energy = -425.8909632758 Hartree
C       0.28918995      1.16931418      0.07432392
C      -0.02567593      1.55327754      1.53663907
C       0.88269972      0.90870897      2.56753965
C       0.50803130      1.15431873      4.00946462
C       1.59710784      0.45928783      4.84543257
C       1.52988275      0.83454384      6.38589305
O       0.67425127      1.43292775      6.99900428
O       2.67358984      0.37835695      6.97016063
C       2.81303792      0.69627873      8.37634969
H      -0.37011294      1.74079972     -0.62449971
H       1.31286186      1.38464105     -0.11137581
H       0.10214207      0.12602403     -0.07068206
H      -1.04481856      1.34717418      1.72852853
H       0.04523569      2.67931410      1.61232029
H       0.93962896     -0.20916661      2.43404394
H       1.86010101      1.27562509      2.33554084
H       0.46931466      2.23214204      4.19682155
H      -0.43800609      0.74809628      4.29391812
H       1.44608316     -0.60642806      4.74450724
H       2.59039518      0.72126415      4.46008921
H       3.69746295      0.25196448      8.64425434
H       1.99897803      0.30055783      8.97665502
H       2.92315322      1.77043542      8.48897960
23
Frame 75  Energy = -425.8911973724 Hartree
C       0.29012662      1.16991929      0.07829442
C      -0.02321950      1.55468202      1.53880511
C       0.88289582      0.90899061      2.56618292
C       0.50617981      1.15359078      4.00901357
C       1.59416213      0.46096864      4.84519652
C       1.52833832      0.83311809      6.38385092
O       0.67468509      1.43067961      6.99803277
O       2.67569729      0.37774339      6.97020740
C       2.81456424      0.69710861      8.37543500
H      -0.36127052      1.73473751     -0.62428434
H       1.31024620      1.39506552     -0.10972432
H       0.10375963      0.12137694     -0.07090457
H      -1.03435060      1.34105760      1.72493215
H       0.04524545      2.68459437      1.61444229
H       0.93084033     -0.21764075      2.44134542
H       1.84567816      1.27667648      2.33322958
H       0.46637344      2.22705593      4.19431610
H      -0.43782559      0.74681118      4.29117358
H       1.44595354     -0.60766098      4.74644761
H       2.59149589      0.71252063      4.46698800
H       3.70054683      0.23971881      8.65156902
H       2.01208286      0.30229930      8.97817763
H       2.91110784      1.76813309      8.49148263
23
Frame 80  Energy = -425.8912144263 Hartree
C       0.29092002      1.17068446      0.08241252
C      -0.02070365      1.55629716      1.54076110
C       0.88288510      0.90891558      2.56470387
C       0.50464854      1.15301842      4.00859813
C       1.59106407      0.46286882      4.84541346
C       1.52691617      0.83161832      6.38167597
O       0.67521048      1.42846776      6.99692192
O       2.67769602      0.37717187      6.97038526
C       2.81586524      0.69812908      8.37429084
H      -0.35104458      1.72780146     -0.62359283
H       1.31004443      1.40534812     -0.10930152
H       0.10539557      0.11527672     -0.07156209
H      -1.02717425      1.33382654      1.72238013
H       0.04583081      2.68700324      1.61665131
H       0.92173326     -0.22364603      2.44798158
H       1.83446359      1.27844679      2.33131786
H       0.46358945      2.22201363      4.19234933
H      -0.43991239      0.74482490      4.28816082
H       1.44635514     -0.60946789      4.74870500
H       2.59198473      0.70349193      4.47459217
H       3.70765433      0.22558534      8.66018903
H       2.02431618      0.30419128      8.97950042
H       2.89862200      1.76623304      8.49436992
23
Frame 85  Energy = -425.8911813186 Hartree
C       0.29157669      1.17152666      0.08669043
C      -0.01817711      1.55807514      1.54263355
C       0.88255969      0.90840371      2.56305233
C       0.50340452      1.15255310      4.00823502
C       1.58786166      0.46500889      4.84596828
C       1.52561849      0.83002438      6.37933603
O       0.67571583      1.42620967      6.99561878
O       2.67958803      0.37666738      6.97060593
C       2.81701799      0.69928997      8.37294183
H      -0.34013408      1.71997949     -0.62203262
H       1.31203666      1.41568908     -0.10996346
H       0.10706696      0.10854408     -0.07243305
H      -1.02393910      1.32593436      1.72070103
H       0.04660001      2.68668171      1.61899516
H       0.91250147     -0.22642295      2.45382913
H       1.82722220      1.28094954      2.32987926
H       0.46107240      2.21722200      4.19079555
H      -0.44391063      0.74196820      4.28508723
H       1.44736481     -0.61151009      4.75110169
H       2.59199305      0.69432007      4.48254929
H       3.71780981      0.21000291      8.66962572
H       2.03521060      0.30612141      8.98112506
H       2.88594362      1.76489585      8.49743021
23
Frame 90  Energy = -425.8910437334 Hartree
C       0.29211648      1.17240475      0.09108881
C      -0.01561666      1.56008231      1.54432288
C       0.88188580      0.90749662      2.56138547
C       0.50246378      1.15212881      4.00795900
C       1.58460485      0.46731251      4.84678220
C       1.52439878      0.82834261      6.37687704
O       0.67621452      1.42385808      6.99416279
O       2.68135203      0.37619959      6.97077795
C       2.81818748      0.70038318      8.37151279
H      -0.32904719      1.71194539     -0.61965015
H       1.31547216      1.42608540     -0.11146914
H       0.10914104      0.10201765     -0.07333632
H      -1.02464817      1.31731247      1.71995876
H       0.04773932      2.68347891      1.62178845
H       0.90297363     -0.22616304      2.45895803
H       1.82452767      1.28403468      2.32853805
H       0.45882869      2.21266634      4.18973326
H      -0.44953475      0.73835448      4.28176350
H       1.44917383     -0.61323271      4.75368743
H       2.59141593      0.68538149      4.49109874
H       3.72947889      0.19390726      8.67929595
H       2.04430839      0.30784128      8.98320552
H       2.87331402      1.76417282      8.50079952
23
Frame 95  Energy = -425.8909796416 Hartree
C       0.29259186      1.17334597      0.09562458
C      -0.01303785      1.56224377      1.54583622
C       0.88083926      0.90620886      2.55971373
C       0.50175223      1.15182351      4.00777775
C       1.58115859      0.46970773      4.84793031
C       1.52344755      0.82658919      6.37432218
O       0.67679854      1.42142485      6.99259530
O       2.68299111      0.37576700      6.97087974
C       2.81957305      0.70142153      8.37000737
H      -0.31830463      1.70397583     -0.61696013
H       1.32019962      1.43627617     -0.11411158
H       0.11191489      0.09615367     -0.07440425
H      -1.02898288      1.30821866      1.72004075
H       0.04904632      2.67795522      1.62496272
H       0.89356396     -0.22273961      2.46318220
H       1.82633651      1.28813251      2.32727443
H       0.45648972      2.20891755      4.18894310
H      -0.45646640      0.73414952      4.27767853
H       1.45159617     -0.61453886      4.75669716
H       2.59035827      0.67664549      4.50025086
H       3.74151857      0.17852489      8.68856251
H       2.05104932      0.30888258      8.98551723
H       2.86084423      1.76470666      8.50412982
23
Frame 100  Energy = -425.8910927022 Hartree
C       0.29305145      1.17414874      0.10017319
C      -0.01054733      1.56453765      1.54709072
C       0.87955194      0.90460059      2.55803094
C       0.50120024      1.15152965      4.00768212
C       1.57757720      0.47202812      4.84945576
C       1.52278929      0.82473730      6.37163206
O       0.67736293      1.41892812      6.99092837
O       2.68451310      0.37545067      6.97101085
C       2.82127435      0.70224869      8.36844052
H      -0.30843634      1.69648663     -0.61463922
H       1.32579185      1.44574908     -0.11735292
H       0.11545476      0.09141191     -0.07541352
H      -1.03588460      1.29925025      1.72096346
H       0.05043465      2.67045990      1.62870377
H       0.88445254     -0.21644130      2.46638357
H       1.83252459      1.29266121      2.32665970
H       0.45452324      2.20655684      4.18877186
H      -0.46415272      0.72987607      4.27304580
H       1.45423804     -0.61533696      4.75992789
H       2.58918809      0.66816356      4.50967572
H       3.75294477      0.16470421      8.69704041
H       2.05535686      0.30949139      8.98837188
H       2.84860756      1.76620823      8.50744666
23
Frame 105  Energy = -425.8911855991 Hartree
C       0.29360545      1.17481960      0.10480793
C      -0.00817634      1.56692843      1.54819993
C       0.87809883      0.90275756      2.55632059
C       0.50076917      1.15116369      4.00763166
C       1.57394597      0.47437157      4.85130825
C       1.52247062      0.82275843      6.36880716
O       0.67793408      1.41635989      6.98911304
O       2.68583703      0.37525365      6.97109334
C       2.82330687      0.70277639      8.36682509
H      -0.29972953      1.69021809     -0.61309714
H       1.33118908      1.45399167     -0.12062962
H       0.11979811      0.08794230     -0.07597740
H      -1.04411474      1.29012237      1.72220176
H       0.05200450      2.66189682      1.63316279
H       0.87581248     -0.20773170      2.46818300
H       1.84218319      1.29757077      2.32661642
H       0.45281259      2.20550455      4.18941585
H      -0.47195190      0.72566751      4.26805382
H       1.45703522     -0.61607259      4.76331924
H       2.58811391      0.66019469      4.51910497
H       3.76249288      0.15302065      8.70440831
H       2.05714180      0.30882831      8.99165769
H       2.83665184      1.76868871      8.51089789
23
Frame 110  Energy = -425.8910610653 Hartree
C       0.29432993      1.17531516      0.10944126
C      -0.00616580      1.56934965      1.54920533
C       0.87652447      0.90077197      2.55461683
C       0.50046047      1.15073870      4.00753070
C       1.57029726      0.47667398      4.85344710
C       1.52245766      0.82080083      6.36586603
O       0.67847657      1.41369669      6.98717265
O       2.68700026      0.37518209      6.97115716
C       2.82563025      0.70304908      8.36523903
H      -0.29207873      1.68517848     -0.61224068
H       1.33605896      1.46099781     -0.12411087
H       0.12525219      0.08603647     -0.07580816
H      -1.05271114      1.28074601      1.72393533
H       0.05374660      2.65291726      1.63824716
H       0.86742714     -0.19754778      2.46900801
H       1.85457631      1.30236447      2.32709703
H       0.45081876      2.20571183      4.19110725
H      -0.47936065      0.72159134      4.26264770
H       1.45969450     -0.61679531      4.76744637
H       2.58739290      0.65310911      4.52833366
H       3.76967825      0.14401717      8.71080663
H       2.05678282      0.30693048      8.99479345
H       2.82543529      1.77190726      8.51444393
23
Frame 115  Energy = -425.8912248263 Hartree
C       0.29533012      1.17572622      0.11410696
C      -0.00449999      1.57170986      1.55005911
C       0.87482067      0.89884345      2.55298584
C       0.50018487      1.15024907      4.00746559
C       1.56662136      0.47893657      4.85590877
C       1.52265668      0.81890230      6.36292358
O       0.67904966      1.41100348      6.98506161
O       2.68804518      0.37519740      6.97131412
C       2.82819453      0.70312322      8.36367166
H      -0.28636319      1.68168360     -0.61220879
H       1.34042612      1.46692694     -0.12773658
H       0.13172253      0.08594452     -0.07511759
H      -1.06066557      1.27191814      1.72586945
H       0.05546294      2.64428385      1.64390569
H       0.85939581     -0.18661689      2.46867936
H       1.86887187      1.30623601      2.32873686
H       0.44883751      2.20716028      4.19334120
H      -0.48604945      0.71816495      4.25648864
H       1.46213315     -0.61729498      4.77194672
H       2.58714106      0.64710858      4.53702559
H       3.77393221      0.13798946      8.71598820
H       2.05447041      0.30404617      8.99773284
H       2.81546720      1.77561570      8.51769604
23
Frame 120  Energy = -425.8913589050 Hartree
C       0.29656477      1.17603606      0.11869618
C      -0.00317642      1.57393054      1.55077831
C       0.87301209      0.89705013      2.55131933
C       0.49994306      1.14962585      4.00740003
C       1.56280378      0.48114572      4.85865173
C       1.52306820      0.81690186      6.36006155
O       0.67963860      1.40826774      6.98286202
O       2.68891738      0.37533215      6.97145753
C       2.83098613      0.70285219      8.36209576
H      -0.28276459      1.67995041     -0.61319844
H       1.34408114      1.47152571     -0.13079538
H       0.13904529      0.08780856     -0.07378663
H      -1.06746328      1.26404771      1.72790969
H       0.05705708      2.63679367      1.65037603
H       0.85205717     -0.17609158      2.46686791
H       1.88343992      1.30879286      2.33128434
H       0.44687019      2.20976812      4.19582215
H      -0.49155656      0.71556015      4.24974099
H       1.46439077     -0.61763447      4.77696359
H       2.58723175      0.64189566      4.54506105
H       3.77510522      0.13531080      8.71968397
H       2.05076308      0.30049004      8.99995509
H       2.80718721      1.77941349      8.52047628
23
Frame 125  Energy = -425.8910661652 Hartree
C       0.29812105      1.17626626      0.12322447
C      -0.00231671      1.57593060      1.55133384
C       0.87122579      0.89541039      2.54966192
C       0.49968163      1.14900757      4.00749865
C       1.55901080      0.48321793      4.86180353
C       1.52370189      0.81473692      6.35730994
O       0.68028741      1.40539740      6.98053699
O       2.68976037      0.37556222      6.97157682
C       2.83405215      0.70229996      8.36065105
H      -0.28160054      1.67957273     -0.61508688
H       1.34668486      1.47476052     -0.13304751
H       0.14727373      0.09165580     -0.07166250
H      -1.07301050      1.25706917      1.73046936
H       0.05894849      2.63108892      1.65740483
H       0.84540539     -0.16652609      2.46362010
H       1.89716449      1.30996853      2.33437276
H       0.44494405      2.21282507      4.19883124
H      -0.49559833      0.71367172      4.24231027
H       1.46648489     -0.61733883      4.78240750
H       2.58745711      0.63769418      4.55266258
H       3.77346636      0.13620775      8.72178568
H       2.04606334      0.29641378      9.00113980
H       2.80045196      1.78296787      8.52324398
23
Frame 130  Energy = -425.8911989264 Hartree
C       0.30006947      1.17650683      0.12763265
C      -0.00194552      1.57759980      1.55182482
C       0.86960626      0.89405156      2.54812089
C       0.49941662      1.14842780      4.00759519
C       1.55518957      0.48511059      4.86525226
C       1.52439948      0.81249991      6.35470964
O       0.68104071      1.40248118      6.97814562
O       2.69051307      0.37585129      6.97173103
C       2.83732822      0.70150937      8.35939013
H      -0.28233224      1.68050122     -0.61743775
H       1.34796563      1.47655897     -0.13490328
H       0.15631407      0.09685905     -0.06877462
H      -1.07686924      1.25132396      1.73345193
H       0.06075904      2.62769111      1.66474471
H       0.83979669     -0.15912053      2.45873143
H       1.90926345      1.30921885      2.33863234
H       0.44296548      2.21619810      4.20214154
H      -0.49802586      0.71239812      4.23459530
H       1.46847226     -0.61598719      4.78819553
H       2.58761589      0.63435570      4.55929035
H       3.76914568      0.14084489      8.72196541
H       2.04085045      0.29197561      9.00134723
H       2.79533114      1.78597286      8.52578620
23
Frame 135  Energy = -425.8911248231 Hartree
C       0.30242298      1.17668479      0.13186520
C      -0.00198814      1.57882925      1.55222874
C       0.86825692      0.89297301      2.54675020
C       0.49920686      1.14782476      4.00759975
C       1.55138084      0.48680475      4.86890327
C       1.52524722      0.81036217      6.35220631
O       0.68187701      1.39944695      6.97573686
O       2.69114796      0.37608145      6.97186703
C       2.84066686      0.70056948      8.35825019
H      -0.28451507      1.68231572     -0.62014108
H       1.34779380      1.47669122     -0.13614945
H       0.16606289      0.10321380     -0.06496714
H      -1.07858449      1.24753728      1.73668711
H       0.06248085      2.62680149      1.67239857
H       0.83499702     -0.15473656      2.45198063
H       1.91946602      1.30623450      2.34431703
H       0.44094087      2.21940517      4.20570019
H      -0.49909621      0.71163145      4.22643073
H       1.47019824     -0.61361410      4.79441512
H       2.58767648      0.63201361      4.56549649
H       3.76267011      0.14871609      8.72009137
H       2.03550522      0.28722251      9.00014994
H       2.79143142      1.78819254      8.52842305
23
Frame 140  Energy = -425.8912476616 Hartree
C       0.30517428      1.17696487      0.13593464
C      -0.00255666      1.57966000      1.55244993
C       0.86727302      0.89218572      2.54546553
C       0.49891747      1.14717034      4.00755041
C       1.54758702      0.48832403      4.87273408
C       1.52626297      0.80822561      6.34985591
O       0.68263258      1.39637841      6.97328259
O       2.69157618      0.37636366      6.97193159
C       2.84395338      0.69940090      8.35733981
H      -0.28774678      1.68451867     -0.62258773
H       1.34633775      1.47550033     -0.13689631
H       0.17648963      0.11018546     -0.06030055
H      -1.07841904      1.24545226      1.73967482
H       0.06380947      2.62889431      1.68030071
H       0.83104770     -0.15346164      2.44351966
H       1.92680940      1.30065832      2.35116199
H       0.43893681      2.22218058      4.20965012
H      -0.49889732      0.71179936      4.21800676
H       1.47185438     -0.61031382      4.80079744
H       2.58752835      0.63076324      4.57091085
H       3.75423154      0.15922494      8.71623730
H       2.03035563      0.28278527      8.99736380
H       2.78897680      1.78935429      8.53080022
23
Frame 145  Energy = -425.8912551256 Hartree
C       0.30819839      1.17728306      0.13975823
C      -0.00369207      1.58014423      1.55259347
C       0.86668130      0.89176398      2.54428986
C       0.49847719      1.14658380      4.00746437
C       1.54389800      0.48958216      4.87672477
C       1.52738039      0.80613761      6.34759803
O       0.68337075      1.39333789      6.97079698
O       2.69189009      0.37661693      6.97189095
C       2.84708723      0.69811746      8.35667346
H      -0.29136919      1.68696412     -0.62424383
H       1.34382103      1.47333878     -0.13685194
H       0.18739895      0.11741392     -0.05495491
H      -1.07546016      1.24489594      1.74249875
H       0.06494986      2.63363448      1.68837270
H       0.82813312     -0.15533274      2.43345993
H       1.93112945      1.29262964      2.35914099
H       0.43688337      2.22433658      4.21384365
H      -0.49795403      0.71334396      4.20940749
H       1.47308016     -0.60637308      4.80726231
H       2.58705619      0.63048437      4.57573942
H       3.74418468      0.17180024      8.71092274
H       2.02579898      0.27848859      8.99294857
H       2.78773885      1.78925721      8.53279561
23
Frame 150  Energy = -425.8910379384 Hartree
C       0.31134938      1.17772182      0.14334809
C      -0.00535728      1.58031136      1.55268355
C       0.86650239      0.89175202      2.54326267
C       0.49798581      1.14605695      4.00738113
C       1.54033428      0.49054783      4.88080485
C       1.52866317      0.80405054      6.34550700
O       0.68407277      1.39026712      6.96822851
O       2.69223009      0.37684067      6.97175964
C       2.85000456      0.69667231      8.35618352
H      -0.29541875      1.68936745     -0.62507527
H       1.34019041      1.47032605     -0.13615309
H       0.19866352      0.12447140     -0.04927744
H      -1.07002067      1.24593076      1.74493600
H       0.06587248      2.64055079      1.69641060
H       0.82580152     -0.16035094      2.42190110
H       1.93257655      1.28211998      2.36806336
H       0.43515388      2.22577959      4.21794457
H      -0.49629287      0.71586236      4.20075967
H       1.47367759     -0.60194375      4.81371728
H       2.58605602      0.63120649      4.58003105
H       3.73400253      0.18589158      8.70461308
H       2.02232667      0.27443631      8.98649819
H       2.78813083      1.78755061      8.53443867
23
Frame 155  Energy = -425.8909119160 Hartree
C       0.31463425      1.17841345      0.14674106
C      -0.00742895      1.58026761      1.55269819
C       0.86666606      0.89203397      2.54238862
C       0.49747248      1.14563050      4.00726671
C       1.53684141      0.49132656      4.88506404
C       1.53016027      0.80204406      6.34370981
O       0.68470262      1.38723268      6.96567203
O       2.69255252      0.37710665      6.97160695
C       2.85260130      0.69522466      8.35577670
H      -0.29931427      1.69130993     -0.62450598
H       1.33594396      1.46667971     -0.13478487
H       0.21011384      0.13024322     -0.04315684
H      -1.06260212      1.24872349      1.74683896
H       0.06632011      2.64886384      1.70414594
H       0.82435984     -0.16805105      2.40922387
H       1.93124254      1.26931095      2.37755451
H       0.43343843      2.22642339      4.22211909
H      -0.49377230      0.71905214      4.19259794
H       1.47400259     -0.59759061      4.81997732
H       2.58412340      0.63334307      4.58357709
H       3.72506231      0.20071336      8.69777231
H       2.01963349      0.27099397      8.97790608
H       2.78993300      1.78447096      8.53566749
23
Frame 160  Energy = -425.8901741835 Hartree
C       0.31795069      1.17935107      0.14988720
C      -0.00990933      1.58012340      1.55277436
C       0.86704838      0.89264267      2.54158942
C       0.49704613      1.14528079      4.00714783
C       1.53349173      0.49201114      4.88942538
C       1.53180426      0.80008378      6.34215124
O       0.68528790      1.38415773      6.96309026
O       2.69282889      0.37739800      6.97140515
C       2.85478267      0.69379171      8.35547993
H      -0.30255906      1.69262795     -0.62228895
H       1.33156559      1.46226088     -0.13297109
H       0.22142536      0.13423808     -0.03635940
H      -1.05347600      1.25313801      1.74871728
H       0.06617387      2.65797871      1.71128448
H       0.82363286     -0.17767514      2.39577670
H       1.92712011      1.25497523      2.38779693
H       0.43154182      2.22633746      4.22583437
H      -0.49059573      0.72259619      4.18465593
H       1.47396113     -0.59336287      4.82602438
H       2.58117825      0.63662463      4.58618680
H       3.71853276      0.21584771      8.69101519
H       2.01835675      0.26848563      8.96711375
H       2.79273439      1.78001092      8.53612511
23
Frame 165  Energy = -425.8896853898 Hartree
C       0.32139729      1.18051002      0.15265230
C      -0.01271779      1.57990374      1.55287296
C       0.86769216      0.89344201      2.54090602
C       0.49661468      1.14504325      4.00690802
C       1.53026422      0.49261456      4.89388553
C       1.53371627      0.79822515      6.34088113
O       0.68579934      1.38109176      6.96039876
O       2.69307344      0.37774354      6.97115407
C       2.85638837      0.69247415      8.35528065
H      -0.30567811      1.69336595     -0.61865941
H       1.32771289      1.45719460     -0.13085665
H       0.23264494      0.13645949     -0.02923165
H      -1.04363881      1.25892242      1.75057737
H       0.06511478      2.66716339      1.71800110
H       0.82392078     -0.18867058      2.38155248
H       1.92062284      1.23898069      2.39836510
H       0.42954643      2.22521879      4.22921603
H      -0.48729793      0.72615824      4.17729654
H       1.47334648     -0.58950193      4.83201314
H       2.57716492      0.64110074      4.58853737
H       3.71578417      0.23033007      8.68494679
H       2.01836719      0.26641396      8.95455501
H       2.79642298      1.77426925      8.53610125
23
Frame 170  Energy = -425.8896956975 Hartree
C       0.32477434      1.18188874      0.15508529
C      -0.01572197      1.57967769      1.55300819
C       0.86862010      0.89429948      2.54045523
C       0.49628749      1.14499282      4.00664539
C       1.52730540      0.49307059      4.89831735
C       1.53576591      0.79641659      6.34001301
O       0.68625972      1.37800664      6.95762691
O       2.69329210      0.37810769      6.97077371
C       2.85728389      0.69137795      8.35504101
H      -0.30838098      1.69267081     -0.61351347
H       1.32523775      1.45232820     -0.12870178
H       0.24363804      0.13686850     -0.02187947
H      -1.03404259      1.26578444      1.75232213
H       0.06356327      2.67530215      1.72414363
H       0.82480984     -0.19999390      2.36676819
H       1.91251808      1.22204059      2.40881531
H       0.42748056      2.22325175      4.23232506
H      -0.48444250      0.72958169      4.17053842
H       1.47201437     -0.58641093      4.83797472
H       2.57265525      0.64655838      4.59040822
H       3.71766753      0.24328092      8.67975039
H       2.01947835      0.26492385      8.94088257
H       2.80114835      1.76751913      8.53610660
23
Frame 175  Energy = -425.8897463789 Hartree
C       0.32797810      1.18342540      0.15720602
C      -0.01879472      1.57953014      1.55313855
C       0.86972384      0.89507282      2.54026130
C       0.49601868      1.14505771      4.00630447
C       1.52463472      0.49341030      4.90269121
C       1.53779053      0.79470882      6.33954824
O       0.68661497      1.37497497      6.95486069
O       2.69345094      0.37841910      6.97023950
C       2.85744912      0.69045803      8.35465428
H      -0.31032875      1.69125013     -0.60662362
H       1.32488992      1.44774165     -0.12627341
H       0.25382836      0.13508297     -0.01435041
H      -1.02534326      1.27293114      1.75416716
H       0.06149138      2.68226714      1.72936744
H       0.82595237     -0.21042171      2.35200508
H       1.90368358      1.20450257      2.41903082
H       0.42544563      2.22086371      4.23523260
H      -0.48246040      0.73268966      4.16443743
H       1.46999944     -0.58441280      4.84377673
H       2.56777090      0.65297417      4.59176147
H       3.72500105      0.25440141      8.67598563
H       2.02122907      0.26386373      8.92619328
H       2.80652773      1.76038602      8.53562217
23
Frame 180  Energy = -425.8898545076 Hartree
C       0.33105629      1.18520024      0.15889888
C      -0.02181948      1.57957295      1.55333318
C       0.87086851      0.89565714      2.54021274
C       0.49571831      1.14519098      4.00598570
C       1.52223580      0.49359115      4.90698193
C       1.53991571      0.79315128      6.33947587
O       0.68691891      1.37190884      6.95210589
O       2.69354602      0.37870448      6.96956248
C       2.85703020      0.68964409      8.35411098
H      -0.31158988      1.68921995     -0.59819427
H       1.32639850      1.44395738     -0.12369645
H       0.26313986      0.13093781     -0.00658230
H      -1.01859878      1.28017199      1.75642291
H       0.05914086      2.68762618      1.73352834
H       0.82755746     -0.21901369      2.33736497
H       1.89521201      1.18694029      2.42854523
H       0.42351525      2.21791176      4.23763587
H      -0.48163045      0.73556197      4.15908219
H       1.46755195     -0.58390661      4.84894866
H       2.56241362      0.66023878      4.59264145
H       3.73770657      0.26314595      8.67320957
H       2.02339399      0.26281544      8.91107398
H       2.81240452      1.75375319      8.53493994
23
Frame 185  Energy = -425.8902523516 Hartree
C       0.33400423      1.18711856      0.16025503
C      -0.02464484      1.58001066      1.55363963
C       0.87207841      0.89592061      2.54032032
C       0.49549551      1.14546174      4.00562041
C       1.52010764      0.49364798      4.91112236
C       1.54220317      0.79180647      6.33979893
O       0.68720064      1.36886312      6.94937850
O       2.69357935      0.37906808      6.96869708
C       2.85595981      0.68893636      8.35349284
H      -0.31209281      1.68628221     -0.58887379
H       1.32973204      1.44113539     -0.12131949
H       0.27182842      0.12474115      0.00122431
H      -1.01476828      1.28734975      1.75908985
H       0.05636167      2.69079712      1.73655225
H       0.83015604     -0.22496785      2.32314494
H       1.88869512      1.16989631      2.43711460
H       0.42171287      2.21464869      4.23922671
H      -0.48224364      0.73789875      4.15472759
H       1.46464006     -0.58480466      4.85366286
H       2.55643943      0.66806433      4.59291844
H       3.75461942      0.26976762      8.67152819
H       2.02578043      0.26170082      8.89579118
H       2.81857376      1.74799332      8.53394825
23
Frame 190  Energy = -425.8905149315 Hartree
C       0.33674439      1.18916080      0.16127083
C      -0.02722423      1.58075917      1.55408304
C       0.87321053      0.89587809      2.54051795
C       0.49532865      1.14572590      4.00524989
C       1.51826529      0.49361559      4.91506897
C       1.54458536      0.79059797      6.34061237
O       0.68735120      1.36588552      6.94680377
O       2.69365261      0.37943606      6.96766564
C       2.85448010      0.68834001      8.35282750
H      -0.31189826      1.68286639     -0.57883936
H       1.33512492      1.43924186     -0.11935511
H       0.27979021      0.11744706      0.00945525
H      -1.01416237      1.29429838      1.76241064
H       0.05311765      2.69154508      1.73839561
H       0.83319492     -0.22806110      2.30982991
H       1.88515064      1.15397766      2.44447856
H       0.42027958      2.21109723      4.24008740
H      -0.48421932      0.73963763      4.15178191
H       1.46139717     -0.58680386      4.85792430
H       2.54993518      0.67638727      4.59252115
H       3.77474788      0.27474671      8.67042680
H       2.02803375      0.25996648      8.88157614
H       2.82501594      1.74321899      8.53223407
23
Frame 195  Energy = -425.8903962356 Hartree
C       0.33928835      1.19123550      0.16199325
C      -0.02949395      1.58178350      1.55458450
C       0.87424874      0.89544201      2.54082139
C       0.49529725      1.14603904      4.00487559
C       1.51667436      0.49336765      4.91883782
C       1.54714808      0.78944293      6.34189047
O       0.68741127      1.36293037      6.94434108
O       2.69376437      0.37986583      6.96639812
C       2.85281293      0.68780758      8.35202730
H      -0.31154099      1.67874268     -0.56821789
H       1.34282795      1.43831020     -0.11723425
H       0.28696784      0.10973938      0.01780968
H      -1.01702264      1.30068848      1.76680233
H       0.04944835      2.68959351      1.73916940
H       0.83644514     -0.22820186      2.29779494
H       1.88533488      1.13928230      2.45069735
H       0.41912159      2.20761565      4.24059090
H      -0.48748212      0.74078033      4.14970654
H       1.45792793     -0.58956475      4.86179033
H       2.54285596      0.68507508      4.59120102
H       3.79644472      0.27869188      8.66960950
H       2.02968895      0.25764520      8.86857408
H       2.83186196      1.74003051      8.53016184
23
Frame 200  Energy = -425.8905295688 Hartree
C       0.34165204      1.19323270      0.16256354
C      -0.03131527      1.58305987      1.55517057
C       0.87511437      0.89454216      2.54118815
C       0.49525542      1.14632563      4.00448484
C       1.51531696      0.49297784      4.92243523
C       1.54989827      0.78845001      6.34351932
O       0.68733925      1.36003485      6.94198839
O       2.69382362      0.38029111      6.96491835
C       2.85110969      0.68728753      8.35108835
H      -0.31119412      1.67395775     -0.55770518
H       1.35216174      1.43844362     -0.11474023
H       0.29323923      0.10190577      0.02612045
H      -1.02316602      1.30605908      1.77202265
H       0.04544040      2.68537951      1.73888796
H       0.83970440     -0.22482461      2.28724857
H       1.88961910      1.12606713      2.45547198
H       0.41801161      2.20437569      4.24074479
H      -0.49163901      0.74167295      4.14822752
H       1.45460248     -0.59328740      4.86523516
H       2.53539566      0.69405736      4.58916904
H       3.81840732      0.28214119      8.66853450
H       2.03045965      0.25459122      8.85756216
H       2.83860761      1.73884285      8.52810675
23
Frame 205  Energy = -425.8905250479 Hartree
C       0.34399264      1.19520925      0.16302325
C      -0.03275742      1.58469072      1.55585619
C       0.87566638      0.89326834      2.54169008
C       0.49527663      1.14654391      4.00411380
C       1.51421744      0.49252397      4.92578725
C       1.55264821      0.78760528      6.34549826
O       0.68716635      1.35716971      6.93975167
O       2.69379057      0.38072361      6.96337095
C       2.84957306      0.68664749      8.35004865
H      -0.31110201      1.66910559     -0.54809054
H       1.36239741      1.43971913     -0.11184702
H       0.29875941      0.09484801      0.03446930
H      -1.03268047      1.31071968      1.77752228
H       0.04120312      2.67892759      1.73773649
H       0.84286892     -0.21838292      2.27804466
H       1.89806237      1.11472209      2.45862648
H       0.41700007      2.20168143      4.24055834
H      -0.49655108      0.74230123      4.14747555
H       1.45151027     -0.59753702      4.86804708
H       2.52782658      0.70312999      4.58631221
H       3.83959488      0.28531466      8.66694324
H       2.03035551      0.25051362      8.84879642
H       2.84531953      1.73976337      8.52610914
23
Frame 210  Energy = -425.8904565259 Hartree
C       0.34636496      1.19711128      0.16338396
C      -0.03398113      1.58656072      1.55674956
C       0.87593036      0.89164138      2.54238037
C       0.49523295      1.14664201      4.00368385
C       1.51334440      0.49182593      4.92874585
C       1.55541650      0.78676566      6.34775303
O       0.68688267      1.35437607      6.93762722
O       2.69385177      0.38116644      6.96165302
C       2.84827116      0.68582911      8.34878079
H      -0.31133617      1.66416858     -0.53952986
H       1.37296993      1.44201077     -0.10847451
H       0.30365094      0.08921043      0.04261922
H      -1.04458747      1.31436542      1.78315433
H       0.03721449      2.67083352      1.73581010
H       0.84582847     -0.20913207      2.27037622
H       1.90995170      1.10506931      2.46026660
H       0.41634560      2.19955960      4.24009959
H      -0.50218881      0.74264111      4.14751061
H       1.44848763     -0.60185236      4.87032556
H       2.52030297      0.71242223      4.58285900
H       3.85854893      0.28867357      8.66439916
H       2.02903856      0.24510569      8.84257016
H       2.85167252      1.74249303      8.52363491
23
Frame 215  Energy = -425.8903914132 Hartree
C       0.34885552      1.19891256      0.16366200
C      -0.03509724      1.58865296      1.55771336
C       0.87588659      0.88962539      2.54320568
C       0.49515972      1.14661862      4.00322519
C       1.51260317      0.49094979      4.93134500
C       1.55827305      0.78599734      6.35032189
O       0.68648633      1.35167535      6.93561033
O       2.69406860      0.38155805      6.95979885
C       2.84721448      0.68481587      8.34731477
H      -0.31239960      1.65943772     -0.53218363
H       1.38342015      1.44487380     -0.10494624
H       0.30783443      0.08540197      0.05041678
H      -1.05791278      1.31725492      1.78849678
H       0.03314420      2.66259769      1.73288026
H       0.84858517     -0.19787781      2.26435021
H       1.92452833      1.09727526      2.46043253
H       0.41608073      2.19814356      4.23918978
H      -0.50812393      0.74290087      4.14822628
H       1.44526463     -0.60561824      4.87220617
H       2.51275659      0.72152668      4.57872131
H       3.87440042      0.29249255      8.66066762
H       2.02640198      0.23841373      8.83892163
H       2.85777252      1.74671371      8.52106307
23
Frame 220  Energy = -425.8904926178 Hartree
C       0.35149746      1.20041215      0.16388435
C      -0.03610440      1.59079785      1.55893340
C       0.87580742      0.88741629      2.54414996
C       0.49494814      1.14646232      4.00281580
C       1.51209821      0.48989745      4.93362833
C       1.56110932      0.78537054      6.35321638
O       0.68594528      1.34912919      6.93387600
O       2.69439832      0.38193353      6.95789835
C       2.84653050      0.68381621      8.34580510
H      -0.31455194      1.65527190     -0.52666681
H       1.39305534      1.44818663     -0.10107755
H       0.31130133      0.08353779      0.05806803
H      -1.07175220      1.31978728      1.79321339
H       0.02886055      2.65477224      1.72906977
H       0.85075080     -0.18517548      2.26010500
H       1.94072135      1.09129840      2.45906013
H       0.41612937      2.19775137      4.23787788
H      -0.51372475      0.74358293      4.14931942
H       1.44227708     -0.60883010      4.87361887
H       2.50568477      0.73053599      4.57352983
H       3.88609226      0.29665155      8.65590855
H       2.02210464      0.23048818      8.83772576
H       2.86345605      1.75203420      8.51843950
23
Frame 225  Energy = -425.8903151456 Hartree
C       0.35438142      1.20163061      0.16408083
C      -0.03698926      1.59284708      1.56047060
C       0.87563643      0.88506747      2.54528139
C       0.49462479      1.14605437      4.00261369
C       1.51173037      0.48849068      4.93558756
C       1.56385672      0.78481848      6.35628079
O       0.68521771      1.34669728      6.93222470
O       2.69487700      0.38226672      6.95588068
C       2.84620831      0.68281119      8.34419737
H      -0.31759766      1.65136355     -0.52362320
H       1.40139612      1.45223581     -0.09694590
H       0.31477847      0.08396261      0.06560704
H      -1.08510448      1.32215107      1.79745642
H       0.02472526      2.64820060      1.72498794
H       0.85220042     -0.17168256      2.25788650
H       1.95686154      1.08707998      2.45614766
H       0.41632459      2.19830575      4.23647260
H      -0.51899195      0.74453206      4.15110730
H       1.43949770     -0.61155425      4.87465514
H       2.49999965      0.73907508      4.56781034
H       3.89343514      0.30172671      8.64982499
H       2.01640579      0.22148903      8.83912834
H       2.86848202      1.75801781      8.51555510
23
Frame 230  Energy = -425.8902406104 Hartree
C       0.35747187      1.20266008      0.16436945
C      -0.03779039      1.59478888      1.56214867
C       0.87557971      0.88265697      2.54646665
C       0.49412107      1.14543430      4.00250745
C       1.51155408      0.48665501      4.93716112
C       1.56650991      0.78436750      6.35951069
O       0.68429332      1.34440731      6.93073362
O       2.69558369      0.38251617      6.95379900
C       2.84626743      0.68173246      8.34256078
H      -0.32167468      1.64796315     -0.52261842
H       1.40825261      1.45712515     -0.09223253
H       0.31769625      0.08670237      0.07330554
H      -1.09725007      1.32496055      1.80087225
H       0.02033493      2.64370142      1.72061231
H       0.85271549     -0.15870920      2.25724995
H       1.97189836      1.08456315      2.45230670
H       0.41693018      2.19965406      4.23428934
H      -0.52346268      0.74549812      4.15335488
H       1.43706545     -0.61356397      4.87570272
H       2.49548425      0.74685203      4.56132631
H       3.89622257      0.30766640      8.64240680
H       2.01026585      0.21193858      8.84226899
H       2.87261503      1.76398608      8.51221597
23
Frame 235  Energy = -425.8903108928 Hartree
C       0.36060757      1.20338302      0.16470322
C      -0.03868767      1.59658338      1.56398873
C       0.87566190      0.88028674      2.54776416
C       0.49345872      1.14465353      4.00252534
C       1.51146651      0.48457742      4.93841509
C       1.56905570      0.78395995      6.36294395
O       0.68317559      1.34222903      6.92955033
O       2.69648145      0.38275967      6.95174809
C       2.84677767      0.68073685      8.34096694
H      -0.32647776      1.64481698     -0.52380015
H       1.41308905      1.46232974     -0.08725411
H       0.32027143      0.09158583      0.08118237
H      -1.10739100      1.32785748      1.80348328
H       0.01616425      2.64187818      1.71652452
H       0.85240370     -0.14736731      2.25766748
H       1.98495462      1.08333066      2.44747107
H       0.41792388      2.20147327      4.23153017
H      -0.52680860      0.74677929      4.15593867
H       1.43516351     -0.61481726      4.87611980
H       2.49175556      0.75398152      4.55408980
H       3.89439301      0.31407554      8.63400589
H       2.00448177      0.20221439      8.84677762
H       2.87582054      1.76883996      8.50840755
23
Frame 240  Energy = -425.8903540444 Hartree
C       0.36377768      1.20397285      0.16512211
C      -0.03955361      1.59818084      1.56604066
C       0.87595802      0.87810912      2.54917063
C       0.49265593      1.14373369      4.00265910
C       1.51153268      0.48233328      4.93939321
C       1.57149666      0.78365125      6.36640948
O       0.68186297      1.34009697      6.92859606
O       2.69757634      0.38299616      6.94970303
C       2.84755348      0.67976558      8.33953159
H      -0.33165159      1.64194556     -0.52708373
H       1.41569080      1.46784392     -0.08134555
H       0.32261224      0.09820128      0.08871123
H      -1.11475385      1.33098672      1.80556328
H       0.01252699      2.64293442      1.71252335
H       0.85154631     -0.13835385      2.25901456
H       1.99552048      1.08301507      2.44154044
H       0.41951144      2.20343317      4.22818079
H      -0.52879120      0.74805873      4.15897225
H       1.43332940     -0.61561837      4.87588372
H       2.48856499      0.76044573      4.54625374
H       3.88828485      0.32087308      8.62514016
H       1.99988292      0.19320670      8.85264356
H       2.87822748      1.77286995      8.50433323
23
Frame 245  Energy = -425.8902980607 Hartree
C       0.36695893      1.20438529      0.16549240
C      -0.04031102      1.59961784      1.56836173
C       0.87648543      0.87626903      2.55062885
C       0.49171608      1.14264623      4.00297063
C       1.51174123      0.47992218      4.94006711
C       1.57377796      0.78345176      6.36996187
O       0.68035122      1.33808158      6.92784990
O       2.69882226      0.38323385      6.94766720
C       2.84852645      0.67879360      8.33817278
H      -0.33664420      1.63897709     -0.53221448
H       1.41649648      1.47390605     -0.07526203
H       0.32460507      0.10640015      0.09584267
H      -1.11902315      1.33401973      1.80634491
H       0.00969433      2.64721819      1.70846399
H       0.84990470     -0.13242853      2.26130755
H       2.00264805      1.08387115      2.43505561
H       0.42141351      2.20590826      4.22414970
H      -0.52974206      0.74939616      4.16250085
H       1.43154357     -0.61568109      4.87511327
H       2.48573968      0.76571798      4.53807671
H       3.87820446      0.32752146      8.61613273
H       1.99712737      0.18539419      8.85919251
H       2.87941171      1.77606066      8.50031028
23
Frame 250  Energy = -425.8903482248 Hartree
C       0.37023257      1.20469393      0.16588136
C      -0.04103532      1.60083187      1.57086476
C       0.87723516      0.87473877      2.55218025
C       0.49060124      1.14142313      4.00337384
C       1.51207013      0.47736009      4.94041103
C       1.57586379      0.78326105      6.37343331
O       0.67863328      1.33611982      6.92730647
O       2.70012906      0.38345641      6.94558884
C       2.84969348      0.67793165      8.33685577
H      -0.34098190      1.63545417     -0.53891540
H       1.41549641      1.48003035     -0.06879832
H       0.32635518      0.11528914      0.10244719
H      -1.12006695      1.33668113      1.80601151
H       0.00747935      2.65424133      1.70442540
H       0.84764082     -0.13053609      2.26407926
H       2.00602815      1.08585854      2.42823563
H       0.42352070      2.20855720      4.21944478
H      -0.52956133      0.75113635      4.16668160
H       1.43030405     -0.61498899      4.87412297
H       2.48336373      0.76957502      4.52957635
H       3.86527864      0.33397221      8.60682549
H       1.99671805      0.17914580      8.86629618
H       2.87910508      1.77780582      8.49634097
23
Frame 255  Energy = -425.8904453222 Hartree
C       0.37338792      1.20489468      0.16631650
C      -0.04176062      1.60190909      1.57341943
C       0.87822228      0.87360538      2.55381698
C       0.48933174      1.14001838      4.00386483
C       1.51252148      0.47468636      4.94040688
C       1.57787851      0.78310297      6.37675098
O       0.67677985      1.33425453      6.92697072
O       2.70156295      0.38366499      6.94354658
C       2.85092816      0.67719898      8.33569549
H      -0.34404899      1.63150703     -0.54648358
H       1.41291026      1.48635111     -0.06213116
H       0.32787176      0.12378513      0.10847336
H      -1.11773125      1.33922202      1.80492517
H       0.00579032      2.66357312      1.70055820
H       0.84449917     -0.13268630      2.26695556
H       2.00573307      1.08859130      2.42094303
H       0.42591562      2.21135768      4.21418021
H      -0.52831053      0.75303679      4.17097709
H       1.42946877     -0.61388465      4.87230812
H       2.48123308      0.77215178      4.52120257
H       3.85040473      0.33985617      8.59745101
H       1.99877281      0.17412014      8.87326447
H       2.87762951      1.77768869      8.49200917
23
Frame 260  Energy = -425.8905211414 Hartree
C       0.37646269      1.20513467      0.16666432
C      -0.04258600      1.60281680      1.57604650
C       0.87943175      0.87295623      2.55553831
C       0.48796626      1.13856306      4.00449992
C       1.51306330      0.47196230      4.94006626
C       1.57972760      0.78299931      6.37980524
O       0.67477839      1.33250279      6.92687273
O       2.70314466      0.38386694      6.94156872
C       2.85210347      0.67659638      8.33454682
H      -0.34578709      1.62711677     -0.55445685
H       1.40936677      1.49295793     -0.05538214
H       0.32893972      0.13141980      0.11384935
H      -1.11242828      1.34191498      1.80354316
H       0.00448517      2.67480348      1.69704397
H       0.84011654     -0.13923562      2.27011081
H       2.00152471      1.09214625      2.41343152
H       0.42903027      2.21391049      4.20860606
H      -0.52616854      0.75530939      4.17548021
H       1.42900312     -0.61243069      4.87000772
H       2.47936447      0.77359894      4.51305199
H       3.83511524      0.34437020      8.58838002
H       2.00355681      0.17074341      8.87990667
H       2.87491817      1.77583200      8.48806448
23
Frame 265  Energy = -425.8906506349 Hartree
C       0.37936784      1.20542753      0.16694223
C      -0.04333946      1.60379067      1.57880113
C       0.88081594      0.87270052      2.55735056
C       0.48652241      1.13703606      4.00536728
C       1.51366051      0.46923558      4.93946949
C       1.58140642      0.78290607      6.38258338
O       0.67262320      1.33083089      6.92703221
O       2.70488650      0.38395088      6.93957393
C       2.85311466      0.67607862      8.33347060
H      -0.34595156      1.62213084     -0.56226883
H       1.40499004      1.49997603     -0.04851760
H       0.32997663      0.13785152      0.11807597
H      -1.10496067      1.34463342      1.80138573
H       0.00352917      2.68701979      1.69384590
H       0.83505401     -0.14954648      2.27373532
H       1.99330615      1.09629142      2.40602096
H       0.43260900      2.21569885      4.20282525
H      -0.52342968      0.75745938      4.18043543
H       1.42896219     -0.61092763      4.86743725
H       2.47793846      0.77348761      4.50501982
H       3.82098711      0.34711725      8.57975395
H       2.01094696      0.16910349      8.88604635
H       2.87113933      1.77254309      8.48438911
23
Frame 270  Energy = -425.8907479545 Hartree
C       0.38210504      1.20581999      0.16721771
C      -0.04407629      1.60476773      1.58161892
C       0.88237748      0.87271496      2.55926284
C       0.48504977      1.13537324      4.00640427
C       1.51440040      0.46649463      4.93852511
C       1.58279749      0.78287889      6.38512248
O       0.67045721      1.32925105      6.92745318
O       2.70673681      0.38395966      6.93760819
C       2.85389404      0.67570833      8.33243965
H      -0.34409384      1.61670405     -0.56988560
H       1.40040521      1.50729902     -0.04173714
H       0.33100626      0.14238461      0.12142845
H      -1.09567728      1.34701761      1.79839054
H       0.00276165      2.69899368      1.69127698
H       0.82945364     -0.16280162      2.27784445
H       1.98200771      1.10085818      2.39897273
H       0.43668854      2.21679434      4.19694697
H      -0.52075874      0.75936139      4.18566822
H       1.42942294     -0.61031662      4.86439630
H       2.47666097      0.77194279      4.49726821
H       3.80926425      0.34749948      8.57204546
H       2.02057827      0.16906101      8.89142427
H       2.86632144      1.76788054      8.48081786
23
Frame 275  Energy = -425.8906196286 Hartree
C       0.38453169      1.20633988      0.16746014
C      -0.04465559      1.60578306      1.58436616
C       0.88401586      0.87297439      2.56124203
C       0.48357652      1.13369782      4.00762026
C       1.51534577      0.46373756      4.93729061
C       1.58390251      0.78291847      6.38733432
O       0.66824429      1.32777509      6.92810839
O       2.70870637      0.38401057      6.93579589
C       2.85433139      0.67552220      8.33147602
H      -0.34022593      1.61106536     -0.57683066
H       1.39614012      1.51492004     -0.03534035
H       0.33194135      0.14478291      0.12398657
H      -1.08518557      1.34899626      1.79480649
H       0.00227674      2.71033438      1.68899964
H       0.82363828     -0.17812720      2.28240279
H       1.96814295      1.10598938      2.39187746
H       0.44143538      2.21706144      4.19076786
H      -0.51854630      0.76069420      4.19085263
H       1.43025097     -0.61092648      4.86092998
H       2.47537520      0.76891882      4.48995388
H       3.80123109      0.34565325      8.56530591
H       2.03260647      0.17087714      8.89601634
H       2.86021905      1.76192267      8.47773754
23
Frame 280  Energy = -425.8905204564 Hartree
C       0.38662052      1.20704068      0.16771634
C      -0.04509166      1.60694067      1.58697229
C       0.88570441      0.87324771      2.56328385
C       0.48210375      1.13196103      4.00901476
C       1.51651347      0.46097896      4.93574315
C       1.58469728      0.78303750      6.38919735
O       0.66588982      1.32635032      6.92899819
O       2.71078359      0.38399218      6.93401851
C       2.85436506      0.67545643      8.33047815
H      -0.33430873      1.60494102     -0.58304728
H       1.39247851      1.52283666     -0.02932239
H       0.33311724      0.14501629      0.12575722
H      -1.07432896      1.35064498      1.79098684
H       0.00229588      2.72010001      1.68696709
H       0.81787065     -0.19416379      2.28801109
H       1.95208136      1.11175753      2.38510614
H       0.44668169      2.21641309      4.18414871
H      -0.51650784      0.76235848      4.19614303
H       1.43154428     -0.61241212      4.85713282
H       2.47394018      0.76477846      4.48332902
H       3.79770460      0.34128928      8.56041746
H       2.04665620      0.17384891      8.90008983
H       2.85308806      1.75496651      8.47490994
23
Frame 285  Energy = -425.8907705677 Hartree
C       0.38834064      1.20786363      0.16795426
C      -0.04521634      1.60825870      1.58946358
C       0.88731022      0.87351628      2.56528298
C       0.48076645      1.13025317      4.01045862
C       1.51794479      0.45838054      4.93387881
C       1.58510746      0.78325770      6.39069116
O       0.66342165      1.32499749      6.93003622
O       2.71289452      0.38393618      6.93234287
C       2.85400725      0.67543600      8.32942263
H      -0.32656297      1.59849290     -0.58861434
H       1.38989248      1.53129501     -0.02384541
H       0.33482713      0.14310857      0.12656294
H      -1.06446091      1.35172440      1.78716945
H       0.00257887      2.72795310      1.68534540
H       0.81204505     -0.20968860      2.29475878
H       1.93473140      1.11824896      2.37854250
H       0.45222195      2.21484591      4.17759894
H      -0.51475436      0.76392929      4.20184901
H       1.43342037     -0.61484587      4.85296999
H       2.47256334      0.75949610      4.47780913
H       3.79900207      0.33461519      8.55736167
H       2.06234454      0.17789204      8.90371577
H       2.84495914      1.74788059      8.47208915
23
Frame 290  Energy = -425.8905189030 Hartree
C       0.38971375      1.20878645      0.16815972
C      -0.04497246      1.60988651      1.59172672
C       0.88864936      0.87366116      2.56719968
C       0.47953676      1.12857250      4.01189045
C       1.51957729      0.45585349      4.93175171
C       1.58523024      0.78347595      6.39172741
O       0.66079798      1.32365904      6.93121005
O       2.71510843      0.38390501      6.93076934
C       2.85330315      0.67543474      8.32819976
H      -0.31714731      1.59183527     -0.59339676
H       1.38880062      1.54010108     -0.01899936
H       0.33700879      0.13937602      0.12660778
H      -1.05600494      1.35170416      1.78368602
H       0.00324659      2.73377215      1.68403904
H       0.80640612     -0.22386086      2.30273200
H       1.91733047      1.12517536      2.37266163
H       0.45809190      2.21239940      4.17127977
H      -0.51345574      0.76542204      4.20738808
H       1.43573100     -0.61799369      4.84858275
H       2.47143674      0.75314786      4.47301630
H       3.80478104      0.32571884      8.55633475
H       2.07879639      0.18272192      8.90731257
H       2.83593075      1.74130645      8.46959166
23
Frame 295  Energy = -425.8904455835 Hartree
C       0.39080875      1.20983043      0.16836157
C      -0.04450912      1.61170642      1.59375972
C       0.88966783      0.87357134      2.56906824
C       0.47845290      1.12686666      4.01347298
C       1.52151243      0.45344527      4.92939390
C       1.58500654      0.78374603      6.39239092
O       0.65815238      1.32236980      6.93267885
O       2.71737411      0.38383720      6.92929632
C       2.85246802      0.67550913      8.32698684
H      -0.30634216      1.58513628     -0.59729278
H       1.38880352      1.54939346     -0.01483949
H       0.33934709      0.13409338      0.12610547
H      -1.04941900      1.35049708      1.78045998
H       0.00457137      2.73700131      1.68290152
H       0.80117179     -0.23594061      2.31168794
H       1.90085490      1.13299550      2.36679395
H       0.46406266      2.20904975      4.16547021
H      -0.51295057      0.76651173      4.21280843
H       1.43828447     -0.62196919      4.84385196
H       2.47044332      0.74590042      4.46878254
H       3.81420065      0.31523680      8.55684105
H       2.09500725      0.18766673      8.91059434
H       2.82617694      1.73570403      8.46763820
23
Frame 300  Energy = -425.8903378338 Hartree
C       0.39163273      1.21100849      0.16861070
C      -0.04371529      1.61368854      1.59553115
C       0.89022398      0.87322999      2.57086273
C       0.47755432      1.12504240      4.01522893
C       1.52358832      0.45117521      4.92688239
C       1.58451513      0.78408115      6.39266680
O       0.65548390      1.32115271      6.93444974
O       2.71969759      0.38370485      6.92797414
C       2.85157877      0.67558851      8.32572298
H      -0.29453558      1.57833182     -0.60096849
H       1.38972477      1.55916054     -0.01086620
H       0.34216630      0.12806066      0.12469505
H      -1.04535032      1.34825811      1.77750325
H       0.00645499      2.73748380      1.68223349
H       0.79624987     -0.24538129      2.32152574
H       1.88633472      1.14209544      2.36135097
H       0.47004164      2.20544648      4.16008343
H      -0.51380424      0.76708683      4.21822091
H       1.44113484     -0.62692902      4.83877706
H       2.46970105      0.73808315      4.46533112
H       3.82632246      0.30359208      8.55836062
H       2.11001026      0.19251133      8.91416685
H       2.81600705      1.73127980      8.46646941
