11
Frame 5  Energy = -268.3166237936 Hartree
C       0.80524065     -0.45727633     -0.69651962
C       0.39312509     -0.84339744     -2.09480394
C      -0.90754961     -1.56571014     -2.08829188
O      -1.52365608     -1.83613346     -1.07434990
O      -1.51867013     -1.84213640     -3.28111153
H       1.76025117     -0.00843257     -0.70995642
H       0.14963328      0.20678622     -0.11717281
H       0.85337982     -1.34548513     -0.02460786
H       0.31973046      0.00391545     -2.75697376
H       1.18143808     -1.50404429     -2.45855472
H      -0.84706191     -1.72665593     -3.95178358
11
Frame 10  Energy = -268.3164825235 Hartree
C       0.80705007     -0.45715496     -0.69942368
C       0.39380801     -0.84263404     -2.09121818
C      -0.91040958     -1.56586352     -2.08932418
O      -1.52306072     -1.83639588     -1.07542669
O      -1.52051998     -1.84328458     -3.28029614
H       1.76392088     -0.00641152     -0.71535959
H       0.15847552      0.21421159     -0.11083759
H       0.85666120     -1.34508723     -0.01191060
H       0.32176759      0.01022166     -2.76342298
H       1.18454046     -1.50728149     -2.46328236
H      -0.85271945     -1.72529823     -3.95112383
11
Frame 15  Energy = -268.3165145935 Hartree
C       0.80868209     -0.45718426     -0.70201735
C       0.39455930     -0.84198073     -2.08761425
C      -0.91367599     -1.56611328     -2.09023007
O      -1.52247225     -1.83659510     -1.07666042
O      -1.52241857     -1.84442883     -3.27926749
H       1.77072991     -0.00297099     -0.72041164
H       0.16694669      0.22169104     -0.10642223
H       0.86023367     -1.34386108     -0.00139209
H       0.32447966      0.01738506     -2.77014511
H       1.18718581     -1.51075080     -2.46868603
H      -0.85703036     -1.72401795     -3.95319088
11
Frame 20  Energy = -268.3164283727 Hartree
C       0.81021171     -0.45737411     -0.70415233
C       0.39537631     -0.84143604     -2.08395933
C      -0.91723554     -1.56640935     -2.09092227
O      -1.52200364     -1.83677560     -1.07799512
O      -1.52427917     -1.84558327     -3.27810339
H       1.78012526      0.00134236     -0.72554771
H       0.17532493      0.22912389     -0.10377641
H       0.86417024     -1.34118542      0.00663922
H       0.32764488      0.02453064     -2.77647749
H       1.18903429     -1.51395854     -2.47462576
H      -0.86008181     -1.72255459     -3.95765352
11
Frame 25  Energy = -268.3165076077 Hartree
C       0.81161604     -0.45764936     -0.70578543
C       0.39620172     -0.84090347     -2.08037119
C      -0.92098277     -1.56679132     -2.09138707
O      -1.52153773     -1.83695626     -1.07930530
O      -1.52613170     -1.84679701     -3.27693500
H       1.79131130      0.00639772     -0.73074028
H       0.18351157      0.23632389     -0.10349592
H       0.86852387     -1.33683407      0.01208791
H       0.33075219      0.03119237     -2.78163746
H       1.18962241     -1.51602551     -2.48100747
H      -0.86220888     -1.72094463     -3.96436225
11
Frame 30  Energy = -268.3165656246 Hartree
C       0.81308339     -0.45794397     -0.70691851
C       0.39705103     -0.84034072     -2.07700710
C      -0.92490346     -1.56709901     -2.09169025
O      -1.52104330     -1.83711138     -1.08057447
O      -1.52794600     -1.84804287     -3.27573484
H       1.80367439      0.01124464     -0.73594514
H       0.19154498      0.24320933     -0.10564079
H       0.87321907     -1.33117513      0.01452240
H       0.33371078      0.03675896     -2.78541374
H       1.18902856     -1.51754912     -2.48708113
H      -0.86369523     -1.71925609     -3.97304649
11
Frame 35  Energy = -268.3165853870 Hartree
C       0.81456449     -0.45829699     -0.70750325
C       0.39796552     -0.83975194     -2.07393879
C      -0.92885681     -1.56725228     -2.09188778
O      -1.52062140     -1.83723798     -1.08177878
O      -1.52968448     -1.84923865     -3.27455640
H       1.81602785      0.01580299     -0.74139350
H       0.19918021      0.24948436     -0.11033394
H       0.87811621     -1.32390242      0.01395913
H       0.33682558      0.04067833     -2.78745964
H       1.18704283     -1.51810516     -2.49305950
H      -0.86537964     -1.71732861     -3.98268977
11
Frame 40  Energy = -268.3164981041 Hartree
C       0.81611613     -0.45870558     -0.70756982
C       0.39905625     -0.83916225     -2.07123816
C      -0.93293794     -1.56734470     -2.09198243
O      -1.52020456     -1.83741439     -1.08293092
O      -1.53128912     -1.85041949     -3.27343957
H       1.82777506      0.01998900     -0.74669582
H       0.20642402      0.25504205     -0.11738458
H       0.88349064     -1.31552928      0.01068548
H       0.34018104      0.04284832     -2.78759200
H       1.18364608     -1.51773565     -2.49904178
H      -0.86759993     -1.71522243     -3.99206186
11
Frame 45  Energy = -268.3165018426 Hartree
C       0.81801489     -0.45903505     -0.70710841
C       0.40019575     -0.83858699     -2.06898682
C      -0.93709865     -1.56732377     -2.09202469
O      -1.51983046     -1.83771859     -1.08408208
O      -1.53275596     -1.85150590     -3.27240026
H       1.83813221      0.02325436     -0.75185606
H       0.21298992      0.26029763     -0.12666355
H       0.88921964     -1.30657073      0.00538876
H       0.34369331      0.04311751     -2.78566543
H       1.17886134     -1.51633729     -2.50509655
H      -0.87103179     -1.71323481     -4.00071823
11
Frame 50  Energy = -268.3166270338 Hartree
C       0.82031511     -0.45917880     -0.70616300
C       0.40127231     -0.83811715     -2.06713331
C      -0.94118911     -1.56715165     -2.09216033
O      -1.51951189     -1.83808347     -1.08510799
O      -1.53407414     -1.85252783     -3.27149467
H       1.84643749      0.02522433     -0.75686125
H       0.21881998      0.26548144     -0.13817492
H       0.89485077     -1.29748842     -0.00132677
H       0.34726134      0.04182439     -2.78163466
H       1.17278212     -1.51439436     -2.51088417
H      -0.87595448     -1.71130384     -4.00798956
11
Frame 55  Energy = -268.3166292580 Hartree
C       0.82303944     -0.45910732     -0.70485289
C       0.40225411     -0.83770814     -2.06576343
C      -0.94514281     -1.56682552     -2.09230101
O      -1.51922408     -1.83858245     -1.08589625
O      -1.53518439     -1.85354513     -3.27081487
H       1.85238910      0.02604455     -0.76155553
H       0.22383828      0.27074694     -0.15128987
H       0.90073493     -1.28896041     -0.00897953
H       0.35094525      0.03874625     -2.77565662
H       1.16572570     -1.51179565     -2.51619756
H      -0.88269461     -1.70981309     -4.01366496
11
Frame 60  Energy = -268.3164193065 Hartree
C       0.82627653     -0.45876709     -0.70325221
C       0.40318369     -0.83730474     -2.06489581
C      -0.94896125     -1.56628373     -2.09248959
O      -1.51899795     -1.83917644     -1.08649353
O      -1.53613567     -1.85458673     -3.27038749
H       1.85598930      0.02545107     -0.76592620
H       0.22808826      0.27608085     -0.16567366
H       0.90713890     -1.28136353     -0.01710809
H       0.35440424      0.03411131     -2.76805800
H       1.15773911     -1.50876225     -2.52090091
H      -0.89098458     -1.70871070     -4.01755744
11
Frame 65  Energy = -268.3165656855 Hartree
C       0.82992766     -0.45810519     -0.70137977
C       0.40398306     -0.83690282     -2.06448279
C      -0.95264184     -1.56559381     -2.09268627
O      -1.51894688     -1.83982670     -1.08697802
O      -1.53690126     -1.85562550     -3.27018931
H       1.85704112      0.02349795     -0.77029128
H       0.23101963      0.28163420     -0.18111709
H       0.91369055     -1.27540200     -0.02485504
H       0.35818796      0.02848537     -2.75917383
H       1.14949075     -1.50542031     -2.52512212
H      -0.90069007     -1.70776154     -4.01952871
11
Frame 70  Energy = -268.3166987529 Hartree
C       0.83397121     -0.45712444     -0.69932959
C       0.40454414     -0.83661272     -2.06452202
C      -0.95604331     -1.56475513     -2.09298001
O      -1.51914377     -1.84057621     -1.08721000
O      -1.53753045     -1.85666505     -3.27019098
H       1.85565459      0.02034199     -0.77449551
H       0.23239105      0.28744241     -0.19668494
H       0.92046383     -1.27171147     -0.03140823
H       0.36181859      0.02200218     -2.74954659
H       1.14095148     -1.50234809     -2.52905376
H      -0.91161698     -1.70690832     -4.02007883
11
Frame 75  Energy = -268.3167323995 Hartree
C       0.83842427     -0.45577630     -0.69724801
C       0.40494334     -0.83653695     -2.06484037
C      -0.95917208     -1.56371021     -2.09342035
O      -1.51938377     -1.84139915     -1.08716016
O      -1.53805096     -1.85769824     -3.27025786
H       1.85203219      0.01614052     -0.77845048
H       0.23242385      0.29366813     -0.21218874
H       0.92747655     -1.27089352     -0.03633996
H       0.36532980      0.01565222     -2.73968780
H       1.13265183     -1.49992443     -2.53289408
H      -0.92336833     -1.70593857     -4.01942161
11
Frame 80  Energy = -268.3166436619 Hartree
C       0.84309777     -0.45417050     -0.69515707
C       0.40503768     -0.83670592     -2.06540112
C      -0.96209384     -1.56249116     -2.09389409
O      -1.51984195     -1.84219835     -1.08687163
O      -1.53857394     -1.85876634     -3.27037694
H       1.84653845      0.01093720     -0.78227296
H       0.23067835      0.30056857     -0.22762322
H       0.93448404     -1.27328932     -0.03915650
H       0.36847785      0.01001245     -2.72997118
H       1.12502389     -1.49840539     -2.53661200
H      -0.93570425     -1.70481432     -4.01840438
11
Frame 85  Energy = -268.3166152456 Hartree
C       0.84796984     -0.45222121     -0.69313114
C       0.40498019     -0.83712114     -2.06615857
C      -0.96473036     -1.56115600     -2.09442060
O      -1.52049477     -1.84303625     -1.08636988
O      -1.53912993     -1.85979091     -3.27056787
H       1.84008974      0.00526299     -0.78576292
H       0.22750147      0.30785563     -0.24263972
H       0.94151722     -1.27901003     -0.04016420
H       0.37159089      0.00589043     -2.72102336
H       1.11832539     -1.49780305     -2.54060276
H      -0.94766778     -1.70310638     -4.01734305
11
Frame 90  Energy = -268.3165862249 Hartree
C       0.85307958     -0.45003667     -0.69129890
C       0.40469646     -0.83764541     -2.06700777
C      -0.96699201     -1.55969586     -2.09508344
O      -1.52134960     -1.84401626     -1.08555942
O      -1.53976414     -1.86082734     -3.27073722
H       1.83341983     -0.00041288     -0.78912271
H       0.22294265      0.31515068     -0.25692263
H       0.94861027     -1.28732924     -0.03929177
H       0.37409856      0.00421206     -2.71303184
H       1.11300423     -1.49821452     -2.54496046
H      -0.95873309     -1.70091197     -4.01680585
11
Frame 95  Energy = -268.3166808268 Hartree
C       0.85815491     -0.44765492     -0.68959825
C       0.40426431     -0.83835854     -2.06793141
C      -0.96881286     -1.55807517     -2.09585016
O      -1.52238746     -1.84504308     -1.08448527
O      -1.54050848     -1.86194045     -3.27089217
H       1.82754430     -0.00561820     -0.79234832
H       0.21724432      0.32263205     -0.27093602
H       0.95575773     -1.29777006     -0.03694780
H       0.37605186      0.00516694     -2.70680040
H       1.10944162     -1.50021930     -2.54947831
H      -0.96818910     -1.69800736     -4.01727164
11
Frame 100  Energy = -268.3167299647 Hartree
C       0.86320481     -0.44524922     -0.68801687
C       0.40362153     -0.83931546     -2.06886651
C      -0.97019186     -1.55628918     -2.09663712
O      -1.52359477     -1.84616993     -1.08319907
O      -1.54134754     -1.86308219     -3.27100994
H       1.82376078     -0.00945644     -0.79548174
H       0.21073856      0.32998975     -0.28416296
H       0.96287238     -1.30905367     -0.03351394
H       0.37757494      0.00933369     -2.70289228
H       1.10731346     -1.50336684     -2.55406290
H      -0.97560663     -1.69393542     -4.01925823
11
Frame 105  Energy = -268.3168491647 Hartree
C       0.86812449     -0.44287242     -0.68652659
C       0.40272465     -0.84044098     -2.06982679
C      -0.97114039     -1.55446653     -2.09747190
O      -1.52490854     -1.84745674     -1.08172412
O      -1.54227725     -1.86431752     -3.27112392
H       1.82283184     -0.01167913     -0.79837606
H       0.20429258      0.33707608     -0.29660862
H       0.96942705     -1.32012492     -0.02964734
H       0.37876783      0.01657571     -2.70066335
H       1.10642507     -1.50756076     -2.55859331
H      -0.98088153     -1.68878004     -4.02288082
11
Frame 110  Energy = -268.3168109714 Hartree
C       0.87280692     -0.44058545     -0.68505916
C       0.40159559     -0.84174048     -2.07083531
C      -0.97180781     -1.55243729     -2.09828051
O      -1.52638029     -1.84880647     -1.08010472
O      -1.54330706     -1.86569515     -3.27122444
H       1.82540812     -0.01244102     -0.80114777
H       0.19832216      0.34322262     -0.30783771
H       0.97540312     -1.33030406     -0.02534954
H       0.37935617      0.02611375     -2.70011639
H       1.10639286     -1.51243142     -2.56316319
H      -0.98450920     -1.68263782     -4.02772049
11
Frame 115  Energy = -268.3168668323 Hartree
C       0.87725835     -0.43859406     -0.68361956
C       0.40027257     -0.84320517     -2.07201333
C      -0.97233084     -1.55027725     -2.09900137
O      -1.52801815     -1.85022758     -1.07838725
O      -1.54442674     -1.86713521     -3.27138638
H       1.83149414     -0.01117190     -0.80377026
H       0.19248600      0.34817033     -0.31796783
H       0.98087531     -1.33882746     -0.02158246
H       0.37940133      0.03746614     -2.70120548
H       1.10705550     -1.51779849     -2.56756415
H      -0.98663528     -1.67575382     -4.03367274
11
Frame 120  Energy = -268.3167519876 Hartree
C       0.88150326     -0.43686605     -0.68223787
C       0.39876778     -0.84482929     -2.07337315
C      -0.97266564     -1.54812474     -2.09963593
O      -1.52978971     -1.85165340     -1.07666201
O      -1.54556456     -1.86856418     -3.27149218
H       1.84132682     -0.00816775     -0.80631527
H       0.18709035      0.35172697     -0.32682730
H       0.98539019     -1.34481642     -0.01903747
H       0.37875018      0.05003799     -2.70318034
H       1.10829343     -1.52327101     -2.57178958
H      -0.98770904     -1.66830114     -4.04033817
11
Frame 125  Energy = -268.3167659983 Hartree
C       0.88544460     -0.43538421     -0.68088253
C       0.39719989     -0.84659807     -2.07484941
C      -0.97294277     -1.54587680     -2.10018210
O      -1.53166051     -1.85304346     -1.07498598
O      -1.54669334     -1.86997640     -3.27167048
H       1.85409586     -0.00397404     -0.80926772
H       0.18239011      0.35374926     -0.33445324
H       0.98866920     -1.34832395     -0.01735516
H       0.37775672      0.06297489     -2.70548878
H       1.10912730     -1.52872921     -2.57573222
H      -0.98818632     -1.66025741     -4.04687107
11
Frame 130  Energy = -268.3165185863 Hartree
C       0.88913713     -0.43417846     -0.67953660
C       0.39557374     -0.84844690     -2.07643554
C      -0.97316076     -1.54352594     -2.10050431
O      -1.53359694     -1.85439065     -1.07333477
O      -1.54783456     -1.87137467     -3.27188953
H       1.86924299      0.00130422     -0.81174531
H       0.17898239      0.35428709     -0.34093534
H       0.99062705     -1.34907066     -0.01659431
H       0.37630813      0.07515424     -2.70777446
H       1.11000119     -1.53405060     -2.57935181
H      -0.98857141     -1.65165792     -4.05255385
11
Frame 135  Energy = -268.3163126596 Hartree
C       0.89265280     -0.43318485     -0.67822962
C       0.39390836     -0.85027935     -2.07829691
C      -0.97329228     -1.54110941     -2.10050000
O      -1.53550966     -1.85567996     -1.07172670
O      -1.54902055     -1.87285372     -3.27208822
H       1.88591638      0.00750538     -0.81375624
H       0.17726593      0.35289758     -0.34604204
H       0.99127063     -1.34666348     -0.01699763
H       0.37397153      0.08589783     -2.70984797
H       1.11085423     -1.53902507     -2.58246293
H      -0.98893748     -1.64281051     -4.05733740
11
Frame 140  Energy = -268.3165311317 Hartree
C       0.89609220     -0.43236331     -0.67715283
C       0.39231824     -0.85196946     -2.08018883
C      -0.97339928     -1.53878752     -2.10011351
O      -1.53739309     -1.85697078     -1.07020392
O      -1.55016764     -1.87434648     -3.27247776
H       1.90267521      0.01366591     -0.81504043
H       0.17695507      0.34970244     -0.34971476
H       0.99076878     -1.34153641     -0.01817957
H       0.37093263      0.09444226     -2.71121774
H       1.11154222     -1.54326292     -2.58517982
H      -0.98978998     -1.63390219     -4.06045281
11
Frame 145  Energy = -268.3167374885 Hartree
C       0.89939986     -0.43162312     -0.67635897
C       0.39081858     -0.85347307     -2.08221730
C      -0.97359037     -1.53645418     -2.09939093
O      -1.53924231     -1.85817827     -1.06869644
O      -1.55126425     -1.87578775     -3.27302099
H       1.91774292      0.01948274     -0.81566440
H       0.17817758      0.34501225     -0.35208596
H       0.98931218     -1.33332343     -0.02036053
H       0.36713397      0.09995683     -2.71154719
H       1.11171744     -1.54630746     -2.58731496
H      -0.99170371     -1.62507481     -4.06136785
11
Frame 150  Energy = -268.3167176532 Hartree
C       0.90276813     -0.43099873     -0.67578885
C       0.38942621     -0.85473576     -2.08456630
C      -0.97387129     -1.53420489     -2.09838685
O      -1.54099587     -1.85937451     -1.06729748
O      -1.55229241     -1.87717527     -3.27378013
H       1.93040953      0.02401014     -0.81558484
H       0.18069409      0.33898906     -0.35322380
H       0.98715599     -1.32251791     -0.02277642
H       0.36275419      0.10244480     -2.71051303
H       1.11084003     -1.54778769     -2.58876591
H      -0.99440467     -1.61663016     -4.05988035
11
Frame 155  Energy = -268.3166681869 Hartree
C       0.90613736     -0.43047333     -0.67552762
C       0.38820721     -0.85579934     -2.08712096
C      -0.97421067     -1.53208248     -2.09713664
O      -1.54274950     -1.86052209     -1.06603656
O      -1.55323391     -1.87843236     -3.27470314
H       1.94027941      0.02726180     -0.81476795
H       0.18449931      0.33197946     -0.35263904
H       0.98427917     -1.30983172     -0.02523103
H       0.35774188      0.10205418     -2.70795769
H       1.10880666     -1.54823523     -2.58951313
H      -0.99835516     -1.60830327     -4.05641351
11
Frame 160  Energy = -268.3166940241 Hartree
C       0.90967655     -0.42988289     -0.67551109
C       0.38719351     -0.85669266     -2.08977621
C      -0.97463577     -1.53007566     -2.09561340
O      -1.54444756     -1.86158449     -1.06495469
O      -1.55404053     -1.87964473     -3.27579057
H       1.94718711      0.02936116     -0.81340770
H       0.18932973      0.32416997     -0.35056561
H       0.98121127     -1.29627583     -0.02717256
H       0.35234112      0.09893719     -2.70454083
H       1.10583510     -1.54781731     -2.58969205
H      -1.00299210     -1.60019594     -4.05115434
11
Frame 165  Energy = -268.3166041712 Hartree
C       0.91332216     -0.42928281     -0.67589022
C       0.38632982     -0.85743614     -2.09253847
C      -0.97519050     -1.52824580     -2.09376780
O      -1.54601379     -1.86261095     -1.06401021
O      -1.55463075     -1.88088081     -3.27692161
H       1.95040958      0.03035511     -0.81125368
H       0.19517935      0.31592712     -0.34689575
H       0.97785863     -1.28282099     -0.02793487
H       0.34696443      0.09302611     -2.70076924
H       1.10248641     -1.54642544     -2.58946499
H      -1.00798279     -1.59217601     -4.04381220
11
Frame 170  Energy = -268.3165456628 Hartree
C       0.91718076     -0.42862057     -0.67661003
C       0.38563090     -0.85807131     -2.09536686
C      -0.97590533     -1.52666761     -2.09161246
O      -1.54753224     -1.86353573     -1.06322102
O      -1.55508766     -1.88203252     -3.27811891
H       1.95029103      0.02992099     -0.80824905
H       0.20156300      0.30789776     -0.34158262
H       0.97426752     -1.27017986     -0.02739366
H       0.34152398      0.08435543     -2.69650308
H       1.09846283     -1.54467109     -2.58886975
H      -1.01309047     -1.58423563     -4.03527107
11
Frame 175  Energy = -268.3166724702 Hartree
C       0.92119443     -0.42788647     -0.67783527
C       0.38511509     -0.85853343     -2.09813317
C      -0.97668387     -1.52535230     -2.08914111
O      -1.54889288     -1.86434385     -1.06271385
O      -1.55538034     -1.88310561     -3.27937071
H       1.94688275      0.02817308     -0.80430567
H       0.20783190      0.30046051     -0.33446897
H       0.97024248     -1.25906347     -0.02489811
H       0.33598347      0.07426383     -2.69234533
H       1.09364470     -1.54251267     -2.58841165
H      -1.01798693     -1.57643249     -4.02640609
11
Frame 180  Energy = -268.3167303148 Hartree
C       0.92520297     -0.42698745     -0.67963478
C       0.38469556     -0.85882002     -2.10070108
C      -0.97755377     -1.52415375     -2.08645934
O      -1.55016486     -1.86501148     -1.06247189
O      -1.55563892     -1.88407174     -3.28056623
H       1.94094234      0.02559962     -0.79995220
H       0.21413228      0.29385168     -0.32587684
H       0.96623971     -1.25020749     -0.02020726
H       0.33061028      0.06323228     -2.68845748
H       1.08853117     -1.54022243     -2.58843416
H      -1.02210190     -1.56840506     -4.01794642
11
Frame 185  Energy = -268.3166857311 Hartree
C       0.92918730     -0.42604926     -0.68190599
C       0.38434614     -0.85898551     -2.10306578
C      -0.97859723     -1.52319968     -2.08358719
O      -1.55144188     -1.86556674     -1.06236491
O      -1.55585433     -1.88500129     -3.28157671
H       1.93290016      0.02259658     -0.79514710
H       0.21982138      0.28850151     -0.31555078
H       0.96264580     -1.24395224     -0.01314125
H       0.32532376      0.05183864     -2.68537544
H       1.08329500     -1.53800007     -2.58878186
H      -1.02545128     -1.55965983     -4.01040841
11
Frame 190  Energy = -268.3164139111 Hartree
C       0.93322956     -0.42502566     -0.68463453
C       0.38411815     -0.85911295     -2.10517966
C      -0.97983103     -1.52243053     -2.08038998
O      -1.55267658     -1.86600754     -1.06246600
O      -1.55614799     -1.88585983     -3.28229405
H       1.92366774      0.01936326     -0.78989374
H       0.22499304      0.28467645     -0.30403668
H       0.95916310     -1.24036643     -0.00439872
H       0.32003067      0.04115793     -2.68338821
H       1.07860040     -1.53608453     -2.58966777
H      -1.02767426     -1.55008898     -4.00420849
11
Frame 195  Energy = -268.3164093093 Hartree
C       0.93713107     -0.42409741     -0.68786037
C       0.38395481     -0.85919343     -2.10698883
C      -0.98115062     -1.52183701     -2.07692385
O      -1.55388527     -1.86628413     -1.06262127
O      -1.55649424     -1.88656736     -3.28278444
H       1.91493587      0.01618358     -0.78437310
H       0.22970564      0.28234223     -0.29147156
H       0.95610070     -1.23910323      0.00575996
H       0.31473768      0.03201929     -2.68345537
H       1.07475165     -1.53478860     -2.59124446
H      -1.02853450     -1.53979705     -3.99977732
11
Frame 200  Energy = -268.3163956913 Hartree
C       0.94085145     -0.42328543     -0.69156563
C       0.38386797     -0.85924276     -2.10852181
C      -0.98265406     -1.52135356     -2.07331196
O      -1.55500522     -1.86642826     -1.06292717
O      -1.55675978     -1.88717782     -3.28302611
H       1.90745731      0.01376569     -0.77913104
H       0.23392419      0.28171950     -0.27825779
H       0.95325934     -1.23969130      0.01657526
H       0.30946152      0.02524665     -2.68594268
H       1.07134344     -1.53410864     -2.59342852
H      -1.02795398     -1.52880791     -3.99699418
11
Frame 205  Energy = -268.3164720610 Hartree
C       0.94423829     -0.42259517     -0.69553116
C       0.38374336     -0.85928149     -2.10970494
C      -0.98430340     -1.52111168     -2.06963986
O      -1.55603774     -1.86646902     -1.06324686
O      -1.55696611     -1.88772780     -3.28309524
H       1.90221953      0.01236909     -0.77420136
H       0.23795990      0.28240016     -0.26444415
H       0.95053729     -1.24161445      0.02728707
H       0.30416476      0.02101898     -2.69085078
H       1.06911771     -1.53425639     -2.59640261
H      -1.02605358     -1.51715591     -3.99564522
11
Frame 210  Energy = -268.3162465326 Hartree
C       0.94717400     -0.42211966     -0.69959850
C       0.38368752     -0.85926337     -2.11049055
C      -0.98604044     -1.52110937     -2.06594832
O      -1.55700138     -1.86647812     -1.06354954
O      -1.55713570     -1.88826776     -3.28299023
H       1.90018852      0.01253881     -0.76967228
H       0.24208496      0.28424919     -0.25064814
H       0.94849721     -1.24425106      0.03724282
H       0.29891151      0.01934612     -2.69815208
H       1.06817937     -1.53565283     -2.60020897
H      -1.02319531     -1.50524516     -3.99556510
11
Frame 215  Energy = -268.3161726975 Hartree
C       0.94955586     -0.42190807     -0.70380515
C       0.38362180     -0.85933487     -2.11091413
C      -0.98784382     -1.52129036     -2.06217829
O      -1.55793759     -1.86646918     -1.06382074
O      -1.55719565     -1.88875189     -3.28268923
H       1.90184297      0.01393580     -0.76553683
H       0.24658455      0.28676077     -0.23735526
H       0.94724761     -1.24724930      0.04620485
H       0.29372906      0.02029744     -2.70769608
H       1.06797107     -1.53836314     -2.60487438
H      -1.01984031     -1.49335975     -3.99632440
11
Frame 220  Energy = -268.3161884790 Hartree
C       0.95132199     -0.42200808     -0.70806711
C       0.38358858     -0.85940610     -2.11103906
C      -0.98966273     -1.52169373     -2.05857029
O      -1.55882634     -1.86635656     -1.06397035
O      -1.55709803     -1.88909643     -3.28225960
H       1.90733345      0.01679618     -0.76214692
H       0.25177592      0.28948230     -0.22498704
H       0.94674644     -1.24993487      0.05351918
H       0.28904194      0.02348252     -2.71926305
H       1.06839715     -1.54175587     -2.60995677
H      -1.01676488     -1.48176939     -3.99722654
11
Frame 225  Energy = -268.3161701845 Hartree
C       0.95242697     -0.42233898     -0.71219192
C       0.38362344     -0.85944376     -2.11090608
C      -0.99147939     -1.52234287     -2.05523528
O      -1.55973816     -1.86612839     -1.06402124
O      -1.55684900     -1.88930760     -3.28172238
H       1.91630464      0.02090231     -0.75944779
H       0.25760266      0.29206061     -0.21382709
H       0.94681823     -1.25185717      0.05854125
H       0.28492146      0.02852690     -2.73247913
H       1.06924151     -1.54540923     -2.61531066
H      -1.01449430     -1.47071531     -3.99771477
11
Frame 230  Energy = -268.3161921784 Hartree
C       0.95289864     -0.42293932     -0.71612087
C       0.38363274     -0.85931469     -2.11051189
C      -0.99322975     -1.52314428     -2.05232449
O      -1.56069356     -1.86586715     -1.06393614
O      -1.55644426     -1.88931508     -3.28117622
H       1.92793234      0.02614423     -0.75782936
H       0.26437150      0.29449025     -0.20426141
H       0.94749270     -1.25249067      0.06070543
H       0.28141695      0.03467956     -2.74641875
H       1.07014059     -1.54930249     -2.62105660
H      -1.01347582     -1.46018001     -3.99736638
11
Frame 235  Energy = -268.3161924278 Hartree
C       0.95294231     -0.42378443     -0.71973259
C       0.38359561     -0.85904386     -2.11006806
C      -0.99493111     -1.52410374     -2.04983679
O      -1.56171463     -1.86560641     -1.06358535
O      -1.55579414     -1.88913000     -3.28063360
H       1.94104126      0.03191048     -0.75705959
H       0.27203233      0.29648404     -0.19638639
H       0.94850804     -1.25199317      0.05960422
H       0.27871381      0.04080155     -2.76035849
H       1.07127012     -1.55323517     -2.62659117
H      -1.01384819     -1.45090660     -3.99551094
11
Frame 240  Energy = -268.3161132544 Hartree
C       0.95272242     -0.42486390     -0.72312041
C       0.38356706     -0.85855541     -2.10964781
C      -0.99652001     -1.52514486     -2.04766425
O      -1.56286113     -1.86539894     -1.06298125
O      -1.55486449     -1.88871942     -3.28001631
H       1.95448282      0.03743495     -0.75665639
H       0.28050621      0.29780059     -0.19043640
H       0.95013764     -1.25005878      0.05538354
H       0.27642168      0.04577071     -2.77392366
H       1.07221443     -1.55689762     -2.63189033
H      -1.01555085     -1.44289998     -3.99191962
11
Frame 245  Energy = -268.3158728727 Hartree
C       0.95236133     -0.42614375     -0.72633554
C       0.38362338     -0.85792957     -2.10918887
C      -0.99799908     -1.52624251     -2.04576600
O      -1.56414400     -1.86522968     -1.06217212
O      -1.55372389     -1.88810788     -3.27937981
H       1.96714048      0.04214056     -0.75673479
H       0.28937507      0.29857747     -0.18619670
H       0.95233391     -1.24686532      0.04805544
H       0.27491903      0.04904520     -2.78650783
H       1.07254973     -1.56002636     -2.63648336
H      -1.01858051     -1.43637826     -3.98662828
11
Frame 250  Energy = -268.3157737281 Hartree
C       0.95197558     -0.42732933     -0.72941989
C       0.38373241     -0.85717115     -2.10869187
C      -0.99935199     -1.52745680     -2.04428512
O      -1.56564073     -1.86504568     -1.06115959
O      -1.55235527     -1.88730024     -3.27867777
H       1.97822996      0.04566224     -0.75772021
H       0.29903993      0.29869005     -0.18372534
H       0.95513645     -1.24312532      0.03778784
H       0.27430557      0.05016036     -2.79763299
H       1.07222798     -1.56239320     -2.64021384
H      -1.02264533     -1.43091720     -3.97988202
11
Frame 255  Energy = -268.3159998762 Hartree
C       0.95158416     -0.42845033     -0.73239013
C       0.38372028     -0.85612780     -2.10821532
C      -1.00051684     -1.52861025     -2.04329797
O      -1.56728701     -1.86486097     -1.05989271
O      -1.55083063     -1.88631142     -3.27790948
H       1.98649946      0.04777038     -0.75965437
H       0.30942348      0.29851420     -0.18361226
H       0.95854847     -1.23907666      0.02567298
H       0.27430746      0.04914910     -2.80667063
H       1.07132550     -1.56397081     -2.64289127
H      -1.02756411     -1.42638138     -3.97229515
11
Frame 260  Energy = -268.3159509562 Hartree
C       0.95126278     -0.42945835     -0.73528133
C       0.38365304     -0.85483664     -2.10779275
C      -1.00145177     -1.52988588     -2.04283435
O      -1.56903712     -1.86471242     -1.05844871
O      -1.54921502     -1.88517596     -3.27700815
H       1.99165344      0.04841398     -0.76236961
H       0.31991350      0.29839592     -0.18566865
H       0.96236818     -1.23555630      0.01158899
H       0.27531786      0.04543246     -2.81331817
H       1.06963951     -1.56460055     -2.64453605
H      -1.03326583     -1.42245382     -3.96430384
11
Frame 265  Energy = -268.3160426187 Hartree
C       0.95107786     -0.43025147     -0.73802163
C       0.38365696     -0.85331138     -2.10744645
C      -1.00218747     -1.53128776     -2.04278645
O      -1.57079985     -1.86459571     -1.05682769
O      -1.54753497     -1.88386780     -3.27598921
H       1.99342787      0.04712550     -0.76593429
H       0.33026079      0.29818001     -0.18961270
H       0.96647675     -1.23309001     -0.00389581
H       0.27711245      0.03885563     -2.81788018
H       1.06679231     -1.56390711     -2.64519858
H      -1.03903533     -1.41876490     -3.95661493
11
Frame 270  Energy = -268.3161777968 Hartree
C       0.95102626     -0.43082607     -0.74054927
C       0.38370558     -0.85160196     -2.10726271
C      -1.00270807     -1.53275860     -2.04296649
O      -1.57259581     -1.86455103     -1.05502818
O      -1.54579190     -1.88238127     -3.27485670
H       1.99181631      0.04412576     -0.77092841
H       0.34003988      0.29824394     -0.19509697
H       0.97116014     -1.23228799     -0.02012230
H       0.27945280      0.03002733     -2.82028076
H       1.06303000     -1.56217795     -2.64455435
H      -1.04407293     -1.41508702     -3.94978408
11
Frame 275  Energy = -268.3162946347 Hartree
C       0.95122548     -0.43120668     -0.74303992
C       0.38372149     -0.84969711     -2.10722433
C      -1.00302707     -1.53428093     -2.04353097
O      -1.57438685     -1.86454257     -1.05314200
O      -1.54396183     -1.88091250     -3.27351000
H       1.98702949      0.03926078     -0.77705785
H       0.34905378      0.29859207     -0.20214409
H       0.97619079     -1.23333235     -0.03624183
H       0.28231875      0.01930836     -2.82067323
H       1.05838477     -1.55933952     -2.64264773
H      -1.04803387     -1.41106277     -3.94440294
11
Frame 280  Energy = -268.3164114262 Hartree
C       0.95155056     -0.43137114     -0.74557830
C       0.38368078     -0.84767694     -2.10730550
C      -1.00316366     -1.53577758     -2.04436884
O      -1.57619483     -1.86457038     -1.05115293
O      -1.54211774     -1.87942787     -3.27192267
H       1.97944376      0.03245622     -0.78400643
H       0.35670807      0.29971549     -0.21033419
H       0.98180258     -1.23685730     -0.05157679
H       0.28530710      0.00771037     -2.81929738
H       1.05345263     -1.55571749     -2.63981863
H      -1.05084623     -1.40615282     -3.94108969
11
Frame 285  Energy = -268.3165486654 Hartree
C       0.95205978     -0.43130260     -0.74820030
C       0.38346134     -0.84566112     -2.10737125
C      -1.00312976     -1.53726514     -2.04535101
O      -1.57805870     -1.86462991     -1.04903005
O      -1.54033071     -1.87793235     -3.27012393
H       1.96984958      0.02431747     -0.79162351
H       0.36290647      0.30172859     -0.21936406
H       0.98811618     -1.24312116     -0.06608555
H       0.28865941     -0.00414156     -2.81621344
H       1.04838423     -1.55191215     -2.63600859
H      -1.05232987     -1.39993467     -3.93998164
11
Frame 290  Energy = -268.3163585011 Hartree
C       0.95265924     -0.43111182     -0.75095849
C       0.38321565     -0.84362005     -2.10752677
C      -1.00295942     -1.53882068     -2.04647892
O      -1.57996768     -1.86467768     -1.04688972
O      -1.53858630     -1.87647991     -3.26811531
H       1.95943012      0.01490587     -0.79999900
H       0.36766148      0.30443463     -0.22917755
H       0.99488148     -1.25206736     -0.07939256
H       0.29248562     -0.01567951     -2.81235848
H       1.04309630     -1.54811454     -2.63109139
H      -1.05244310     -1.39276128     -3.94085770
11
Frame 295  Energy = -268.3161910323 Hartree
C       0.95320595     -0.43072157     -0.75383395
C       0.38284384     -0.84156354     -2.10763502
C      -1.00270274     -1.54043129     -2.04767409
O      -1.58182006     -1.86472088     -1.04483807
O      -1.53670512     -1.87502490     -3.26593401
H       1.94866088      0.00469219     -0.80925402
H       0.37096725      0.30802565     -0.23887443
H       1.00186241     -1.26353994     -0.09153090
H       0.29660085     -0.02601972     -2.80842499
H       1.03805715     -1.54456870     -2.62543806
H      -1.05164764     -1.38501811     -3.94334257
11
Frame 300  Energy = -268.3161364769 Hartree
C       0.95366565     -0.43033006     -0.75677528
C       0.38221890     -0.83972549     -2.10766165
C      -1.00241594     -1.54209084     -2.04902187
O      -1.58359567     -1.86478765     -1.04275877
O      -1.53476750     -1.87351326     -3.26359258
H       1.93825201     -0.00556304     -0.81980624
H       0.37276412      0.31289186     -0.24852123
H       1.00911736     -1.27720809     -0.10280849
H       0.30062358     -0.03441602     -2.80508469
H       1.03387758     -1.54196067     -2.61966678
H      -1.05035172     -1.37713050     -3.94654195
