11
Frame 5  Energy = -268.3067044036 Hartree
C       0.85094746     -0.49303057     -0.54314697
C       0.46800459     -0.81306288     -1.96349144
C      -0.93140229     -1.55475380     -2.12864082
O      -1.60193787     -1.91013772     -1.20155042
O      -1.33495578     -1.82065323     -3.39677120
H       1.76327992      0.12870219     -0.57382235
H       0.04692460      0.13747583     -0.06263790
H       1.03575585     -1.37739036      0.16286088
H       0.34707096      0.13073526     -2.57724495
H       1.21600952     -1.37433263     -2.58192621
H      -0.71422157     -1.58993928     -4.08391739
11
Frame 10  Energy = -268.3069122930 Hartree
C       0.85117533     -0.49198085     -0.54128267
C       0.46724331     -0.81337532     -1.96498298
C      -0.93040123     -1.55368024     -2.12949456
O      -1.60098007     -1.90905700     -1.19971351
O      -1.33728843     -1.82318456     -3.39742198
H       1.76770137      0.12958405     -0.57173383
H       0.04919612      0.13324214     -0.07298291
H       1.03898234     -1.36794285      0.14950085
H       0.35342824      0.12581012     -2.57434310
H       1.21182021     -1.37580385     -2.57342338
H      -0.71097787     -1.58018366     -4.08751575
11
Frame 15  Energy = -268.3068403867 Hartree
C       0.85150573     -0.49087197     -0.53924017
C       0.46615688     -0.81369302     -1.96680148
C      -0.92900837     -1.55258564     -2.13022977
O      -1.60004614     -1.90794943     -1.19790911
O      -1.33973852     -1.82566898     -3.39801630
H       1.77167211      0.12963925     -0.56908808
H       0.05261236      0.12785635     -0.08420291
H       1.04170992     -1.35658622      0.13384738
H       0.35958187      0.11997844     -2.57017782
H       1.20733890     -1.37734195     -2.56315647
H      -0.70646012     -1.56960835     -4.09086132
11
Frame 20  Energy = -268.3068266485 Hartree
C       0.85187684     -0.48957136     -0.53711521
C       0.46470397     -0.81410541     -1.96882491
C      -0.92724545     -1.55148500     -2.13083632
O      -1.59914166     -1.90683166     -1.19614553
O      -1.34226457     -1.82806497     -3.39858609
H       1.77516485      0.12904628     -0.56623875
H       0.05655889      0.12152114     -0.09550334
H       1.04366435     -1.34452857      0.11697801
H       0.36556906      0.11367042     -2.56473828
H       1.20305830     -1.37937916     -2.55156585
H      -0.70154128     -1.55857792     -4.09286589
11
Frame 25  Energy = -268.3069444234 Hartree
C       0.85230548     -0.48813108     -0.53504807
C       0.46301639     -0.81468955     -1.97114126
C      -0.92525417     -1.55035112     -2.13139111
O      -1.59828457     -1.90571649     -1.19444677
O      -1.34481519     -1.83047285     -3.39913412
H       1.77771272      0.12794510     -0.56291310
H       0.06048029      0.11498152     -0.10643213
H       1.04493932     -1.33306810      0.09954004
H       0.37111800      0.10738952     -2.55884060
H       1.19949187     -1.38226927     -2.53922047
H      -0.69718515     -1.54739979     -4.09326258
11
Frame 30  Energy = -268.3068102479 Hartree
C       0.85276955     -0.48651113     -0.53321253
C       0.46100760     -0.81541458     -1.97360201
C      -0.92301588     -1.54925324     -2.13180199
O      -1.59749049     -1.90455632     -1.19281362
O      -1.34729648     -1.83281164     -3.39978300
H       1.77934240      0.12630492     -0.55950468
H       0.06396064      0.10883614     -0.11626205
H       1.04599678     -1.32348403      0.08229930
H       0.37632850      0.10164639     -2.55271517
H       1.19705152     -1.38622486     -2.52666378
H      -0.69402534     -1.53644891     -4.09141567
11
Frame 35  Energy = -268.3070112678 Hartree
C       0.85330509     -0.48477012     -0.53171664
C       0.45872423     -0.81618035     -1.97617471
C      -0.92060545     -1.54817295     -2.13197936
O      -1.59674790     -1.90333677     -1.19119539
O      -1.34961957     -1.83503927     -3.40051140
H       1.78003497      0.12412754     -0.55578507
H       0.06600690      0.10358048     -0.12479160
H       1.04718922     -1.31682726      0.06658680
H       0.38161684      0.09710516     -2.54695183
H       1.19550348     -1.39134541     -2.51447002
H      -0.69235423     -1.52600133     -4.08689242
11
Frame 40  Energy = -268.3069797236 Hartree
C       0.85401522     -0.48288910     -0.53067179
C       0.45618695     -0.81705748     -1.97883727
C      -0.91810774     -1.54717479     -2.13195000
O      -1.59599408     -1.90201785     -1.18958088
O      -1.35178788     -1.83709923     -3.40131579
H       1.77979189      0.12150398     -0.55207529
H       0.06659691      0.09926195     -0.13158586
H       1.04888797     -1.31428482      0.05361800
H       0.38641983      0.09427580     -2.54195130
H       1.19495565     -1.39814205     -2.50259818
H      -0.69242653     -1.51622613     -4.07991104
11
Frame 45  Energy = -268.3069858028 Hartree
C       0.85485367     -0.48069226     -0.53009885
C       0.45331614     -0.81809850     -1.98142111
C      -0.91551143     -1.54631930     -2.13173199
O      -1.59519006     -1.90053978     -1.18808942
O      -1.35380352     -1.83900334     -3.40212274
H       1.77888676      0.11859767     -0.54851166
H       0.06517726      0.09610298     -0.13650568
H       1.05084489     -1.31636711      0.04388134
H       0.39105327      0.09333686     -2.53828596
H       1.19580882     -1.40637469     -2.49122007
H      -0.69407832     -1.50727596     -4.07081868
11
Frame 50  Energy = -268.3069394628 Hartree
C       0.85575772     -0.47829013     -0.53003989
C       0.45011794     -0.81926307     -1.98393477
C      -0.91288729     -1.54560636     -2.13137996
O      -1.59430933     -1.89901597     -1.18679920
O      -1.35572263     -1.84078539     -3.40290647
H       1.77762003      0.11586237     -0.54515804
H       0.06158524      0.09465516     -0.13932941
H       1.05294493     -1.32355515      0.03746716
H       0.39548381      0.09458401     -2.53596080
H       1.19785984     -1.41621511     -2.48016455
H      -0.69770110     -1.49903561     -4.06006015
11
Frame 55  Energy = -268.3071239700 Hartree
C       0.85676519     -0.47569261     -0.53050468
C       0.44669673     -0.82055700     -1.98628778
C      -0.91037651     -1.54511996     -2.13091971
O      -1.59324366     -1.89744482     -1.18568066
O      -1.35748774     -1.84237086     -3.40361032
H       1.77591814      0.11351385     -0.54158729
H       0.05620199      0.09489846     -0.13976045
H       1.05506996     -1.33535180      0.03384268
H       0.39952263      0.09783857     -2.53491282
H       1.20115537     -1.42715184     -2.46986118
H      -0.70284479     -1.49177711     -4.04829751
11
Frame 60  Energy = -268.3072590896 Hartree
C       0.85782773     -0.47304296     -0.53139297
C       0.44321563     -0.82195874     -1.98848061
C      -0.90806327     -1.54483356     -2.13030175
O      -1.59209387     -1.89584117     -1.18466292
O      -1.35903758     -1.84388123     -3.40423964
H       1.77383005      0.11159651     -0.53810165
H       0.04901248      0.09692302     -0.13791556
H       1.05746463     -1.35041371      0.03244133
H       0.40331186      0.10271542     -2.53567307
H       1.20570749     -1.43893802     -2.46003882
H      -0.70913584     -1.48532976     -4.03568441
11
Frame 65  Energy = -268.3071517713 Hartree
C       0.85883701     -0.47044284     -0.53258286
C       0.43978437     -0.82341866     -1.99052777
C      -0.90597107     -1.54469248     -2.12945408
O      -1.59079419     -1.89414859     -1.18376781
O      -1.36042512     -1.84527449     -3.40477220
H       1.77184115      0.11013917     -0.53484674
H       0.04068942      0.10042310     -0.13371138
H       1.05968848     -1.36747149      0.03280356
H       0.40690191      0.10924312     -2.53809530
H       1.21063175     -1.45128012     -2.45046725
H      -0.71588847     -1.47938673     -4.02340816
11
Frame 70  Energy = -268.3073768126 Hartree
C       0.85966889     -0.46802613     -0.53404920
C       0.43641377     -0.82488040     -1.99235171
C      -0.90415433     -1.54467938     -2.12838094
O      -1.58930550     -1.89242436     -1.18304683
O      -1.36172557     -1.84657393     -3.40508414
H       1.77021562      0.10937919     -0.53176002
H       0.03177911      0.10479125     -0.12731948
H       1.06112110     -1.38494740      0.03409580
H       0.41005238      0.11662756     -2.54166020
H       1.21518845     -1.46374536     -2.44142261
H      -0.72248440     -1.47308172     -4.01219116
11
Frame 75  Energy = -268.3071332081 Hartree
C       0.86026624     -0.46581079     -0.53575950
C       0.43313649     -0.82641462     -1.99404969
C      -0.90256345     -1.54478879     -2.12719001
O      -1.58771460     -1.89067029     -1.18239749
O      -1.36293792     -1.84774132     -3.40507530
H       1.76934344      0.10941809     -0.52864028
H       0.02334043      0.10945919     -0.11941856
H       1.06159141     -1.40193677      0.03550376
H       0.41294802      0.12436735     -2.54638764
H       1.21921214     -1.47604292     -2.43269570
H      -0.72839896     -1.46631200     -4.00259636
11
Frame 80  Energy = -268.3071712226 Hartree
C       0.86056404     -0.46386938     -0.53759939
C       0.43005063     -0.82793207     -1.99565967
C      -0.90130123     -1.54516876     -2.12584287
O      -1.58597556     -1.88889346     -1.18182282
O      -1.36410932     -1.84876397     -3.40478028
H       1.76944695      0.11059215     -0.52582402
H       0.01570973      0.11388979     -0.11043871
H       1.06104159     -1.41746747      0.03650179
H       0.41527985      0.13133867     -2.55203152
H       1.22241646     -1.48773970     -2.42404071
H      -0.73304911     -1.45907255     -3.99526697
11
Frame 85  Energy = -268.3071253185 Hartree
C       0.86065410     -0.46225956     -0.53952792
C       0.42734464     -0.82945564     -1.99712879
C      -0.90034423     -1.54580719     -2.12439224
O      -1.58413696     -1.88705316     -1.18142237
O      -1.36525475     -1.84972877     -3.40422186
H       1.77046429      0.11275981     -0.52299617
H       0.00961799      0.11776075     -0.10091746
H       1.05913785     -1.43021637      0.03628194
H       0.41687344      0.13710099     -2.55822616
H       1.22425059     -1.49870949     -2.41573143
H      -0.73628123     -1.45088013     -3.99082350
11
Frame 90  Energy = -268.3071062764 Hartree
C       0.86032782     -0.46088930     -0.54146929
C       0.42488822     -0.83089966     -1.99868726
C      -0.89970566     -1.54654012     -2.12288432
O      -1.58220714     -1.88514136     -1.18109101
O      -1.36642148     -1.85059440     -3.40327754
H       1.77229478      0.11584896     -0.52039716
H       0.00572153      0.12068802     -0.09108753
H       1.05616322     -1.43972846      0.03453678
H       0.41799461      0.14113505     -2.56465149
H       1.22446831     -1.50834782     -2.40769325
H      -0.73798993     -1.44196732     -3.98907199
11
Frame 95  Energy = -268.3070967709 Hartree
C       0.85964870     -0.45994553     -0.54337985
C       0.42265602     -0.83222114     -2.00032319
C      -0.89939681     -1.54737306     -2.12133884
O      -1.58016904     -1.88317608     -1.18076292
O      -1.36754352     -1.85142462     -3.40208520
H       1.77467291      0.11951901     -0.51831304
H       0.00421023      0.12204215     -0.08119405
H       1.05208536     -1.44539193      0.03155502
H       0.41850703      0.14286593     -2.57130375
H       1.22305453     -1.51591918     -2.39943841
H      -0.73846262     -1.43252004     -3.98999708
11
Frame 100  Energy = -268.3071223339 Hartree
C       0.85860312     -0.45942146     -0.54528310
C       0.42064713     -0.83335681     -2.00207564
C      -0.89947603     -1.54839426     -2.11982035
O      -1.57809992     -1.88117217     -1.18053186
O      -1.36864235     -1.85225080     -3.40070167
H       1.77718409      0.12375123     -0.51643186
H       0.00556421      0.12142661     -0.07141817
H       1.04669982     -1.44646433      0.02685285
H       0.41863693      0.14189137     -2.57772287
H       1.22008431     -1.52167410     -2.39164783
H      -0.73812310     -1.42275195     -3.99305020
11
Frame 105  Energy = -268.3070837406 Hartree
C       0.85725565     -0.45938818     -0.54716085
C       0.41886118     -0.83430482     -2.00379645
C      -0.89993147     -1.54955619     -2.11836146
O      -1.57590426     -1.87913395     -1.18041373
O      -1.36973570     -1.85298485     -3.39918318
H       1.77909309      0.12804456     -0.51484011
H       0.00979184      0.11903028     -0.06208545
H       1.04071807     -1.44359853      0.02057500
H       0.41829949      0.13812269     -2.58374013
H       1.21574347     -1.52578701     -2.38472455
H      -0.73770299     -1.41309287     -3.99730693
11
Frame 110  Energy = -268.3070594840 Hartree
C       0.85553864     -0.45972727     -0.54903965
C       0.41741241     -0.83508323     -2.00547615
C      -0.90065684     -1.55076412     -2.11695786
O      -1.57362100     -1.87706414     -1.18027415
O      -1.37072717     -1.85354407     -3.39746073
H       1.78083980      0.13235494     -0.51351611
H       0.01666467      0.11485430     -0.05337437
H       1.03400284     -1.43684252      0.01296007
H       0.41753147      0.13158673     -2.58951922
H       1.20987293     -1.52835737     -2.37862591
H      -0.73782947     -1.40416873     -4.00239474
11
Frame 115  Energy = -268.3070604721 Hartree
C       0.85351000     -0.46037140     -0.55083592
C       0.41632150     -0.83569721     -2.00708092
C      -0.90159337     -1.55204393     -2.11565908
O      -1.57134048     -1.87505677     -1.18011062
O      -1.37156377     -1.85390144     -3.39560651
H       1.78215081      0.13637350     -0.51272851
H       0.02623814      0.10898366     -0.04566517
H       1.02642864     -1.42656901      0.00453413
H       0.41688102      0.12267360     -2.59502005
H       1.20274138     -1.52945272     -2.37333326
H      -0.73938148     -1.39658756     -4.00785041
11
Frame 120  Energy = -268.3071176384 Hartree
C       0.85120857     -0.46115588     -0.55248213
C       0.41560353     -0.83606514     -2.00863708
C      -0.90269528     -1.55344651     -2.11459214
O      -1.56899588     -1.87314089     -1.17985673
O      -1.37221007     -1.85406461     -3.39364708
H       1.78280823      0.13964040     -0.51239172
H       0.03765604      0.10173785     -0.03878643
H       1.01821818     -1.41364870     -0.00416874
H       0.41602916      0.11170711     -2.60009842
H       1.19487597     -1.52902414     -2.36894302
H      -0.74234764     -1.39060417     -4.01296675
11
Frame 125  Energy = -268.3070711304 Hartree
C       0.84867882     -0.46206586     -0.55418889
C       0.41518823     -0.83625276     -2.01001368
C      -0.90391309     -1.55477679     -2.11389925
O      -1.56673810     -1.87132291     -1.17946633
O      -1.37261295     -1.85395387     -3.39158673
H       1.78225561      0.14234690     -0.51278125
H       0.05057308      0.09349923     -0.03229856
H       1.00980044     -1.39931057     -0.01267441
H       0.41508674      0.09916366     -2.60544305
H       1.18657803     -1.52741935     -2.36577500
H      -0.74754757     -1.38655990     -4.01704022
11
Frame 130  Energy = -268.3069615262 Hartree
C       0.84594125     -0.46300185     -0.55610828
C       0.41502491     -0.83628852     -2.01124133
C      -0.90522209     -1.55600598     -2.11347205
O      -1.56455243     -1.86957446     -1.17889691
O      -1.37270499     -1.85366451     -3.38945210
H       1.78002953      0.14401579     -0.51378048
H       0.06412012      0.08480788     -0.02645626
H       1.00151123     -1.38406173     -0.02056979
H       0.41405153      0.08546120     -2.61104538
H       1.17800316     -1.52528737     -2.36432496
H      -0.75500432     -1.38419164     -4.01970171
11
Frame 135  Energy = -268.3069031933 Hartree
C       0.84315509     -0.46388782     -0.55820785
C       0.41499276     -0.83620067     -2.01228653
C      -0.90657754     -1.55705514     -2.11340559
O      -1.56242498     -1.86780706     -1.17812659
O      -1.37253384     -1.85323943     -3.38749501
H       1.77607753      0.14421372     -0.51538406
H       0.07781122      0.07649941     -0.02114107
H       0.99381452     -1.36959088     -0.02740765
H       0.41313929      0.07122684     -2.61706837
H       1.17000921     -1.52316201     -2.36398139
H      -0.76455404     -1.38341233     -4.02111979
11
Frame 140  Energy = -268.3067321539 Hartree
C       0.84040266     -0.46468248     -0.56058757
C       0.41514529     -0.83596576     -2.01312869
C      -0.90790995     -1.55797286     -2.11364705
O      -1.56035984     -1.86611718     -1.17712381
O      -1.37213533     -1.85266534     -3.38552354
H       1.77043636      0.14314027     -0.51762222
H       0.09045362      0.06900114     -0.01546672
H       0.98684912     -1.35757371     -0.03246671
H       0.41204310      0.05678415     -2.62425028
H       1.16324660     -1.52166396     -2.36503821
H      -0.77582735     -1.38442964     -4.02152578
11
Frame 145  Energy = -268.3068628383 Hartree
C       0.83766437     -0.46529778     -0.56338476
C       0.41541713     -0.83561739     -2.01378204
C      -0.90914233     -1.55873925     -2.11421706
O      -1.55847133     -1.86459105     -1.17587806
O      -1.37158982     -1.85204034     -3.38342908
H       1.76386166      0.14107882     -0.52075358
H       0.10100104      0.06280284     -0.00908392
H       0.98101595     -1.34917656     -0.03545865
H       0.41092513      0.04293432     -2.63252480
H       1.15805748     -1.52124112     -2.36770975
H      -0.78837809     -1.38670031     -4.02131151
11
Frame 150  Energy = -268.3071457173 Hartree
C       0.83490237     -0.46582839     -0.56645806
C       0.41567306     -0.83524968     -2.01418348
C      -0.91030504     -1.55935426     -2.11512617
O      -1.55674499     -1.86321912     -1.17446016
O      -1.37097931     -1.85136342     -3.38129136
H       1.75662214      0.13817419     -0.52466069
H       0.10882529      0.05833983     -0.00178882
H       0.97633853     -1.34510850     -0.03544783
H       0.40968587      0.03061430     -2.64235720
H       1.15450618     -1.52199945     -2.37194226
H      -0.80141786     -1.39009939     -4.02104143
11
Frame 155  Energy = -268.3072333174 Hartree
C       0.83216113     -0.46619986     -0.56978006
C       0.41599984     -0.83492039     -2.01434459
C      -0.91133420     -1.55987383     -2.11629252
O      -1.55523547     -1.86198499     -1.17278363
O      -1.37029688     -1.85049221     -3.37900556
H       1.74896298      0.13518572     -0.52934973
H       0.11376631      0.05593470      0.00578328
H       0.97333046     -1.34567722     -0.03249085
H       0.40853026      0.01987955     -2.65388852
H       1.15274957     -1.52404475     -2.37753269
H      -0.81433609     -1.39408978     -4.02116471
11
Frame 160  Energy = -268.3071098904 Hartree
C       0.82947158     -0.46638078     -0.57342668
C       0.41634758     -0.83460774     -2.01423337
C      -0.91221302     -1.56020827     -2.11768737
O      -1.55393235     -1.86076948     -1.17092309
O      -1.36959143     -1.84958180     -3.37647554
H       1.74120330      0.13164863     -0.53437541
H       0.11589571      0.05537992      0.01374524
H       0.97204970     -1.35083717     -0.02690012
H       0.40764866      0.01110183     -2.66692807
H       1.15236327     -1.52761744     -2.38444279
H      -0.82673859     -1.39819832     -4.02193565
11
Frame 165  Energy = -268.3071805926 Hartree
C       0.82677656     -0.46646473     -0.57729375
C       0.41667643     -0.83440241     -2.01401094
C      -0.91296885     -1.56039535     -2.11934289
O      -1.55281056     -1.85961532     -1.16885510
O      -1.36895234     -1.84870156     -3.37381270
H       1.73396088      0.12767243     -0.53957985
H       0.11547355      0.05667630      0.02226192
H       0.97187765     -1.35985605     -0.01966111
H       0.40671740      0.00498869     -2.68151720
H       1.15353020     -1.53177653     -2.39261257
H      -0.83840645     -1.40164695     -4.02416999
11
Frame 170  Energy = -268.3070660028 Hartree
C       0.82409955     -0.46651807     -0.58127600
C       0.41685429     -0.83432102     -2.01368275
C      -0.91367858     -1.56039653     -2.12112760
O      -1.55170668     -1.85845845     -1.16662055
O      -1.36850152     -1.84786901     -3.37101723
H       1.72767175      0.12378081     -0.54552445
H       0.11248611      0.05945965      0.03085334
H       0.97272888     -1.37139259     -0.01109787
H       0.40582917      0.00105410     -2.69735622
H       1.15593586     -1.53612176     -2.40153865
H      -0.84872235     -1.40432473     -4.02787703
11
Frame 175  Energy = -268.3071930823 Hartree
C       0.82138589     -0.46658877     -0.58522850
C       0.41702030     -0.83442422     -2.01336952
C      -0.91425872     -1.56029411     -2.12309801
O      -1.55067430     -1.85737184     -1.16418785
O      -1.36820132     -1.84716759     -3.36809916
H       1.72245912      0.12025400     -0.55206428
H       0.10760396      0.06315610      0.03920483
H       0.97400103     -1.38411289     -0.00231224
H       0.40495935     -0.00082183     -2.71376487
H       1.15895969     -1.54065747     -2.41056102
H      -0.85746434     -1.40597172     -4.03332280
11
Frame 180  Energy = -268.3071336669 Hartree
C       0.81858115     -0.46689518     -0.58898717
C       0.41720961     -0.83467481     -2.01309844
C      -0.91470798     -1.55996805     -2.12510199
O      -1.54979122     -1.85638778     -1.16164940
O      -1.36792309     -1.84652660     -3.36502364
H       1.71887148      0.11732730     -0.55898196
H       0.10135660      0.06733535      0.04640659
H       0.97592207     -1.39714032      0.00595249
H       0.40395751     -0.00142492     -2.72978648
H       1.16231241     -1.54470941     -2.41925155
H      -0.86429146     -1.40668077     -4.04061123
11
Frame 185  Energy = -268.3072259234 Hartree
C       0.81552812     -0.46738762     -0.59244858
C       0.41743412     -0.83507380     -2.01289807
C      -0.91508026     -1.55952413     -2.12708513
O      -1.54918039     -1.85556133     -1.15902889
O      -1.36769906     -1.84594714     -3.36178207
H       1.71719860      0.11511662     -0.56644794
H       0.09396748      0.07176587      0.05213782
H       0.97839343     -1.40943446      0.01307070
H       0.40275965     -0.00154944     -2.74489601
H       1.16544834     -1.54799227     -2.42750785
H      -0.86946992     -1.40632708     -4.04948101
11
Frame 190  Energy = -268.3071584270 Hartree
C       0.81239564     -0.46815605     -0.59550441
C       0.41759289     -0.83559875     -2.01280863
C      -0.91533479     -1.55898015     -2.12898269
O      -1.54865395     -1.85480956     -1.15636492
O      -1.36755705     -1.84546410     -3.35848836
H       1.71745800      0.11356978     -0.57436337
H       0.08599363      0.07607774      0.05562978
H       0.98110841     -1.42017285      0.01806894
H       0.40177501     -0.00148812     -2.75857918
H       1.16837284     -1.55031178     -2.43535934
H      -0.87308127     -1.40521026     -4.05879009
11
Frame 195  Energy = -268.3073171314 Hartree
C       0.80913626     -0.46915938     -0.59816321
C       0.41785722     -0.83614979     -2.01300460
C      -0.91543445     -1.55837538     -2.13080054
O      -1.54818491     -1.85413269     -1.15369795
O      -1.36758570     -1.84512229     -3.35524207
H       1.71927773      0.11261951     -0.58282947
H       0.07835832      0.07965108      0.05649505
H       0.98379776     -1.42837310      0.02043004
H       0.40061336     -0.00189561     -2.77036561
H       1.17068181     -1.55158125     -2.44228652
H      -0.87587518     -1.40410900     -4.06807751
11
Frame 200  Energy = -268.3072378433 Hartree
C       0.80579172     -0.47045826     -0.60042103
C       0.41830321     -0.83670291     -2.01356695
C      -0.91550917     -1.55773154     -2.13244661
O      -1.54769924     -1.85352901     -1.15103328
O      -1.36767679     -1.84478736     -3.35213472
H       1.72229897      0.11206936     -0.59174223
H       0.07122226      0.08203284      0.05461077
H       0.98605482     -1.43325979      0.02019978
H       0.39911405     -0.00288275     -2.78007367
H       1.17225919     -1.55151562     -2.44830602
H      -0.87804910     -1.40329303     -4.07652065
11
Frame 205  Energy = -268.3075200989 Hartree
C       0.80233428     -0.47203016     -0.60220877
C       0.41884933     -0.83737795     -2.01448983
C      -0.91556632     -1.55703047     -2.13383916
O      -1.54725110     -1.85303239     -1.14851226
O      -1.36784494     -1.84452279     -3.34917486
H       1.72602638      0.11158258     -0.60098312
H       0.06456972      0.08297141      0.04982321
H       0.98781405     -1.43495067      0.01744674
H       0.39732980     -0.00464113     -2.78707948
H       1.17307411     -1.55027036     -2.45277223
H      -0.88012410     -1.40284192     -4.08315491
11
Frame 210  Energy = -268.3077209164 Hartree
C       0.79892032     -0.47372027     -0.60355608
C       0.41940544     -0.83813414     -2.01572715
C      -0.91550980     -1.55624647     -2.13495641
O      -1.54677089     -1.85265689     -1.14613557
O      -1.36802562     -1.84431001     -3.34639301
H       1.72980223      0.11124393     -0.61014038
H       0.05870801      0.08268420      0.04215822
H       0.98897740     -1.43338106      0.01182894
H       0.39587286     -0.00761562     -2.79083503
H       1.17296861     -1.54768325     -2.45584312
H      -0.88239161     -1.40312002     -4.08751460
11
Frame 215  Energy = -268.3076734489 Hartree
C       0.79561652     -0.47548648     -0.60467000
C       0.41992538     -0.83888087     -2.01731098
C      -0.91529396     -1.55531761     -2.13576063
O      -1.54625016     -1.85225850     -1.14385451
O      -1.36825193     -1.84407731     -3.34386056
H       1.73352874      0.11054313     -0.61881449
H       0.05355721      0.08153794      0.03144312
H       0.98939339     -1.42871253      0.00371628
H       0.39480247     -0.01173646     -2.79144325
H       1.17222197     -1.54411263     -2.45797816
H      -0.88512299     -1.40429888     -4.08955550
11
Frame 220  Energy = -268.3077573444 Hartree
C       0.79242212     -0.47735176     -0.60547548
C       0.42038472     -0.83965767     -2.01936921
C      -0.91504949     -1.55428369     -2.13606697
O      -1.54564789     -1.85184115     -1.14161998
O      -1.36858873     -1.84386964     -3.34165633
H       1.73663449      0.10931309     -0.62692308
H       0.04895306      0.08000041      0.01795884
H       0.98952212     -1.42135249     -0.00689742
H       0.39421235     -0.01656528     -2.78906207
H       1.17094972     -1.53948365     -2.45905471
H      -0.88825492     -1.40668506     -4.08898661
11
Frame 225  Energy = -268.3079283561 Hartree
C       0.78939035     -0.47927457     -0.60589289
C       0.42071826     -0.84045224     -2.02181521
C      -0.91479358     -1.55316266     -2.13596286
O      -1.54505184     -1.85135657     -1.13946434
O      -1.36897216     -1.84364412     -3.33977286
H       1.73876047      0.10765492     -0.63415855
H       0.04480023      0.07770042      0.00236498
H       0.98941025     -1.41187159     -0.01948424
H       0.39373123     -0.02170649     -2.78421297
H       1.16947914     -1.53427483     -2.45907084
H      -0.89155866     -1.40988372     -4.08597036
11
Frame 230  Energy = -268.3081406816 Hartree
C       0.78650466     -0.48118028     -0.60609790
C       0.42094351     -0.84134119     -2.02448845
C      -0.91443240     -1.55197755     -2.13531896
O      -1.54450329     -1.85084303     -1.13730681
O      -1.36934219     -1.84336412     -3.33819333
H       1.73965383      0.10553316     -0.64093364
H       0.04100499      0.07503641     -0.01493323
H       0.98885121     -1.40098086     -0.03315346
H       0.39349012     -0.02659781     -2.77736678
H       1.16828414     -1.52920163     -2.45824235
H      -0.89493609     -1.41356969     -4.08111659
11
Frame 235  Energy = -268.3079405805 Hartree
C       0.78386065     -0.48306973     -0.60622084
C       0.42108355     -0.84233123     -2.02735580
C      -0.91401389     -1.55069166     -2.13413312
O      -1.54394375     -1.85041994     -1.13523328
O      -1.36975795     -1.84314412     -3.33693633
H       1.73909832      0.10293815     -0.64662534
H       0.03693337      0.07263946     -0.03342975
H       0.98826535     -1.38977780     -0.04710105
H       0.39317644     -0.03088289     -2.76874881
H       1.16737446     -1.52398157     -2.45697745
H      -0.89814093     -1.41743302     -4.07442108
11
Frame 240  Energy = -268.3077272884 Hartree
C       0.78146055     -0.48484834     -0.60634887
C       0.42103555     -0.84351078     -2.03037703
C      -0.91359548     -1.54926455     -2.13251061
O      -1.54346712     -1.85003349     -1.13322254
O      -1.37031119     -1.84294829     -3.33587684
H       1.73691825      0.09966769     -0.65137002
H       0.03239935      0.07050522     -0.05306305
H       0.98758472     -1.37908192     -0.06080924
H       0.39327068     -0.03380270     -2.75882476
H       1.16669664     -1.51912923     -2.45555599
H      -0.90087196     -1.42165288     -4.06648422
11
Frame 245  Energy = -268.3077719950 Hartree
C       0.77935554     -0.48646964     -0.60650498
C       0.42088306     -0.84483249     -2.03358699
C      -0.91316829     -1.54778658     -2.13046601
O      -1.54295133     -1.84959642     -1.13135775
O      -1.37102601     -1.84277244     -3.33501045
H       1.73302403      0.09589529     -0.65568806
H       0.02721504      0.06865496     -0.07307381
H       0.98692144     -1.37057818     -0.07337254
H       0.39323098     -0.03487615     -2.74835174
H       1.16671404     -1.51485204     -2.45392636
H      -0.90286579     -1.42594287     -4.05858680
11
Frame 250  Energy = -268.3074139301 Hartree
C       0.77762784     -0.48788874     -0.60691191
C       0.42057025     -0.84623672     -2.03680310
C      -0.91267126     -1.54612735     -2.12790649
O      -1.54244555     -1.84914690     -1.12962311
O      -1.37190984     -1.84261758     -3.33435629
H       1.72719035      0.09184706     -0.65953514
H       0.02083145      0.06733541     -0.09303297
H       0.98677314     -1.36507613     -0.08372157
H       0.39320690     -0.03391998     -2.73808288
H       1.16760996     -1.51135942     -2.45232011
H      -0.90346120     -1.42968562     -4.05139823
11
Frame 255  Energy = -268.3074979004 Hartree
C       0.77618992     -0.48901893     -0.60758585
C       0.42010229     -0.84781347     -2.04000766
C      -0.91221986     -1.54443571     -2.12480591
O      -1.54179262     -1.84864103     -1.12792249
O      -1.37289877     -1.84255364     -3.33374867
H       1.71996454      0.08761041     -0.66269239
H       0.01315784      0.06714907     -0.11268823
H       0.98722666     -1.36346011     -0.09127061
H       0.39327238     -0.03064548     -2.72813604
H       1.16960670     -1.50871304     -2.45087894
H      -0.90201347     -1.43247322     -4.04526139
11
Frame 260  Energy = -268.3076323266 Hartree
C       0.77495511     -0.48986250     -0.60869408
C       0.41959435     -0.84945880     -2.04319152
C      -0.91190373     -1.54277965     -2.12129019
O      -1.54111099     -1.84807325     -1.12635112
O      -1.37408127     -1.84253120     -3.33314281
H       1.71202499      0.08336218     -0.66490769
H       0.00401349      0.06850133     -0.13103438
H       0.98810765     -1.36607662     -0.09570333
H       0.39335646     -0.02475543     -2.71898831
H       1.17254046     -1.50708112     -2.44981960
H      -0.89851122     -1.43418265     -4.04071582
11
Frame 265  Energy = -268.3079866224 Hartree
C       0.77396197     -0.49048969     -0.61017549
C       0.41900006     -0.85112469     -2.04625510
C      -0.91165504     -1.54111126     -2.11744383
O      -1.54038877     -1.84744260     -1.12500166
O      -1.37547096     -1.84259289     -3.33249054
H       1.70358491      0.07956640     -0.66594284
H      -0.00656195      0.07094587     -0.14777455
H       0.98953226     -1.37293807     -0.09656839
H       0.39332357     -0.01624316     -2.71084037
H       1.17655696     -1.50650318     -2.44952712
H      -0.89262071     -1.43485571     -4.03810798
11
Frame 270  Energy = -268.3080650484 Hartree
C       0.77306398     -0.49098261     -0.61205331
C       0.41831859     -0.85281400     -2.04922547
C      -0.91154251     -1.53954379     -2.11336218
O      -1.53954622     -1.84685872     -1.12378542
O      -1.37705192     -1.84269209     -3.33183495
H       1.69517391      0.07670918     -0.66614841
H      -0.01799800      0.07405478     -0.16296172
H       0.99137874     -1.38313854     -0.09443553
H       0.39347686     -0.00510848     -2.70392583
H       1.18180133     -1.50661989     -2.44980082
H      -0.88465210     -1.43460541     -4.03719646
11
Frame 275  Energy = -268.3080078373 Hartree
C       0.77221362     -0.49140423     -0.61429406
C       0.41768076     -0.85456821     -2.05214206
C      -0.91158799     -1.53805603     -2.10907652
O      -1.53862111     -1.84626148     -1.12261341
O      -1.37886052     -1.84278311     -3.33118604
H       1.68767529      0.07497838     -0.66556241
H      -0.03040639      0.07763047     -0.17652472
H       0.99299075     -1.39560719     -0.08992028
H       0.39360398      0.00823816     -2.69802606
H       1.18787016     -1.50782222     -2.45076092
H      -0.87507021     -1.43364813     -4.03749197
11
Frame 280  Energy = -268.3080155237 Hartree
C       0.77147094     -0.49184682     -0.61688501
C       0.41700466     -0.85635220     -2.05495814
C      -0.91165734     -1.53665570     -2.10462812
O      -1.53768996     -1.84573822     -1.12152916
O      -1.38081357     -1.84292161     -3.33053824
H       1.68117302      0.07461031     -0.66404003
H      -0.04335279      0.08178991     -0.18882382
H       0.99422252     -1.40947331     -0.08350652
H       0.39354405      0.02306304     -2.69307748
H       1.19438407     -1.50985727     -2.45243928
H      -0.86424979     -1.43209678     -4.03823907
11
Frame 285  Energy = -268.3078772251 Hartree
C       0.77080700     -0.49222237     -0.61975179
C       0.41632368     -0.85814010     -2.05768690
C      -0.91175399     -1.53535975     -2.10016625
O      -1.53670812     -1.84523910     -1.12056059
O      -1.38283956     -1.84305539     -3.32989209
H       1.67624664      0.07563549     -0.66184852
H      -0.05625630      0.08594143     -0.20011528
H       0.99478070     -1.42340132     -0.07591487
H       0.39340291      0.03871338     -2.68878707
H       1.20078598     -1.51263834     -2.45501197
H      -0.85275499     -1.43056355     -4.03884814
11
Frame 290  Energy = -268.3075725276 Hartree
C       0.77014347     -0.49277675     -0.62278019
C       0.41570192     -0.85988519     -2.06034376
C      -0.91188306     -1.53422934     -2.09572503
O      -1.53569517     -1.84480527     -1.11958457
O      -1.38493554     -1.84316985     -3.32921763
H       1.67319538      0.07835231     -0.65884709
H      -0.06852621      0.08976346     -0.21050619
H       0.99448996     -1.43632441     -0.06758625
H       0.39322920      0.05461859     -2.68480819
H       1.20722713     -1.51572787     -2.45809654
H      -0.84141873     -1.42954035     -4.03881381
11
Frame 295  Energy = -268.3074240070 Hartree
C       0.76940594     -0.49355092     -0.62595783
C       0.41516663     -0.86159698     -2.06295587
C      -0.91203007     -1.53321772     -2.09147112
O      -1.53472714     -1.84444776     -1.11843577
O      -1.38700921     -1.84325580     -3.32861557
H       1.67160009      0.08289996     -0.65531007
H      -0.07986001      0.09278465     -0.22023386
H       0.99314643     -1.44695026     -0.05913265
H       0.39321943      0.06990919     -2.68040810
H       1.21326555     -1.51865968     -2.46168148
H      -0.83103883     -1.42948920     -4.03702544
11
Frame 300  Energy = -268.3076209168 Hartree
C       0.76848176     -0.49456091     -0.62914534
C       0.41488394     -0.86308819     -2.06549012
C      -0.91222543     -1.53237544     -2.08739781
O      -1.53384758     -1.84414379     -1.11722029
O      -1.38900441     -1.84325452     -3.32817548
H       1.67180586      0.08905873     -0.65123706
H      -0.08963415      0.09446229     -0.22901425
H       0.99052878     -1.45491222     -0.05113765
H       0.39324220      0.08356001     -2.67555988
H       1.21815248     -1.52096266     -2.46583009
H      -0.82153237     -1.43012697     -4.03285856
