11
Frame 5  Energy = -268.3012337766 Hartree
C       0.76953399     -0.58104941     -0.52138609
C       0.39335827     -0.80415945     -1.97243195
C      -0.90659645     -1.55879285     -2.11202413
O      -1.61266712     -1.95450394     -1.19326856
O      -1.20629362     -1.73418825     -3.42114507
H       1.71633939     -0.02974929     -0.45865331
H       0.01436386     -0.00830613     -0.00119036
H       0.87787682     -1.51260435     -0.00023435
H       0.29048819      0.14401579     -2.48629725
H       1.16711198     -1.38293978     -2.46906604
H      -0.52996096     -1.35730245     -4.01028752
11
Frame 10  Energy = -268.3012605475 Hartree
C       0.77018168     -0.58099275     -0.52271354
C       0.39474019     -0.80245402     -1.97065489
C      -0.90538894     -1.56166216     -2.11287095
O      -1.61410947     -1.95390033     -1.19279315
O      -1.20665534     -1.73344108     -3.41925838
H       1.71779995     -0.02475617     -0.46472979
H       0.02788395     -0.01594295     -0.00212052
H       0.87280851     -1.49380930     -0.00853733
H       0.29090914      0.12777108     -2.49716182
H       1.15492350     -1.38103701     -2.47154190
H      -0.53681463     -1.36966200     -4.00956756
11
Frame 15  Energy = -268.3008651191 Hartree
C       0.77084603     -0.58058527     -0.52420954
C       0.39598779     -0.80080388     -1.96873345
C      -0.90429011     -1.56459845     -2.11348531
O      -1.61535274     -1.95308605     -1.19266525
O      -1.20724191     -1.73276726     -3.41734353
H       1.71934725     -0.01999280     -0.47057271
H       0.04001041     -0.02240873     -0.00228996
H       0.86836916     -1.47845776     -0.01534774
H       0.29153660      0.11301695     -2.50911956
H       1.14413938     -1.37980182     -2.47466074
H      -0.54360676     -1.38173706     -4.00849318
11
Frame 20  Energy = -268.3010974877 Hartree
C       0.77170729     -0.57972554     -0.52601564
C       0.39710838     -0.79924385     -1.96669976
C      -0.90319771     -1.56756908     -2.11388712
O      -1.61642053     -1.95214339     -1.19285715
O      -1.20800340     -1.73227540     -3.41534290
H       1.72068795     -0.01594144     -0.47648964
H       0.04973612     -0.02709636     -0.00156545
H       0.86487275     -1.46795681     -0.01956434
H       0.29206252      0.10038001     -2.52212984
H       1.13515415     -1.37966885     -2.47873267
H      -0.54897153     -1.39297528     -4.00796103
11
Frame 25  Energy = -268.3013706667 Hartree
C       0.77296376     -0.57839865     -0.52811139
C       0.39801244     -0.79774758     -1.96445894
C      -0.90213535     -1.57046235     -2.11407643
O      -1.61727686     -1.95118730     -1.19337514
O      -1.20897361     -1.73203235     -3.41328050
H       1.72151177     -0.01277387     -0.48220017
H       0.05609551     -0.02919620      0.00090227
H       0.86257340     -1.46365228     -0.02060675
H       0.29244650      0.09104401     -2.53622296
H       1.12851094     -1.38087558     -2.48395689
H      -0.55241661     -1.40339969     -4.00857518
11
Frame 30  Energy = -268.3013593875 Hartree
C       0.77451110     -0.57661747     -0.53054384
C       0.39881221     -0.79640977     -1.96210017
C      -0.90120529     -1.57326202     -2.11409453
O      -1.61794431     -1.95014367     -1.19420671
O      -1.21015593     -1.73202009     -3.41110364
H       1.72180070     -0.01034263     -0.48789495
H       0.05890780     -0.02862690      0.00516228
H       0.86137737     -1.46519292     -0.01865942
H       0.29280506      0.08493984     -2.55143816
H       1.12403379     -1.38336270     -2.49046974
H      -0.55363661     -1.41278472     -4.01021096
11
Frame 35  Energy = -268.3013830141 Hartree
C       0.77641811     -0.57449649     -0.53323837
C       0.39942201     -0.79531812     -1.95955447
C      -0.90036536     -1.57591868     -2.11378438
O      -1.61840778     -1.94908144     -1.19532960
O      -1.21162126     -1.73211347     -3.40880319
H       1.72190617     -0.00835956     -0.49323156
H       0.05849370     -0.02565731      0.01112665
H       0.86119111     -1.47253189     -0.01407303
H       0.29296741      0.08195415     -2.56711012
H       1.12188337     -1.38716439     -2.49757472
H      -0.55271720     -1.42148065     -4.01316493
11
Frame 40  Energy = -268.3014997082 Hartree
C       0.77857275     -0.57205045     -0.53615522
C       0.39979742     -0.79451238     -1.95702495
C      -0.89959873     -1.57832336     -2.11325368
O      -1.61866867     -1.94794717     -1.19675323
O      -1.21343771     -1.73237436     -3.40648552
H       1.72183722     -0.00713730     -0.49827122
H       0.05526880     -0.02022355      0.01848548
H       0.86200502     -1.48458160     -0.00781340
H       0.29271048      0.08152069     -2.58282164
H       1.12183774     -1.39177163     -2.50501244
H      -0.54982941     -1.42949302     -4.01698890
11
Frame 45  Energy = -268.3014770720 Hartree
C       0.78088743     -0.56939013     -0.53912431
C       0.39996828     -0.79381314     -1.95467125
C      -0.89883488     -1.58058738     -2.11250689
O      -1.61869717     -1.94663896     -1.19832460
O      -1.21550340     -1.73278293     -3.40418913
H       1.72188092     -0.00661912     -0.50249364
H       0.04973880     -0.01318040      0.02632181
H       0.86370294     -1.49983173     -0.00074754
H       0.29241090      0.08340291     -2.59817572
H       1.12335634     -1.39709078     -2.51242743
H      -0.54525051     -1.43686555     -4.02125861
11
Frame 50  Energy = -268.3014836647 Hartree
C       0.78326500     -0.56662801     -0.54199900
C       0.39989718     -0.79330757     -1.95243369
C      -0.89808707     -1.58277949     -2.11151022
O      -1.61863172     -1.94528393     -1.20007463
O      -1.21776594     -1.73331081     -3.40182343
H       1.72177892     -0.00659709     -0.50580092
H       0.04311594     -0.00527096      0.03386043
H       0.86600703     -1.51644101      0.00618344
H       0.29236013      0.08646848     -2.61240420
H       1.12614713     -1.40276496     -2.51939839
H      -0.53929848     -1.44311182     -4.02515225
11
Frame 55  Energy = -268.3011545968 Hartree
C       0.78566980     -0.56378558     -0.54467923
C       0.39969016     -0.79302112     -1.95056907
C      -0.89727180     -1.58479724     -2.11021747
O      -1.61851822     -1.94388332     -1.20208264
O      -1.22016134     -1.73394995     -3.39953162
H       1.72196913     -0.00711216     -0.50827368
H       0.03588792      0.00288844      0.04101156
H       0.86886896     -1.53311349      0.01260161
H       0.29220011      0.09013994     -2.62503362
H       1.12989683     -1.40809334     -2.52553843
H      -0.53294424     -1.44904134     -4.02813789
11
Frame 60  Energy = -268.3009228326 Hartree
C       0.78808743     -0.56095625     -0.54708170
C       0.39934763     -0.79299486     -1.94909025
C      -0.89653771     -1.58667042     -2.10870444
O      -1.61833726     -1.94244357     -1.20421291
O      -1.22273768     -1.73472755     -3.39741870
H       1.72343688     -0.00775080     -0.51022305
H       0.02870928      0.01072990      0.04712453
H       0.87232593     -1.54818615      0.01758581
H       0.29202341      0.09371906     -2.63543855
H       1.13421284     -1.41325108     -2.52998906
H      -0.52687359     -1.45523114     -4.02978255
11
Frame 65  Energy = -268.3009535537 Hartree
C       0.79046095     -0.55815546     -0.54902627
C       0.39888034     -0.79328626     -1.94813201
C      -0.89584016     -1.58835597     -2.10700565
O      -1.61802324     -1.94098780     -1.20646795
O      -1.22545061     -1.73552359     -3.39546810
H       1.72568638     -0.00809031     -0.51143208
H       0.02273694      0.01802903      0.05134950
H       0.87631685     -1.56047503      0.02044860
H       0.29150885      0.09697010     -2.64311653
H       1.13892260     -1.41747153     -2.53255758
H      -0.52166289     -1.46185311     -4.02974092
11
Frame 70  Energy = -268.3010697789 Hartree
C       0.79272479     -0.55549512     -0.55041055
C       0.39825637     -0.79375097     -1.94777257
C      -0.89519113     -1.58977693     -2.10521239
O      -1.61765138     -1.93953308     -1.20886722
O      -1.22818272     -1.73636556     -3.39361698
H       1.72875717     -0.00864161     -0.51186098
H       0.01822716      0.02414429      0.05326072
H       0.88037628     -1.56926793      0.02085603
H       0.29114699      0.09913275     -2.64804851
H       1.14347867     -1.42063731     -2.53322816
H      -0.51782762     -1.46885351     -4.02761986
11
Frame 75  Energy = -268.3011645803 Hartree
C       0.79484727     -0.55302592     -0.55134193
C       0.39755566     -0.79436025     -1.94803856
C      -0.89455561     -1.59099411     -2.10333405
O      -1.61726987     -1.93807067     -1.21132525
O      -1.23093568     -1.73727412     -3.39190907
H       1.73282406     -0.00915194     -0.51149052
H       0.01567616      0.02866002      0.05303823
H       0.88482770     -1.57364820      0.01895497
H       0.29097174      0.10002370     -2.64979032
H       1.14733139     -1.42237122     -2.53192283
H      -0.51540103     -1.47635786     -4.02340232
11
Frame 80  Energy = -268.3011884610 Hartree
C       0.79687023     -0.55067874     -0.55179866
C       0.39683135     -0.79517934     -1.94892569
C      -0.89379216     -1.59189120     -2.10149018
O      -1.61686132     -1.93663985     -1.21385754
O      -1.23368102     -1.73824690     -3.39043657
H       1.73767899     -0.00965058     -0.51065740
H       0.01531448      0.03168285      0.05077883
H       0.88961216     -1.57336668      0.01437164
H       0.29118475      0.09963180     -2.64841878
H       1.15019989     -1.42225896     -2.52851945
H      -0.51447546     -1.48438320     -4.01733145
11
Frame 85  Energy = -268.3015042432 Hartree
C       0.79877723     -0.54846487     -0.55177418
C       0.39609517     -0.79610030     -1.95038006
C      -0.89291056     -1.59255200     -2.09964445
O      -1.61644289     -1.93528752     -1.21629612
O      -1.23651621     -1.73932145     -3.38919783
H       1.74327933     -0.00945505     -0.50954663
H       0.01721047      0.03293913      0.04595406
H       0.89450575     -1.56846856      0.00741270
H       0.29159078      0.09753413     -2.64386558
H       1.15213205     -1.42063957     -2.52329869
H      -0.51519154     -1.49247003     -4.00943217
11
Frame 90  Energy = -268.3015545509 Hartree
C       0.80063904     -0.54648067     -0.55124028
C       0.39531832     -0.79712999     -1.95230020
C      -0.89191548     -1.59291543     -2.09789870
O      -1.61611122     -1.93402045     -1.21855309
O      -1.23933965     -1.74047505     -3.38815922
H       1.74955752     -0.00914698     -0.50795616
H       0.02087882      0.03246167      0.03878317
H       0.89941493     -1.55919778     -0.00191735
H       0.29211311      0.09450150     -2.63651629
H       1.15311505     -1.41767036     -2.51651244
H      -0.51731971     -1.50063047     -4.00012325
11
Frame 95  Energy = -268.3015769435 Hartree
C       0.80240284     -0.54473078     -0.55027748
C       0.39448543     -0.79825442     -1.95467393
C      -0.89072625     -1.59301277     -2.09631713
O      -1.61577391     -1.93287017     -1.22074736
O      -1.24226159     -1.74177506     -3.38719625
H       1.75574560     -0.00887269     -0.50599986
H       0.02648592      0.03032360      0.02977968
H       0.90402983     -1.54625650     -0.01341899
H       0.29264613      0.09075777     -2.62666220
H       1.15348251     -1.41336566     -2.50806508
H      -0.52052270     -1.50871686     -3.98980029
11
Frame 100  Energy = -268.3017445833 Hartree
C       0.80401535     -0.54307641     -0.54890630
C       0.39368789     -0.79949783     -1.95740662
C      -0.88935046     -1.59281726     -2.09489628
O      -1.61548920     -1.93173052     -1.22280117
O      -1.24535867     -1.74320011     -3.38627154
H       1.76178685     -0.00851585     -0.50381307
H       0.03340235      0.02719815      0.01977483
H       0.90867449     -1.53033703     -0.02621609
H       0.29329448      0.08699312     -2.61505158
H       1.15332933     -1.40814439     -2.49852699
H      -0.52394033     -1.51677849     -3.97892619
11
Frame 105  Energy = -268.3018121143 Hartree
C       0.80551270     -0.54144595     -0.54722307
C       0.39295229     -0.80089741     -1.96041777
C      -0.88782154     -1.59230774     -2.09372541
O      -1.61534782     -1.93069804     -1.22466127
O      -1.24842499     -1.74474747     -3.38546130
H       1.76750901     -0.00876259     -0.50147911
H       0.04161826      0.02344421      0.00885873
H       0.91368659     -1.51270052     -0.03963111
H       0.29370270      0.08341517     -2.60193817
H       1.15307931     -1.40223828     -2.48841382
H      -0.52684111     -1.52457862     -3.96869142
11
Frame 110  Energy = -268.3017245228 Hartree
C       0.80696250     -0.53980513     -0.54540255
C       0.39228305     -0.80243057     -1.96356367
C      -0.88616317     -1.59155136     -2.09282925
O      -1.61532013     -1.92988603     -1.22635100
O      -1.25160466     -1.74628602     -3.38470433
H       1.77244559     -0.00902327     -0.49915373
H       0.05032718      0.01971421     -0.00257880
H       0.91908287     -1.49455208     -0.05284783
H       0.29412203      0.08023634     -2.58803113
H       1.15321368     -1.39608623     -2.47804179
H      -0.52877302     -1.53184776     -3.95937229
11
Frame 115  Energy = -268.3013615154 Hartree
C       0.80848089     -0.53801663     -0.54361897
C       0.39164700     -0.80415233     -1.96681497
C      -0.88449144     -1.59063538     -2.09218908
O      -1.61544889     -1.92924229     -1.22786621
O      -1.25495740     -1.74792106     -3.38389194
H       1.77656451     -0.00934077     -0.49679331
H       0.05887148      0.01664777     -0.01368023
H       0.92479202     -1.47714588     -0.06513797
H       0.29422851      0.07869993     -2.57386660
H       1.15414891     -1.39058061     -2.46768890
H      -0.52905664     -1.53823400     -3.95168942
11
Frame 120  Energy = -268.3012020294 Hartree
C       0.81009547     -0.53598307     -0.54190405
C       0.39112271     -0.80606832     -1.97012431
C      -0.88273645     -1.58948959     -2.09176825
O      -1.61576588     -1.92870220     -1.22920430
O      -1.25844605     -1.74965090     -3.38298475
H       1.77997799     -0.00969968     -0.49420738
H       0.06607683      0.01466039     -0.02433698
H       0.93075854     -1.46188912     -0.07521791
H       0.29386374      0.07909515     -2.56023476
H       1.15674056     -1.38567562     -2.45756039
H      -0.52724421     -1.54353093     -3.94585522
11
Frame 125  Energy = -268.3011205722 Hartree
C       0.81181073     -0.53369325     -0.54042171
C       0.39078348     -0.80814212     -1.97336035
C      -0.88084850     -1.58804160     -2.09165138
O      -1.61625046     -1.92823250     -1.23034164
O      -1.26209006     -1.75144819     -3.38207263
H       1.78278125     -0.00967220     -0.49189169
H       0.07107881      0.01431996     -0.03338371
H       0.93713445     -1.45067280     -0.08243678
H       0.29302586      0.08170604     -2.54781481
H       1.16123704     -1.38198514     -2.44829518
H      -0.52371457     -1.54800673     -3.94209479
11
Frame 130  Energy = -268.3012770999 Hartree
C       0.81365589     -0.53116864     -0.53916480
C       0.39055258     -0.81026380     -1.97632005
C      -0.87888774     -1.58649722     -2.09187173
O      -1.61686286     -1.92795633     -1.23123015
O      -1.26585512     -1.75324239     -3.38118353
H       1.78474972     -0.00955808     -0.48962010
H       0.07359416      0.01634412     -0.04017415
H       0.94430879     -1.44443422     -0.08646924
H       0.29173916      0.08689545     -2.53681408
H       1.16775825     -1.37919177     -2.44034269
H      -0.51867241     -1.55171495     -3.94015431
11
Frame 135  Energy = -268.3014882532 Hartree
C       0.81569823     -0.52835163     -0.53827613
C       0.39037813     -0.81243781     -1.97903678
C      -0.87703491     -1.58485910     -2.09243183
O      -1.61753257     -1.92775507     -1.23185614
O      -1.26968113     -1.75503120     -3.38035536
H       1.78567038     -0.00954493     -0.48764613
H       0.07321892      0.02092176     -0.04459814
H       0.95178514     -1.44371068     -0.08696214
H       0.29004398      0.09459633     -2.52757719
H       1.17585324     -1.37752665     -2.43361339
H      -0.51295991     -1.55538410     -3.94010016
11
Frame 140  Energy = -268.3014696032 Hartree
C       0.81788085     -0.52535488     -0.53797721
C       0.39034189     -0.81462940     -1.98142610
C      -0.87529389     -1.58306018     -2.09332944
O      -1.61822213     -1.92765541     -1.23233533
O      -1.27348538     -1.75691281     -3.37953968
H       1.78601106     -0.00916453     -0.48594374
H       0.07006022      0.02787790     -0.04644128
H       0.95933565     -1.44819661     -0.08370294
H       0.28781376      0.10473800     -2.52000001
H       1.18554933     -1.37713890     -2.42832331
H      -0.50720915     -1.55877512     -3.94118155
11
Frame 145  Energy = -268.3015247305 Hartree
C       0.82015424     -0.52229489     -0.53809309
C       0.39042022     -0.81676404     -1.98348282
C      -0.87370554     -1.58111467     -2.09443293
O      -1.61901317     -1.92772404     -1.23258541
O      -1.27720842     -1.75879352     -3.37868519
H       1.78582469     -0.00839730     -0.48473800
H       0.06451304      0.03671230     -0.04615169
H       0.96690590     -1.45721900     -0.07701405
H       0.28542056      0.11638672     -2.51369271
H       1.19652317     -1.37809607     -2.42489107
H      -0.50210140     -1.56204770     -3.94310286
11
Frame 150  Energy = -268.3014571064 Hartree
C       0.82244164     -0.51912127     -0.53858860
C       0.39067855     -0.81874993     -1.98522522
C      -0.87245135     -1.57913970     -2.09570113
O      -1.61978811     -1.92784528     -1.23265432
O      -1.28072098     -1.76067196     -3.37786897
H       1.78524004     -0.00708239     -0.48446908
H       0.05708677      0.04658645     -0.04389922
H       0.97424063     -1.46976082     -0.06755171
H       0.28325434      0.12918187     -2.50848101
H       1.20872280     -1.37987755     -2.42321480
H      -0.49797942     -1.56569582     -3.94527572
11
Frame 155  Energy = -268.3015634398 Hartree
C       0.82478439     -0.51605251     -0.53929828
C       0.39113018     -0.82061527     -1.98654287
C      -0.87158801     -1.57715361     -2.09719609
O      -1.62058869     -1.92798385     -1.23257219
O      -1.28393565     -1.76252304     -3.37720578
H       1.78454885     -0.00474889     -0.48477376
H       0.04874904      0.05704467     -0.04000105
H       0.98128393     -1.48373831     -0.05610585
H       0.28122964      0.14216857     -2.50418897
H       1.22137226     -1.38215618     -2.42308283
H      -0.49597763     -1.56970706     -3.94688032
11
Frame 160  Energy = -268.3014657796 Hartree
C       0.82703519     -0.51317446     -0.54011300
C       0.39189284     -0.82230995     -1.98758077
C      -0.87108914     -1.57510520     -2.09882060
O      -1.62135398     -1.92815133     -1.23239619
O      -1.28689507     -1.76438043     -3.37674157
H       1.78389008     -0.00175953     -0.48547032
H       0.04072282      0.06757934     -0.03507129
H       0.98768580     -1.49776825     -0.04345681
H       0.27927041      0.15481518     -2.50046652
H       1.23354335     -1.38443941     -2.42423681
H      -0.49676954     -1.57415795     -3.94793904
11
Frame 165  Energy = -268.3015823273 Hartree
C       0.82913675     -0.51052813     -0.54105658
C       0.39303867     -0.82380133     -1.98844734
C      -0.87092741     -1.57312531     -2.10046283
O      -1.62211073     -1.92829083     -1.23209343
O      -1.28957918     -1.76616096     -3.37644322
H       1.78371391      0.00161780     -0.48676618
H       0.03354272      0.07759992     -0.02972581
H       0.99315870     -1.51009245     -0.03019406
H       0.27737574      0.16603837     -2.49703540
H       1.24457083     -1.38632273     -2.42651514
H      -0.50043136     -1.57900218     -3.94854792
11
Frame 170  Energy = -268.3017080798 Hartree
C       0.83100731     -0.50824938     -0.54180555
C       0.39453316     -0.82503653     -1.98909457
C      -0.87118206     -1.57117792     -2.10214601
O      -1.62288747     -1.92835748     -1.23166373
O      -1.29198440     -1.76779303     -3.37633653
H       1.78399838      0.00591237     -0.48839595
H       0.02800149      0.08647597     -0.02426136
H       0.99755478     -1.51981412     -0.01708586
H       0.27578398      0.17535840     -2.49399267
H       1.25389024     -1.38759976     -2.42955560
H      -0.50664537     -1.58401365     -3.94871840
11
Frame 175  Energy = -268.3015625973 Hartree
C       0.83275577     -0.50622154     -0.54241515
C       0.39645584     -0.82598044     -1.98955822
C      -0.87184300     -1.56932935     -2.10386930
O      -1.62350892     -1.92836056     -1.23108921
O      -1.29417370     -1.76939226     -3.37638175
H       1.78469064      0.01162245     -0.49038586
H       0.02477959      0.09368292     -0.01948649
H       1.00083514     -1.52578337     -0.00469182
H       0.27455717      0.18238351     -2.49115640
H       1.26157126     -1.38823391     -2.43323862
H      -0.51528698     -1.58883451     -3.94873250
11
Frame 180  Energy = -268.3016957016 Hartree
C       0.83430903     -0.50458589     -0.54285279
C       0.39877588     -0.82659648     -1.98981281
C      -0.87287314     -1.56758819     -2.10553405
O      -1.62398710     -1.92824589     -1.23039510
O      -1.29616370     -1.77096260     -3.37662634
H       1.78555376      0.01826431     -0.49285166
H       0.02439111      0.09890034     -0.01561384
H       1.00271839     -1.52723053      0.00647611
H       0.27402241      0.18681652     -2.48788488
H       1.26749009     -1.38804862     -2.43734610
H      -0.52586756     -1.59382253     -3.94891519
11
Frame 185  Energy = -268.3017591440 Hartree
C       0.83561438     -0.50329580     -0.54309063
C       0.40144127     -0.82693073     -1.98997471
C      -0.87430809     -1.56600720     -2.10706141
O      -1.62433899     -1.92807901     -1.22966765
O      -1.29798952     -1.77255032     -3.37701872
H       1.78632448      0.02557276     -0.49574115
H       0.02686160      0.10219153     -0.01291924
H       1.00327276     -1.52384347      0.01601502
H       0.27424006      0.18810858     -2.48456844
H       1.27119944     -1.38655450     -2.44154679
H      -0.53769650     -1.59887410     -3.94968050
11
Frame 190  Energy = -268.3017973395 Hartree
C       0.83667331     -0.50245033     -0.54304694
C       0.40456308     -0.82698874     -1.99000829
C      -0.87613683     -1.56453874     -2.10853473
O      -1.62456134     -1.92779413     -1.22887127
O      -1.29964972     -1.77423470     -3.37742496
H       1.78716934      0.03326189     -0.49915614
H       0.03194683      0.10348247     -0.01142450
H       1.00266682     -1.51545032      0.02384519
H       0.27470999      0.18655676     -2.48111844
H       1.27226848     -1.38398415     -2.44573331
H      -0.55027404     -1.60408843     -3.95171084
11
Frame 195  Energy = -268.3018936085 Hartree
C       0.83748063     -0.50199361     -0.54280235
C       0.40815134     -0.82682038     -1.98992534
C      -0.87843320     -1.56324178     -2.11000137
O      -1.62454713     -1.92750836     -1.22804840
O      -1.30123088     -1.77596609     -3.37791598
H       1.78773415      0.04099655     -0.50301220
H       0.03934479      0.10287899     -0.01111724
H       1.00070375     -1.50246317      0.03015832
H       0.27521364      0.18245894     -2.47779741
H       1.27084806     -1.38027855     -2.44985754
H      -0.56246362     -1.60914815     -3.95511677
11
Frame 200  Energy = -268.3020311842 Hartree
C       0.83805362     -0.50188873     -0.54240085
C       0.41211182     -0.82644557     -1.98978229
C      -0.88113520     -1.56220185     -2.11147777
O      -1.62441704     -1.92714687     -1.22721680
O      -1.30279665     -1.77775251     -3.37849187
H       1.78782000      0.04889871     -0.50713349
H       0.04850759      0.10029645     -0.01199137
H       0.99777407     -1.48546676      0.03477810
H       0.27606306      0.17595648     -2.47486687
H       1.26745056     -1.37565379     -2.45424928
H      -0.57333453     -1.61379941     -3.96055115
11
Frame 205  Energy = -268.3022167121 Hartree
C       0.83842235     -0.50203921     -0.54174921
C       0.41634106     -0.82579249     -1.98951899
C      -0.88413114     -1.56135012     -2.11280992
O      -1.62407700     -1.92673444     -1.22629130
O      -1.30431655     -1.77957864     -3.37900860
H       1.78730055      0.05670659     -0.51156552
H       0.05933165      0.09616926     -0.01395927
H       0.99420097     -1.46504195      0.03757676
H       0.27701512      0.16727842     -2.47213358
H       1.26249718     -1.37022747     -2.45890459
H      -0.58262386     -1.61751778     -3.96825805
11
Frame 210  Energy = -268.3023240911 Hartree
C       0.83864279     -0.50236195     -0.54098260
C       0.42077502     -0.82491435     -1.98907774
C      -0.88736760     -1.56065337     -2.11400915
O      -1.62360127     -1.92637477     -1.22538343
O      -1.30589716     -1.78145773     -3.37939575
H       1.78647245      0.06415094     -0.51648668
H       0.07123322      0.09134684     -0.01706456
H       0.99007408     -1.44210967      0.03955818
H       0.27819055      0.15745662     -2.46998761
H       1.25631520     -1.36432912     -2.46380912
H      -0.58991117     -1.62055121     -3.97822248
11
Frame 215  Energy = -268.3023452140 Hartree
C       0.83879481     -0.50278267     -0.54021763
C       0.42533974     -0.82394158     -1.98843332
C      -0.89082388     -1.56013880     -2.11501824
O      -1.62291994     -1.92593093     -1.22443010
O      -1.30752166     -1.78335177     -3.37964815
H       1.78488498      0.07080564     -0.52217635
H       0.08369293      0.08601967     -0.02092928
H       0.98576140     -1.41816325      0.04086486
H       0.27971853      0.14713915     -2.46825682
H       1.24913934     -1.35823651     -2.46935738
H      -0.59552832     -1.62310481     -3.99021804
11
Frame 220  Energy = -268.3020692387 Hartree
C       0.83887791     -0.50321398     -0.53945307
C       0.42998768     -0.82283905     -1.98753036
C      -0.89449477     -1.55978946     -2.11595525
O      -1.62211702     -1.92541037     -1.22347995
O      -1.30920156     -1.78530261     -3.37984502
H       1.78191478      0.07666907     -0.52804575
H       0.09530270      0.08076467     -0.02500410
H       0.98169364     -1.39442297      0.04219273
H       0.28171282      0.13676626     -2.46754906
H       1.24162763     -1.35239160     -2.47589699
H      -0.60006844     -1.62501039     -4.00380443
11
Frame 225  Energy = -268.3021412235 Hartree
C       0.83907842     -0.50359809     -0.53877201
C       0.43458656     -0.82169324     -1.98636191
C      -0.89829557     -1.55960150     -2.11681211
O      -1.62126531     -1.92483590     -1.22256355
O      -1.31085595     -1.78725193     -3.38001838
H       1.77790936      0.08183907     -0.53388854
H       0.10530253      0.07628335     -0.02873569
H       0.97832074     -1.37225952      0.04469084
H       0.28398426      0.12690685     -2.46831832
H       1.23446346     -1.34747581     -2.48360362
H      -0.60420436     -1.62647061     -4.01816936
11
Frame 230  Energy = -268.3021220779 Hartree
C       0.83940080     -0.50388771     -0.53830105
C       0.43900829     -0.82050216     -1.98500834
C      -0.90225549     -1.55952199     -2.11763384
O      -1.62032966     -1.92421780     -1.22168131
O      -1.31249518     -1.78914741     -3.38032398
H       1.77308270      0.08654557     -0.53966423
H       0.11342929      0.07324073     -0.03170254
H       0.97579807     -1.35334812      0.04884335
H       0.28663126      0.11842282     -2.47068647
H       1.22816803     -1.34369521     -2.49252771
H      -0.60806075     -1.62752806     -4.03232479
11
Frame 235  Energy = -268.3022275425 Hartree
C       0.83990908     -0.50402799     -0.53818532
C       0.44325670     -0.81932214     -1.98344603
C      -0.90629374     -1.55948390     -2.11838318
O      -1.61921052     -1.92352504     -1.22074887
O      -1.31410685     -1.79108629     -3.38075496
H       1.76780813      0.09078733     -0.54492063
H       0.11876990      0.07204151     -0.03376562
H       0.97450300     -1.33885379      0.05520881
H       0.28953152      0.11215874     -2.47485433
H       1.22305345     -1.34123465     -2.50228309
H      -0.61211326     -1.62808070     -4.04556819
11
Frame 240  Energy = -268.3023781266 Hartree
C       0.84053468     -0.50389380     -0.53844613
C       0.44722337     -0.81823556     -1.98151862
C      -0.91020894     -1.55955680     -2.11897476
O      -1.61796956     -1.92278853     -1.21980688
O      -1.31558912     -1.79306794     -3.38132764
H       1.76230886      0.09418885     -0.54946444
H       0.12109545      0.07329059     -0.03471373
H       0.97461567     -1.32959073      0.06443842
H       0.29260481      0.10839917     -2.48103078
H       1.21939134     -1.34005264     -2.51279809
H      -0.61754758     -1.62843473     -4.05771576
11
Frame 245  Energy = -268.3025950279 Hartree
C       0.84137744     -0.50350499     -0.53911162
C       0.45083811     -0.81720936     -1.97931733
C      -0.91392323     -1.55962127     -2.11952986
O      -1.61663134     -1.92196072     -1.21880690
O      -1.31700447     -1.79508208     -3.38201839
H       1.75676671      0.09700860     -0.55357793
H       0.12035849      0.07674854     -0.03448722
H       0.97631781     -1.32594800      0.07655488
H       0.29533842      0.10713534     -2.48888240
H       1.21720229     -1.34029828     -2.52381594
H      -0.62407750     -1.62891105     -4.06801768
11
Frame 250  Energy = -268.3022488453 Hartree
C       0.84240431     -0.50288912     -0.54001316
C       0.45420312     -0.81636585     -1.97687649
C      -0.91751743     -1.55973742     -2.12009938
O      -1.61527192     -1.92110081     -1.21772664
O      -1.31834697     -1.79709973     -3.38292021
H       1.75130245      0.09937355     -0.55789081
H       0.11650839      0.08253400     -0.03352295
H       0.97945503     -1.32732763      0.09118922
H       0.29803621      0.10838801     -2.49824579
H       1.21657425     -1.34190577     -2.53511390
H      -0.63201855     -1.62941039     -4.07618105
11
Frame 255  Energy = -268.3021735068 Hartree
C       0.84355756     -0.50210476     -0.54121944
C       0.45735054     -0.81564396     -1.97434556
C      -0.92080229     -1.55981403     -2.12072713
O      -1.61386051     -1.92023349     -1.21654977
O      -1.31959930     -1.79910090     -3.38411430
H       1.74656649      0.10174143     -0.56195061
H       0.11021602      0.08982602     -0.03211753
H       0.98362739     -1.33306890      0.10755242
H       0.30062727      0.11165912     -2.50882287
H       1.21701905     -1.34448993     -2.54655892
H      -0.64134320     -1.62930524     -4.08168265
11
Frame 260  Energy = -268.3021556916 Hartree
C       0.84483211     -0.50120307     -0.54267086
C       0.46005833     -0.81497052     -1.97171426
C      -0.92376780     -1.55985448     -2.12136092
O      -1.61249121     -1.91937997     -1.21533159
O      -1.32078789     -1.80105538     -3.38546627
H       1.74295067      0.10436708     -0.56578174
H       0.10162305      0.09850060     -0.03038066
H       0.98862813     -1.34165752      0.12457845
H       0.30355402      0.11673448     -2.52017986
H       1.21800226     -1.34749977     -2.55739436
H      -0.65201875     -1.62882670     -4.08482899
11
Frame 265  Energy = -268.3021038162 Hartree
C       0.84602877     -0.50027528     -0.54407857
C       0.46238619     -0.81439615     -1.96915635
C      -0.92634730     -1.55973382     -2.12201935
O      -1.61112216     -1.91850964     -1.21403446
O      -1.32198561     -1.80306591     -3.38694683
H       1.74034750      0.10709666     -0.56919727
H       0.09168824      0.10769034     -0.02884575
H       0.99415022     -1.35191255      0.14105955
H       0.30662601      0.12224472     -2.53176532
H       1.21936969     -1.35094045     -2.56742625
H      -0.66359859     -1.62819616     -4.08570256
11
Frame 270  Energy = -268.3021470366 Hartree
C       0.84714042     -0.49932480     -0.54528512
C       0.46435072     -0.81394494     -1.96688428
C      -0.92846117     -1.55950870     -2.12271507
O      -1.60978443     -1.91758050     -1.21263580
O      -1.32312488     -1.80507517     -3.38851146
H       1.73913004      0.10979568     -0.57188996
H       0.08156163      0.11695814     -0.02810777
H       1.00007946     -1.36262242      0.15602114
H       0.31017468      0.12758353     -2.54318212
H       1.22079605     -1.35476070     -2.57596939
H      -0.67531282     -1.62697926     -4.08493704
11
Frame 275  Energy = -268.3022620035 Hartree
C       0.84812304     -0.49838617     -0.54618631
C       0.46592375     -0.81359874     -1.96492823
C      -0.93009373     -1.55926641     -2.12349420
O      -1.60849804     -1.91662916     -1.21112704
O      -1.32434650     -1.80709304     -3.38998203
H       1.73931744      0.11274979     -0.57419111
H       0.07163711      0.12540629     -0.02826864
H       1.00616138     -1.37263214      0.16833408
H       0.31436819      0.13213492     -2.55357616
H       1.22196420     -1.35849755     -2.58310906
H      -0.68671835     -1.62489872     -4.08319707
11
Frame 280  Energy = -268.3022832783 Hartree
C       0.84894767     -0.49751427     -0.54677178
C       0.46712277     -0.81327951     -1.96333235
C      -0.93123082     -1.55891648     -2.12428126
O      -1.60727953     -1.91565002     -1.20964625
O      -1.32572388     -1.80917103     -3.39140424
H       1.74083676      0.11578666     -0.57570873
H       0.06285355      0.13254499     -0.02980722
H       1.01212068     -1.38076469      0.17740711
H       0.31882210      0.13553714     -2.56242088
H       1.22289496     -1.36196369     -2.58884637
H      -0.69698946     -1.62149884     -4.08111537
11
Frame 285  Energy = -268.3024125210 Hartree
C       0.84961415     -0.49666109     -0.54697774
C       0.46805473     -0.81300203     -1.96225232
C      -0.93193246     -1.55835875     -2.12510763
O      -1.60613719     -1.91459091     -1.20812012
O      -1.32725098     -1.81132090     -3.39283269
H       1.74383640      0.11901211     -0.57649747
H       0.05551828      0.13768763     -0.03314019
H       1.01767068     -1.38629908      0.18282784
H       0.32380391      0.13786539     -2.56957849
H       1.22311640     -1.36494250     -2.59249745
H      -0.70524257     -1.61732802     -4.07946625
11
Frame 290  Energy = -268.3025677706 Hartree
C       0.85011703     -0.49577673     -0.54670732
C       0.46852167     -0.81281321     -1.96176879
C      -0.93226971     -1.55762945     -2.12599863
O      -1.60506153     -1.91352140     -1.20663559
O      -1.32893700     -1.81353149     -3.39412160
H       1.74816463      0.12194640     -0.57661068
H       0.05031429      0.14058194     -0.03810599
H       1.02270915     -1.38878951      0.18389780
H       0.32919012      0.13829804     -2.57482446
H       1.22291379     -1.36782708     -2.59378213
H      -0.71127055     -1.61229745     -4.07865374
11
Frame 295  Energy = -268.3027067665 Hartree
C       0.85049436     -0.49492608     -0.54593286
C       0.46864946     -0.81277524     -1.96177657
C      -0.93228146     -1.55678422     -2.12693870
O      -1.60400604     -1.91241760     -1.20505511
O      -1.33078932     -1.81581400     -3.39522703
H       1.75320577      0.12456671     -0.57622918
H       0.04728470      0.14150150     -0.04492567
H       1.02751478     -1.38812213      0.18051445
H       0.33491168      0.13709567     -2.57782221
H       1.22169144     -1.37049289     -2.59242764
H      -0.71468716     -1.60602949     -4.07909701
11
Frame 300  Energy = -268.3026784325 Hartree
C       0.85074110     -0.49401600     -0.54474708
C       0.46848098     -0.81283095     -1.96238272
C      -0.93203038     -1.55577648     -2.12778909
O      -1.60298188     -1.91125736     -1.20340111
O      -1.33278333     -1.81819489     -3.39604818
H       1.75838025      0.12670327     -0.57528149
H       0.04626516      0.14032052     -0.05320102
H       1.03180785     -1.38428330      0.17334180
H       0.34082669      0.13451580     -2.57856359
H       1.21938734     -1.37256779     -2.58841472
H      -0.71562903     -1.59860696     -4.08095477
