11
Frame 5  Energy = -268.3118444921 Hartree
C       0.76742353     -0.49574598     -0.63234287
C       0.41484847     -0.86446101     -2.06800332
C      -0.91247603     -1.53167924     -2.08368380
O      -1.53305291     -1.84382693     -1.11590023
O      -1.39088889     -1.84321556     -3.32781143
H       1.67322155      0.09603677     -0.64622061
H      -0.09739496      0.09457023     -0.23680911
H       0.98640681     -1.45928238     -0.04422323
H       0.39320064      0.09510517     -2.66990290
H       1.22189881     -1.52280109     -2.46998104
H      -0.81324190     -1.43161123     -4.02671347
11
Frame 10  Energy = -268.3118766829 Hartree
C       0.76626234     -0.49706141     -0.63546578
C       0.41509872     -0.86558386     -2.07046579
C      -0.91276855     -1.53113223     -2.08036569
O      -1.53230465     -1.84359029     -1.11446025
O      -1.39266522     -1.84315125     -3.32750665
H       1.67534471      0.10387718     -0.64064800
H      -0.10321008      0.09349395     -0.24355133
H       0.98087430     -1.45976239     -0.03840783
H       0.39274447      0.10434693     -2.66383543
H       1.22434151     -1.52402680     -2.47416796
H      -0.80612265     -1.43404611     -4.01864213
11
Frame 15  Energy = -268.3118811633 Hartree
C       0.76510328     -0.49860384     -0.63850366
C       0.41567491     -0.86650503     -2.07297946
C      -0.91302424     -1.53058678     -2.07736644
O      -1.53168561     -1.84335433     -1.11292287
O      -1.39445762     -1.84302610     -3.32720862
H       1.67724175      0.11224222     -0.63489553
H      -0.10672613      0.09126777     -0.24950449
H       0.97394815     -1.45681977     -0.03380076
H       0.39189682      0.11084291     -2.65736223
H       1.22491994     -1.52457412     -2.47844342
H      -0.80017328     -1.43761488     -4.00862889
11
Frame 20  Energy = -268.3118387009 Hartree
C       0.76395750     -0.50031260     -0.64139432
C       0.41649078     -0.86716289     -2.07549183
C      -0.91327881     -1.53006522     -2.07485525
O      -1.53109873     -1.84311940     -1.11121045
O      -1.39618655     -1.84279250     -3.32691424
H       1.67870209      0.12082298     -0.62893245
H      -0.10788306      0.08751365     -0.25505852
H       0.96529611     -1.45011500     -0.03062458
H       0.39071722      0.11440628     -2.65017726
H       1.22362167     -1.52410071     -2.48290535
H      -0.79555464     -1.44211113     -3.99731891
11
Frame 25  Energy = -268.3119865981 Hartree
C       0.76291010     -0.50216166     -0.64414945
C       0.41751304     -0.86755024     -2.07798207
C      -0.91352653     -1.52970584     -2.07278129
O      -1.53062897     -1.84289398     -1.10929285
O      -1.39784770     -1.84242571     -3.32664803
H       1.67956849      0.12914747     -0.62256331
H      -0.10680963      0.08236592     -0.25989823
H       0.95551893     -1.43979507     -0.02914896
H       0.38916961      0.11502335     -2.64281775
H       1.22049493     -1.52240366     -2.48758509
H      -0.79215326     -1.44724860     -3.98514754
11
Frame 30  Energy = -268.3119559074 Hartree
C       0.76200682     -0.50412119     -0.64684431
C       0.41866726     -0.86766736     -2.08048335
C      -0.91379361     -1.52948107     -2.07129964
O      -1.53039895     -1.84276825     -1.10726423
O      -1.39943230     -1.84202420     -3.32632493
H       1.67941287      0.13666297     -0.61569018
H      -0.10355231      0.07602332     -0.26374780
H       0.94503962     -1.42662004     -0.02877336
H       0.38733440      0.11288231     -2.63537904
H       1.21563776     -1.51997112     -2.49228177
H      -0.78944858     -1.45266318     -3.97264431
11
Frame 35  Energy = -268.3118399700 Hartree
C       0.76124657     -0.50615793     -0.64936978
C       0.42004916     -0.86745540     -2.08294863
C      -0.91411241     -1.52932488     -2.07033717
O      -1.53030551     -1.84272493     -1.10503929
O      -1.40102520     -1.84157215     -3.32590057
H       1.67765570      0.14294305     -0.60860660
H      -0.09887026      0.06894905     -0.26679544
H       0.93388711     -1.41073753     -0.02929307
H       0.38521566      0.10813803     -2.62816800
H       1.20952502     -1.51688703     -2.49717328
H      -0.78681703     -1.45827011     -3.96046899
11
Frame 40  Energy = -268.3115916517 Hartree
C       0.76052602     -0.50801177     -0.65181740
C       0.42156123     -0.86698993     -2.08527982
C      -0.91438435     -1.52927987     -2.06985281
O      -1.53029442     -1.84273845     -1.10259774
O      -1.40266350     -1.84110793     -3.32529844
H       1.67432039      0.14756182     -0.60093413
H      -0.09314911      0.06138027     -0.26912699
H       0.92256023     -1.39353026     -0.03017581
H       0.38318088      0.10129342     -2.62151103
H       1.20217984     -1.51345488     -2.50279123
H      -0.78316575     -1.46399026     -3.94955270
11
Frame 45  Energy = -268.3113411002 Hartree
C       0.75992341     -0.50968046     -0.65421832
C       0.42314057     -0.86625012     -2.08748595
C      -0.91467890     -1.52936690     -2.06968644
O      -1.53043869     -1.84278123     -1.10002022
O      -1.40433782     -1.84058552     -3.32447074
H       1.66891329      0.15061843     -0.59307930
H      -0.08690643      0.05347925     -0.27052496
H       0.91073999     -1.37591624     -0.03068464
H       0.38065607      0.09290636     -2.61584101
H       1.19456011     -1.51028177     -2.50922445
H      -0.77876335     -1.46948900     -3.94038217
11
Frame 50  Energy = -268.3112846816 Hartree
C       0.75958484     -0.51115678     -0.65678413
C       0.42486992     -0.86530585     -2.08953548
C      -0.91501759     -1.52955662     -2.06988601
O      -1.53072624     -1.84282760     -1.09739312
O      -1.40607447     -1.84009673     -3.32344135
H       1.66179297      0.15183195     -0.58519795
H      -0.08096924      0.04624641     -0.27115309
H       0.89904669     -1.35914357     -0.03044180
H       0.37784931      0.08394774     -2.61162064
H       1.18711739     -1.50720292     -2.51626616
H      -0.77332839     -1.47444968     -3.93342796
11
Frame 55  Energy = -268.3111101547 Hartree
C       0.75946989     -0.51231274     -0.65947990
C       0.42667046     -0.86427591     -2.09131024
C      -0.91533789     -1.52990640     -2.07052556
O      -1.53110997     -1.84289814     -1.09468578
O      -1.40780395     -1.83967039     -3.32220952
H       1.65333719      0.15167543     -0.57752316
H      -0.07566826      0.04003981     -0.27097470
H       0.88767714     -1.34431847     -0.02905840
H       0.37465070      0.07520042     -2.60889066
H       1.17979966     -1.50501532     -2.52423653
H      -0.76680873     -1.47871419     -3.92893486
11
Frame 60  Energy = -268.3112508029 Hartree
C       0.75962125     -0.51308592     -0.66227286
C       0.42848166     -0.86315917     -2.09283566
C      -0.91568433     -1.53056917     -2.07144883
O      -1.53158904     -1.84300857     -1.09194951
O      -1.40957406     -1.83915994     -3.32078123
H       1.64372369      0.15021415     -0.57016880
H      -0.07177206      0.03548931     -0.26946228
H       0.87707636     -1.33251319     -0.02558377
H       0.37081965      0.06759137     -2.60836144
H       1.17302351     -1.50395542     -2.53301022
H      -0.75934963     -1.48238125     -3.92685075
11
Frame 65  Energy = -268.3113131918 Hartree
C       0.75994606     -0.51346349     -0.66516048
C       0.43025145     -0.86208870     -2.09398271
C      -0.91616059     -1.53145375     -2.07262977
O      -1.53213307     -1.84313666     -1.08920230
O      -1.41140400     -1.83860107     -3.31923844
H       1.63372074      0.14764067     -0.56297808
H      -0.06927489      0.03219757     -0.26674978
H       0.86719814     -1.32475906     -0.01969558
H       0.36663752      0.06172945     -2.61040576
H       1.16746423     -1.50365382     -2.54292779
H      -0.75137521     -1.48556824     -3.92714662
11
Frame 70  Energy = -268.3113063878 Hartree
C       0.76032044     -0.51348001     -0.66815635
C       0.43194914     -0.86111900     -2.09473165
C      -0.91684569     -1.53252668     -2.07408481
O      -1.53275957     -1.84331748     -1.08647006
O      -1.41312184     -1.83802891     -3.31753717
H       1.62365173      0.14416938     -0.55649901
H      -0.06798672      0.03039722     -0.26328247
H       0.85791921     -1.32194208     -0.01149657
H       0.36215400      0.05801245     -2.61549910
H       1.16318104     -1.50391212     -2.55411752
H      -0.74372455     -1.48856552     -3.92900236
11
Frame 75  Energy = -268.3113392332 Hartree
C       0.76068723     -0.51320152     -0.67115164
C       0.43362386     -0.86029989     -2.09513739
C      -0.91768724     -1.53377686     -2.07568551
O      -1.53338771     -1.84352716     -1.08369007
O      -1.41474541     -1.83735443     -3.31581301
H       1.61427030      0.14011416     -0.55031149
H      -0.06809659      0.02995730     -0.25922708
H       0.84942957     -1.32328011     -0.00131405
H       0.35763636      0.05648996     -2.62312533
H       1.16007044     -1.50478582     -2.56604719
H      -0.73682562     -1.49188113     -3.93176048
11
Frame 80  Energy = -268.3113011423 Hartree
C       0.76108826     -0.51270676     -0.67412198
C       0.43522468     -0.85972055     -2.09521814
C      -0.91877089     -1.53506610     -2.07730115
O      -1.53399382     -1.84366257     -1.08092522
O      -1.41625124     -1.83657967     -3.31402415
H       1.60644973      0.13590449     -0.54437554
H      -0.06944890      0.03112368     -0.25455821
H       0.84183167     -1.32813989      0.01037638
H       0.35289308      0.05730561     -2.63315406
H       1.15805913     -1.50622574     -2.57833990
H      -0.73139873     -1.49593519     -3.93493511
11
Frame 85  Energy = -268.3113177161 Hartree
C       0.76146424     -0.51198871     -0.67698650
C       0.43663719     -0.85921166     -2.09499588
C      -0.91999818     -1.53644658     -2.07896151
O      -1.53444289     -1.84374421     -1.07823701
O      -1.41765701     -1.83569997     -3.31222353
H       1.60093277      0.13260971     -0.53857252
H      -0.07196591      0.03360010     -0.24961111
H       0.83498323     -1.33528259      0.02243206
H       0.34828016      0.05993040     -2.64574486
H       1.15699947     -1.50820465     -2.59095914
H      -0.72788901     -1.50096226     -3.93803400
11
Frame 90  Energy = -268.3112230854 Hartree
C       0.76180660     -0.51117767     -0.67969674
C       0.43791399     -0.85881919     -2.09456136
C      -0.92131519     -1.53800165     -2.08068975
O      -1.53479974     -1.84377341     -1.07566269
O      -1.41898959     -1.83468508     -3.31046353
H       1.59799086      0.13047590     -0.53295870
H      -0.07516863      0.03694409     -0.24491543
H       0.82887070     -1.34414232      0.03385391
H       0.34371753      0.06372302     -2.66005963
H       1.15668528     -1.51027629     -2.60337158
H      -0.72651926     -1.50715051     -3.94109584
11
Frame 95  Energy = -268.3113093081 Hartree
C       0.76207903     -0.51034045     -0.68209628
C       0.43897692     -0.85842547     -2.09405218
C      -0.92271219     -1.53961787     -2.08239898
O      -1.53509385     -1.84371922     -1.07321396
O      -1.42020355     -1.83360827     -3.30871729
H       1.59776128      0.12913146     -0.52788105
H      -0.07880005      0.04088493     -0.24091552
H       0.82362084     -1.35417302      0.04348077
H       0.33961552      0.06806426     -2.67539450
H       1.15699478     -1.51248075     -2.61530016
H      -0.72763515     -1.51447518     -3.94378041
11
Frame 100  Energy = -268.3113688168 Hartree
C       0.76223863     -0.50955174     -0.68402225
C       0.43984453     -0.85810733     -2.09362631
C      -0.92424446     -1.54136234     -2.08404552
O      -1.53525983     -1.84364521     -1.07102326
O      -1.42129871     -1.83253356     -3.30709548
H       1.60039003      0.12910603     -0.52333883
H      -0.08259619      0.04503166     -0.23746822
H       0.81930019     -1.36420321      0.05079338
H       0.33585528      0.07233036     -2.69117674
H       1.15735710     -1.51458664     -2.62630390
H      -0.73106507     -1.52246064     -3.94615107
11
Frame 105  Energy = -268.3114641110 Hartree
C       0.76221626     -0.50881730     -0.68543792
C       0.44051319     -0.85778955     -2.09332625
C      -0.92583419     -1.54327096     -2.08548743
O      -1.53533458     -1.84351519     -1.06912566
O      -1.42233508     -1.83145056     -3.30555038
H       1.60578431      0.13000842     -0.51905376
H      -0.08637221      0.04949925     -0.23496841
H       0.81591575     -1.37319944      0.05534187
H       0.33240285      0.07549058     -2.70631823
H       1.15739750     -1.51613832     -2.63654394
H      -0.73680252     -1.53162061     -3.94819787
11
Frame 110  Energy = -268.3115792650 Hartree
C       0.76214005     -0.50808247     -0.68637179
C       0.44099779     -0.85746450     -2.09331661
C      -0.92743478     -1.54516037     -2.08666743
O      -1.53528784     -1.84334814     -1.06745214
O      -1.42326023     -1.83039972     -3.30410371
H       1.61379338      0.13145069     -0.51499266
H      -0.08952634      0.05407982     -0.23356400
H       0.81329640     -1.38050959      0.05630717
H       0.32975422      0.07710060     -2.72048922
H       1.15679776     -1.51692656     -2.64565518
H      -0.74414729     -1.54155516     -3.94968975
11
Frame 115  Energy = -268.3117177504 Hartree
C       0.76204810     -0.50746035     -0.68665617
C       0.44131645     -0.85711223     -2.09357816
C      -0.92903763     -1.54712183     -2.08757232
O      -1.53515400     -1.84320059     -1.06599217
O      -1.42420197     -1.82929212     -3.30273594
H       1.62350024      0.13306633     -0.51148895
H      -0.09144607      0.05822423     -0.23353093
H       0.81110063     -1.38593807      0.05354672
H       0.32784506      0.07669807     -2.73337377
H       1.15538777     -1.51653188     -2.65322248
H      -0.75241896     -1.55223759     -3.95094398
11
Frame 120  Energy = -268.3117117035 Hartree
C       0.76195322     -0.50685011     -0.68626885
C       0.44140483     -0.85671196     -2.09409067
C      -0.93058331     -1.54908979     -2.08827960
O      -1.53500184     -1.84292297     -1.06478375
O      -1.42509380     -1.82821998     -3.30144962
H       1.63424391      0.13434114     -0.50870065
H      -0.09216208      0.06164044     -0.23459286
H       0.80978400     -1.38888889      0.04708496
H       0.32616664      0.07396988     -2.74457111
H       1.15342785     -1.51505008     -2.65918271
H      -0.76123647     -1.56324187     -3.95263046
11
Frame 125  Energy = -268.3115013673 Hartree
C       0.76192958     -0.50621064     -0.68522870
C       0.44130040     -0.85623566     -2.09492637
C      -0.93210132     -1.55126656     -2.08883546
O      -1.53471805     -1.84262825     -1.06378264
O      -1.42600729     -1.82725690     -3.30011688
H       1.64543400      0.13548751     -0.50648988
H      -0.09183798      0.06446235     -0.23678974
H       0.80870791     -1.38958127      0.03732943
H       0.32489520      0.06893182     -2.75369566
H       1.15065047     -1.51251448     -2.66330308
H      -0.76999723     -1.57475285     -3.95513670
11
Frame 130  Energy = -268.3115171520 Hartree
C       0.76188384     -0.50540536     -0.68356648
C       0.44102284     -0.85571116     -2.09609199
C      -0.93353260     -1.55353180     -2.08911009
O      -1.53443393     -1.84227701     -1.06301444
O      -1.42697632     -1.82632598     -3.29874372
H       1.65670975      0.13572342     -0.50542548
H      -0.08990463      0.06657232     -0.24033305
H       0.80794256     -1.38850610      0.02437358
H       0.32387780      0.06211799     -2.76092162
H       1.14711078     -1.50936692     -2.66581693
H      -0.77828421     -1.58617460     -3.95865859
11
Frame 135  Energy = -268.3117916127 Hartree
C       0.76182736     -0.50443039     -0.68139717
C       0.44053642     -0.85524469     -2.09755299
C      -0.93490611     -1.55580657     -2.08907051
O      -1.53411593     -1.84184556     -1.06251133
O      -1.42804681     -1.82543858     -3.29737221
H       1.66730739      0.13480364     -0.50581264
H      -0.08658606      0.06840630     -0.24516188
H       0.80745540     -1.38642523      0.00891042
H       0.32347911      0.05399992     -2.76632519
H       1.14287052     -1.50544903     -2.66635933
H      -0.78536555     -1.59711918     -3.96390708
11
Frame 140  Energy = -268.3117959631 Hartree
C       0.76184352     -0.50338074     -0.67890194
C       0.43977131     -0.85478087     -2.09934530
C      -0.93624148     -1.55805684     -2.08866906
O      -1.53371444     -1.84132304     -1.06226431
O      -1.42929113     -1.82459916     -3.29604335
H       1.67648612      0.13241100     -0.50736630
H      -0.08204811      0.06982685     -0.25080547
H       0.80773569     -1.38335354     -0.00857104
H       0.32347030      0.04453929     -2.76996086
H       1.13873807     -1.50126666     -2.66516163
H      -0.79090750     -1.60735850     -3.97060520
11
Frame 145  Energy = -268.3118965102 Hartree
C       0.76196310     -0.50216288     -0.67613205
C       0.43878599     -0.85419925     -2.10138297
C      -0.93753494     -1.56032990     -2.08795867
O      -1.53323687     -1.84079685     -1.06224289
O      -1.43065169     -1.82379534     -3.29468012
H       1.68428842      0.12870252     -0.50972087
H      -0.07655918      0.07121272     -0.25726734
H       0.80857536     -1.37984010     -0.02737361
H       0.32358181      0.03446524     -2.77201882
H       1.13480602     -1.49722286     -2.66257758
H      -0.79499324     -1.61724191     -3.97861926
11
Frame 150  Energy = -268.3118805410 Hartree
C       0.76223539     -0.50075090     -0.67326296
C       0.43742128     -0.85362505     -2.10358593
C      -0.93868097     -1.56259736     -2.08700783
O      -1.53262575     -1.84021102     -1.06243495
O      -1.43224896     -1.82310871     -3.29329955
H       1.68994212      0.12324368     -0.51302457
H      -0.07087830      0.07297802     -0.26375082
H       0.80943951     -1.37672418     -0.04648865
H       0.32389395      0.02392498     -2.77243537
H       1.13141696     -1.49370234     -2.65844642
H      -0.79809131     -1.62654220     -3.98743338
11
Frame 155  Energy = -268.3117214195 Hartree
C       0.76270711     -0.49899737     -0.67025659
C       0.43577769     -0.85299520     -2.10587042
C      -0.93961644     -1.56476055     -2.08580191
O      -1.53205553     -1.83958440     -1.06280900
O      -1.43408105     -1.82258417     -3.29198119
H       1.69392133      0.11584539     -0.51715830
H      -0.06545347      0.07535666     -0.27044559
H       0.81080146     -1.37490933     -0.06526350
H       0.32474116      0.01377719     -2.77165515
H       1.12856308     -1.49085370     -2.65299922
H      -0.80014700     -1.63561348     -3.99683527
11
Frame 160  Energy = -268.3116030268 Hartree
C       0.76345266     -0.49676354     -0.66732320
C       0.43388094     -0.85237664     -2.10820208
C      -0.94038402     -1.56682660     -2.08435904
O      -1.53148838     -1.83908704     -1.06329351
O      -1.43607137     -1.82218580     -3.29072810
H       1.69628370      0.10674778     -0.52232872
H      -0.06057023      0.07845024     -0.27722959
H       0.81250274     -1.37536033     -0.08264726
H       0.32501276      0.00431199     -2.77037175
H       1.12642868     -1.48895698     -2.64657234
H      -0.80191053     -1.64430231     -4.00632673
11
Frame 165  Energy = -268.3118156783 Hartree
C       0.76447885     -0.49419303     -0.66461225
C       0.43179360     -0.85179391     -2.11048304
C      -0.94089692     -1.56870138     -2.08283390
O      -1.53082508     -1.83863764     -1.06385923
O      -1.43818506     -1.82186925     -3.28957024
H       1.69731491      0.09661333     -0.52817022
H      -0.05637269      0.08225154     -0.28364990
H       0.81461629     -1.37867663     -0.09838029
H       0.32518464     -0.00353518     -2.76887004
H       1.12542903     -1.48832579     -2.63998185
H      -0.80365535     -1.65283032     -4.01537048
11
Frame 170  Energy = -268.3119716039 Hartree
C       0.76569246     -0.49136041     -0.66215618
C       0.42952085     -0.85135476     -2.11262374
C      -0.94110905     -1.57034551     -2.08117712
O      -1.53017309     -1.83821361     -1.06444916
O      -1.44035192     -1.82161623     -3.28860130
H       1.69745172      0.08581045     -0.53453369
H      -0.05323840      0.08708027     -0.28899700
H       0.81702362     -1.38523949     -0.11192565
H       0.32554551     -0.00945735     -2.76764305
H       1.12616488     -1.48907261     -2.63320838
H      -0.80572722     -1.66117128     -4.02307357
11
Frame 175  Energy = -268.3117634165 Hartree
C       0.76718567     -0.48828029     -0.66002660
C       0.42711419     -0.85093182     -2.11462407
C      -0.94094865     -1.57184032     -2.07942093
O      -1.52951947     -1.83774507     -1.06510955
O      -1.44263705     -1.82146076     -3.28793594
H       1.69671581      0.07470883     -0.54138638
H      -0.05135021      0.09297731     -0.29299587
H       0.81984388     -1.39482943     -0.12290258
H       0.32589349     -0.01308867     -2.76695292
H       1.12858903     -1.49095033     -2.62592524
H      -0.80809969     -1.66921989     -4.02903809
11
Frame 180  Energy = -268.3115550047 Hartree
C       0.76890633     -0.48499951     -0.65821037
C       0.42447812     -0.85060121     -2.11651926
C      -0.94052454     -1.57312678     -2.07754814
O      -1.52892314     -1.83714946     -1.06587627
O      -1.44504334     -1.82145963     -3.28751219
H       1.69612781      0.06333100     -0.54868515
H      -0.05059864      0.09991439     -0.29580571
H       0.82329076     -1.40678801     -0.13174132
H       0.32610526     -0.01392819     -2.76719037
H       1.13262845     -1.49423772     -2.61833883
H      -0.81099937     -1.67674264     -4.03313762
11
Frame 185  Energy = -268.3117004960 Hartree
C       0.77067525     -0.48171945     -0.65668642
C       0.42171123     -0.85046610     -2.11815635
C      -0.93975481     -1.57420899     -2.07560712
O      -1.52837238     -1.83645788     -1.06669930
O      -1.44748305     -1.82154090     -3.28732754
H       1.69646527      0.05224657     -0.55603459
H      -0.05106160      0.10759547     -0.29702771
H       0.82699110     -1.42059868     -0.13869923
H       0.32592976     -0.01217742     -2.76866205
H       1.13808497     -1.49857439     -2.61089401
H      -0.81467290     -1.68424119     -4.03496853
11
Frame 190  Energy = -268.3115942654 Hartree
C       0.77245740     -0.47846094     -0.65552011
C       0.41888851     -0.85056393     -2.11939078
C      -0.93856848     -1.57498001     -2.07363128
O      -1.52787550     -1.83584780     -1.06753607
O      -1.44997488     -1.82175625     -3.28732399
H       1.69861167      0.04211672     -0.56347182
H      -0.05259549      0.11575426     -0.29718147
H       0.83082477     -1.43523888     -0.14387039
H       0.32549619     -0.00788718     -2.77153091
H       1.14444402     -1.50375276     -2.60358457
H      -0.81903764     -1.69124936     -4.03443731
11
Frame 195  Energy = -268.3117564489 Hartree
C       0.77411886     -0.47539715     -0.65469466
C       0.41601265     -0.85084271     -2.12032325
C      -0.93698846     -1.57554655     -2.07171892
O      -1.52745417     -1.83535053     -1.06831753
O      -1.45255109     -1.82204842     -3.28751979
H       1.70250777      0.03312195     -0.57112570
H      -0.05468256      0.12436043     -0.29606974
H       0.83486639     -1.44964842     -0.14727810
H       0.32454024     -0.00113521     -2.77570448
H       1.15161082     -1.50933942     -2.59604741
H      -0.82389671     -1.69795534     -4.03151930
11
Frame 200  Energy = -268.3118039307 Hartree
C       0.77559956     -0.47262830     -0.65427631
C       0.41310798     -0.85120239     -2.12099504
C      -0.93508498     -1.57589806     -2.06993938
O      -1.52706476     -1.83500505     -1.06897645
O      -1.45518873     -1.82240830     -3.28780755
H       1.70860259      0.02561988     -0.57883930
H      -0.05667225      0.13306021     -0.29385714
H       0.83860834     -1.46228882     -0.14955974
H       0.32311529      0.00705158     -2.78077941
H       1.15917865     -1.51538212     -2.58828366
H      -0.82895294     -1.70434122     -4.02696428
11
Frame 205  Energy = -268.3117883763 Hartree
C       0.77688503     -0.47025042     -0.65417642
C       0.41017983     -0.85168492     -2.12132503
C      -0.93287553     -1.57609003     -2.06849117
O      -1.52678436     -1.83474349     -1.06957689
O      -1.45803334     -1.82279278     -3.28813780
H       1.71697318      0.01994868     -0.58646788
H      -0.05794253      0.14150130     -0.29031034
H       0.84174328     -1.47266716     -0.15091665
H       0.32129080      0.01596845     -2.78614744
H       1.16684129     -1.52136621     -2.58023204
H      -0.83388333     -1.71005474     -4.02114024
11
Frame 210  Energy = -268.3119531673 Hartree
C       0.77793112     -0.46817665     -0.65426796
C       0.40742061     -0.85213953     -2.12144484
C      -0.93039036     -1.57610297     -2.06738447
O      -1.52657010     -1.83453017     -1.07008999
O      -1.46104100     -1.82329844     -3.28846624
H       1.72762752      0.01611346     -0.59406386
H      -0.05845895      0.14925974     -0.28578031
H       0.84464195     -1.47990075     -0.15165274
H       0.31903066      0.02527482     -2.79163330
H       1.17398379     -1.52668415     -2.57172519
H      -0.83836027     -1.71487485     -4.01494797
11
Frame 215  Energy = -268.3120314062 Hartree
C       0.77882875     -0.46647175     -0.65458503
C       0.40484031     -0.85263032     -2.12150093
C      -0.92759024     -1.57598091     -2.06669282
O      -1.52637125     -1.83436953     -1.07044696
O      -1.46420630     -1.82392204     -3.28869910
H       1.73992688      0.01406685     -0.60154232
H      -0.05788558      0.15577788     -0.28036101
H       0.84678853     -1.48364722     -0.15207437
H       0.31681510      0.03417765     -2.79607213
H       1.18018549     -1.53101113     -2.56273942
H      -0.84168091     -1.71911108     -4.00912068
11
Frame 220  Energy = -268.3121488552 Hartree
C       0.77960738     -0.46516288     -0.65519698
C       0.40240665     -0.85307065     -2.12138413
C      -0.92465303     -1.57565823     -2.06618514
O      -1.52618760     -1.83420429     -1.07074674
O      -1.46748806     -1.82465040     -3.28880611
H       1.75323786      0.01320625     -0.60866182
H      -0.05553811      0.16105184     -0.27408543
H       0.84822844     -1.48391140     -0.15245935
H       0.31466735      0.04192288     -2.79896354
H       1.18548043     -1.53395061     -2.55330924
H      -0.84326394     -1.72275035     -4.00395974
11
Frame 225  Energy = -268.3121288513 Hartree
C       0.78031693     -0.46418290     -0.65603208
C       0.40022929     -0.85341586     -2.12113867
C      -0.92161429     -1.57511698     -2.06589808
O      -1.52603968     -1.83400226     -1.07090963
O      -1.47088507     -1.82547497     -3.28877425
H       1.76652698      0.01312347     -0.61580431
H      -0.05131204      0.16515289     -0.26710230
H       0.84938078     -1.48044005     -0.15267333
H       0.31273606      0.04800668     -2.80045074
H       1.18941551     -1.53571650     -2.54357667
H      -0.84291415     -1.72538167     -3.99981593
11
Frame 230  Energy = -268.3123355793 Hartree
C       0.78105475     -0.46346007     -0.65704955
C       0.39830603     -0.85361743     -2.12076489
C      -0.91859466     -1.57445410     -2.06599581
O      -1.52602656     -1.83376135     -1.07095527
O      -1.47442462     -1.82642153     -3.28857955
H       1.77906944      0.01353448     -0.62285176
H      -0.04512973      0.16826689     -0.25941495
H       0.85001832     -1.47328008     -0.15258044
H       0.31112188      0.05203485     -2.80061888
H       1.19192408     -1.53597922     -2.53358901
H      -0.84115585     -1.72741886     -3.99730009
11
Frame 235  Energy = -268.3122091336 Hartree
C       0.78181025     -0.46297703     -0.65827110
C       0.39660639     -0.85370622     -2.12029123
C      -0.91558729     -1.57373527     -2.06646252
O      -1.52605466     -1.83353623     -1.07090355
O      -1.47797603     -1.82734587     -3.28830760
H       1.79044061      0.01396152     -0.62946862
H      -0.03696876      0.17015403     -0.25134405
H       0.85003469     -1.46275517     -0.15260908
H       0.30977334      0.05369213     -2.79904559
H       1.19300043     -1.53480777     -2.52308062
H      -0.83766218     -1.72879023     -3.99583563
11
Frame 240  Energy = -268.3121666205 Hartree
C       0.78259796     -0.46271348     -0.65975709
C       0.39517707     -0.85361885     -2.11981570
C      -0.91265088     -1.57291872     -2.06727415
O      -1.52611846     -1.83335912     -1.07083744
O      -1.48165754     -1.82828153     -3.28789023
H       1.80002630      0.01433924     -0.63564864
H      -0.02667925      0.17103359     -0.24313974
H       0.84964925     -1.44935874     -0.15230175
H       0.30874692      0.05277202     -2.79583669
H       1.19252422     -1.53255791     -2.51250363
H      -0.83291572     -1.72949189     -3.99556518
11
Frame 245  Energy = -268.3119043912 Hartree
C       0.78351328     -0.46251121     -0.66136657
C       0.39404573     -0.85339414     -2.11932057
C      -0.90985461     -1.57203996     -2.06840936
O      -1.52624518     -1.83323386     -1.07081191
O      -1.48536923     -1.82931538     -3.28736095
H       1.80731267      0.01426233     -0.64192133
H      -0.01439796      0.17124895     -0.23465300
H       0.84898763     -1.43416232     -0.15129356
H       0.30811657      0.04964679     -2.79082284
H       1.19092224     -1.52927326     -2.50180771
H      -0.82741219     -1.72973103     -3.99608329
11
Frame 250  Energy = -268.3120140255 Hartree
C       0.78455733     -0.46238586     -0.66314521
C       0.39305852     -0.85302399     -2.11873663
C      -0.90735388     -1.57114774     -2.06977071
O      -1.52627185     -1.83323089     -1.07073639
O      -1.48904749     -1.83037615     -3.28682509
H       1.81178740      0.01376335     -0.64818171
H      -0.00043200      0.17119971     -0.22558648
H       0.84817634     -1.41778233     -0.14934610
H       0.30778565      0.04475829     -2.78443163
H       1.18818630     -1.52517159     -2.49112027
H      -0.82188834     -1.72957072     -3.99656931
11
Frame 255  Energy = -268.3123614777 Hartree
C       0.78575319     -0.46228136     -0.66513157
C       0.39228624     -0.85250380     -2.11802148
C      -0.90521133     -1.57035848     -2.07125401
O      -1.52624282     -1.83332443     -1.07064180
O      -1.49263508     -1.83136180     -3.28622761
H       1.81314405      0.01255565     -0.65433422
H       0.01478222      0.17099380     -0.21623262
H       0.84687928     -1.40179320     -0.14625734
H       0.30792030      0.03827259     -2.77750999
H       1.18490741     -1.52045938     -2.48130086
H      -0.81692066     -1.72904496     -3.99653872
11
Frame 260  Energy = -268.3122057752 Hartree
C       0.78708620     -0.46213005     -0.66740382
C       0.39178674     -0.85184840     -2.11705805
C      -0.90346543     -1.56958544     -2.07293788
O      -1.52613698     -1.83345876     -1.07053387
O      -1.49611366     -1.83242169     -3.28562950
H       1.81151168      0.01063429     -0.66025681
H       0.03060067      0.17077995     -0.20656949
H       0.84562009     -1.38701351     -0.14122500
H       0.30815183      0.03053385     -2.77028717
H       1.18181845     -1.51542598     -2.47262880
H      -0.81262073     -1.72841108     -3.99584373
11
Frame 265  Energy = -268.3122890731 Hartree
C       0.78870890     -0.46180372     -0.66996625
C       0.39148108     -0.85098939     -2.11591207
C      -0.90202873     -1.56879149     -2.07481354
O      -1.52596556     -1.83367390     -1.07045717
O      -1.49938272     -1.83354073     -3.28504029
H       1.80733244      0.00809573     -0.66604445
H       0.04644574      0.17068188     -0.19655751
H       0.84449310     -1.37391145     -0.13423938
H       0.30858135      0.02220688     -2.76330053
H       1.17879750     -1.51052987     -2.46515075
H      -0.80982924     -1.72792911     -3.99382511
11
Frame 270  Energy = -268.3123113663 Hartree
C       0.79059747     -0.46128569     -0.67274516
C       0.39133257     -0.85001052     -2.11434776
C      -0.90098630     -1.56803758     -2.07675932
O      -1.52580779     -1.83398692     -1.07048562
O      -1.50249031     -1.83467322     -3.28447584
H       1.80117347      0.00529663     -0.67200661
H       0.06197742      0.17137282     -0.18631855
H       0.84396933     -1.36320793     -0.12512648
H       0.30951852      0.01378574     -2.75732135
H       1.17622212     -1.50620756     -2.45932154
H      -0.80897412     -1.72749761     -3.99054601
11
Frame 275  Energy = -268.3121624308 Hartree
C       0.79257009     -0.46060226     -0.67575619
C       0.39136082     -0.84897238     -2.11239893
C      -0.90039449     -1.56734109     -2.07865932
O      -1.52569381     -1.83427862     -1.07065234
O      -1.50534117     -1.83572326     -3.28395670
H       1.79343378      0.00224485     -0.67798674
H       0.07708004      0.17354929     -0.17586579
H       0.84409148     -1.35515723     -0.11347680
H       0.31047146      0.00619063     -2.75239812
H       1.17429849     -1.50271626     -2.45487520
H      -0.81040575     -1.72712408     -3.98583373
11
Frame 280  Energy = -268.3121877325 Hartree
C       0.79465603     -0.45990916     -0.67899655
C       0.39146917     -0.84788663     -2.11013792
C      -0.90024292     -1.56673146     -2.08050008
O      -1.52547505     -1.83457441     -1.07092833
O      -1.50799737     -1.83677391     -3.28343120
H       1.78474521     -0.00086666     -0.68355914
H       0.09170092      0.17703445     -0.16499288
H       0.84445427     -1.34958860     -0.10005902
H       0.31147760      0.00011730     -2.74859999
H       1.17316174     -1.50033036     -2.45193096
H      -0.81378882     -1.72722477     -3.97984621
11
Frame 285  Energy = -268.3122715405 Hartree
C       0.79682674     -0.45922715     -0.68246548
C       0.39165813     -0.84694300     -2.10755201
C      -0.90066483     -1.56621252     -2.08231072
O      -1.52518270     -1.83486180     -1.07134042
O      -1.51050005     -1.83782969     -3.28300029
H       1.77606171     -0.00411625     -0.68859246
H       0.10553320      0.18150489     -0.15439184
H       0.84538509     -1.34645440     -0.08530932
H       0.31271229     -0.00383876     -2.74634187
H       1.17302800     -1.49905826     -2.45062387
H      -0.81892002     -1.72738691     -3.97330985
11
Frame 290  Energy = -268.3123071603 Hartree
C       0.79906084     -0.45855804     -0.68612507
C       0.39191650     -0.84607840     -2.10471565
C      -0.90160673     -1.56584629     -2.08401455
O      -1.52484645     -1.83514695     -1.07185024
O      -1.51275818     -1.83886460     -3.28264504
H       1.76856322     -0.00688918     -0.69376024
H       0.11829830      0.18657685     -0.14381958
H       0.84668087     -1.34540580     -0.06985346
H       0.31437573     -0.00529366     -2.74610798
H       1.17403324     -1.49876946     -2.45076853
H      -0.82534639     -1.72760982     -3.96667143
11
Frame 295  Energy = -268.3123328808 Hartree
C       0.80123059     -0.45800514     -0.68976752
C       0.39218339     -0.84515600     -2.10160360
C      -0.90309848     -1.56564609     -2.08558719
O      -1.52449358     -1.83548689     -1.07251037
O      -1.51480554     -1.83994722     -3.28222345
H       1.76307058     -0.00869713     -0.69903537
H       0.12985881      0.19276144     -0.13383173
H       0.84841157     -1.34534145     -0.05398267
H       0.31606624     -0.00425212     -2.74781907
H       1.17581725     -1.49960597     -2.45228309
H      -0.83269457     -1.72760433     -3.96043940
11
Frame 300  Energy = -268.3123680769 Hartree
C       0.80328703     -0.45756554     -0.69327377
C       0.39256151     -0.84421737     -2.09832302
C      -0.90509676     -1.56562630     -2.08704614
O      -1.52414626     -1.83582752     -1.07334913
O      -1.51676351     -1.84104713     -3.28172770
H       1.76003541     -0.00916613     -0.70444978
H       0.14020505      0.19945162     -0.12487157
H       0.85051326     -1.34557578     -0.03872790
H       0.31783339     -0.00098222     -2.75160223
H       1.17836045     -1.50139942     -2.45498731
H      -0.84029845     -1.72742932     -3.95533158
