7
Frame 5  Energy = -245.1599161666 Hartree
C      -0.52762859     -0.75209038      0.58608997
N      -1.83446685     -0.97534263     -0.01541341
O      -2.41287219     -2.06070600      0.20615209
O      -2.30766488     -0.07362274     -0.74307364
H       0.23890947     -1.12489389     -0.10207165
H      -0.47483306     -1.30121651      1.52702982
H      -0.39282553      0.33158691      0.77584149
7
Frame 10  Energy = -245.1596056227 Hartree
C      -0.53012239     -0.74899169      0.58533707
N      -1.83652998     -0.97777464     -0.01504745
O      -2.41253741     -2.06216744      0.20427096
O      -2.30617339     -0.07346104     -0.74195707
H       0.24299815     -1.13031254     -0.09679086
H      -0.46321035     -1.29315743      1.52647581
H      -0.38073179      0.34615002      0.78556975
7
Frame 15  Energy = -245.1595712207 Hartree
C      -0.53242392     -0.74562623      0.58474346
N      -1.83910733     -0.98023812     -0.01492292
O      -2.41208705     -2.06329029      0.20223745
O      -2.30449669     -0.07350850     -0.74069449
H       0.24581636     -1.13511295     -0.09104453
H      -0.45200231     -1.28567270      1.52536082
H      -0.36929219      0.35807555      0.79403138
7
Frame 20  Energy = -245.1595149113 Hartree
C      -0.53446916     -0.74199811      0.58425562
N      -1.84210782     -0.98278510     -0.01502972
O      -2.41147966     -2.06416089      0.20019585
O      -2.30267834     -0.07384790     -0.73914976
H       0.24759672     -1.13926945     -0.08474830
H      -0.44171804     -1.27858788      1.52402247
H      -0.35873337      0.36686628      0.80096691
7
Frame 25  Energy = -245.1597375300 Hartree
C      -0.53618821     -0.73820688      0.58385834
N      -1.84547110     -0.98528865     -0.01526841
O      -2.41071595     -2.06481186      0.19811323
O      -2.30079300     -0.07445902     -0.73734779
H       0.24794255     -1.14277227     -0.07815996
H      -0.43205727     -1.27180633      1.52240010
H      -0.34945662      0.37165099      0.80607209
7
Frame 30  Energy = -245.1596543381 Hartree
C      -0.53756334     -0.73424633      0.58361798
N      -1.84919819     -0.98772218     -0.01569710
O      -2.40982887     -2.06524686      0.19608897
O      -2.29873823     -0.07530837     -0.73528132
H       0.24711612     -1.14528844     -0.07171489
H      -0.42318895     -1.26559801      1.52029363
H      -0.34158115      0.37213572      0.80936408
7
Frame 35  Energy = -245.1596363880 Hartree
C      -0.53851958     -0.73010236      0.58356631
N      -1.85326899     -0.99007546     -0.01627083
O      -2.40885482     -2.06555396      0.19400863
O      -2.29659175     -0.07636931     -0.73305227
H       0.24520591     -1.14682350     -0.06517727
H      -0.41505897     -1.26000879      1.51774978
H      -0.33514202      0.36847478      0.81069999
7
Frame 40  Energy = -245.1595723079 Hartree
C      -0.53913985     -0.72576249      0.58372805
N      -1.85759328     -0.99231200     -0.01701713
O      -2.40773056     -2.06573450      0.19191570
O      -2.29442491     -0.07764282     -0.73064233
H       0.24197534     -1.14752674     -0.05888181
H      -0.40808405     -1.25521425      1.51522982
H      -0.33021258      0.36089216      0.81019256
7
Frame 45  Energy = -245.1596790119 Hartree
C      -0.53940262     -0.72130905      0.58416203
N      -1.86207405     -0.99444291     -0.01790810
O      -2.40647192     -2.06577673      0.18979788
O      -2.29220499     -0.07915122     -0.72821777
H       0.23780290     -1.14739499     -0.05330321
H      -0.40200145     -1.25125936      1.51298888
H      -0.32725361      0.35041669      0.80759308
7
Frame 50  Energy = -245.1598982870 Hartree
C      -0.53940710     -0.71681721      0.58486385
N      -1.86657261     -0.99644540     -0.01882807
O      -2.40515297     -2.06568135      0.18765792
O      -2.29002282     -0.08084830     -0.72573556
H       0.23297274     -1.14663514     -0.04857989
H      -0.39727784     -1.24835461      1.51139238
H      -0.32615562      0.33817439      0.80319955
7
Frame 55  Energy = -245.1599826442 Hartree
C      -0.53918717     -0.71239864      0.58572739
N      -1.87101512     -0.99826877     -0.01973254
O      -2.40370941     -2.06563246      0.18550524
O      -2.28784937     -0.08278285     -0.72319387
H       0.22720015     -1.14535019     -0.04513520
H      -0.39408399     -1.24646742      1.51084626
H      -0.32659714      0.32512541      0.79745587
7
Frame 60  Energy = -245.1597849629 Hartree
C      -0.53876238     -0.70808906      0.58661389
N      -1.87540692     -0.99973595     -0.02058484
O      -2.40220324     -2.06561720      0.18337800
O      -2.28576734     -0.08486360     -0.72058660
H       0.22093564     -1.14368984     -0.04286431
H      -0.39212592     -1.24544375      1.51082258
H      -0.32819200      0.31256962      0.79051929
7
Frame 65  Energy = -245.1597830895 Hartree
C      -0.53823212     -0.70406543      0.58766625
N      -1.87967448     -1.00086394     -0.02136022
O      -2.40060327     -2.06565712      0.18118684
O      -2.28375276     -0.08706652     -0.71795192
H       0.21467994     -1.14163216     -0.04221797
H      -0.39180523     -1.24505518      1.51153668
H      -0.33079020      0.30204186      0.78257533
7
Frame 70  Energy = -245.1599872159 Hartree
C      -0.53763283     -0.70047550      0.58882943
N      -1.88372689     -1.00166686     -0.02204816
O      -2.39894195     -2.06576085      0.17894471
O      -2.28183789     -0.08927030     -0.71535046
H       0.20837895     -1.13962116     -0.04326374
H      -0.39297047     -1.24491596      1.51256971
H      -0.33388017      0.29514825      0.77433433
7
Frame 75  Energy = -245.1602331793 Hartree
C      -0.53695550     -0.69750552      0.59001844
N      -1.88746806     -1.00212891     -0.02271322
O      -2.39734809     -2.06595512      0.17675945
O      -2.28004949     -0.09142699     -0.71274069
H       0.20282622     -1.13747986     -0.04577673
H      -0.39528979     -1.24504259      1.51389314
H      -0.33765604      0.29309042      0.76634964
7
Frame 80  Energy = -245.1602309645 Hartree
C      -0.53645097     -0.69519720      0.59134508
N      -1.89089561     -1.00240028     -0.02331624
O      -2.39587006     -2.06629026      0.17466199
O      -2.27848893     -0.09358184     -0.71023208
H       0.19751049     -1.13531686     -0.05026183
H      -0.39879144     -1.24524115      1.51534018
H      -0.34192952      0.29645406      0.75777081
7
Frame 85  Energy = -245.1603118658 Hartree
C      -0.53601800     -0.69350833      0.59281268
N      -1.89392978     -1.00243635     -0.02373713
O      -2.39454374     -2.06675958      0.17256477
O      -2.27711547     -0.09570829     -0.70791913
H       0.19264183     -1.13320379     -0.05673597
H      -0.40372411     -1.24551593      1.51714035
H      -0.34673364      0.30513248      0.74905671
7
Frame 90  Energy = -245.1603358284 Hartree
C      -0.53557359     -0.69243977      0.59438532
N      -1.89646836     -1.00227581     -0.02396512
O      -2.39333199     -2.06738363      0.17043983
O      -2.27593525     -0.09787904     -0.70575673
H       0.18838818     -1.13107699     -0.06468382
H      -0.40968801     -1.24599664      1.51935748
H      -0.35208951      0.31890763      0.74014862
7
Frame 95  Energy = -245.1602764934 Hartree
C      -0.53507907     -0.69194687      0.59613557
N      -1.89858052     -1.00200168     -0.02404386
O      -2.39222952     -2.06823623      0.16832913
O      -2.27498647     -0.09990073     -0.70374691
H       0.18436443     -1.12890011     -0.07397638
H      -0.41681401     -1.24667926      1.52201629
H      -0.35786110      0.33672518      0.73085349
7
Frame 100  Energy = -245.1602016061 Hartree
C      -0.53465078     -0.69191279      0.59804273
N      -1.90018448     -1.00167049     -0.02403273
O      -2.39123603     -2.06925176      0.16621455
O      -2.27426999     -0.10175552     -0.70201663
H       0.18080014     -1.12699104     -0.08416329
H      -0.42466091     -1.24702854      1.52452766
H      -0.36413236      0.35725354      0.72125439
7
Frame 105  Energy = -245.1600924265 Hartree
C      -0.53430874     -0.69219677      0.59999261
N      -1.90143134     -1.00131617     -0.02380798
O      -2.39038199     -2.07047657      0.16413024
O      -2.27380528     -0.10348561     -0.70049256
H       0.17755569     -1.12506515     -0.09504343
H      -0.43315303     -1.24699683      1.52679765
H      -0.37133328      0.37885668      0.71153456
7
Frame 110  Energy = -245.1600674151 Hartree
C      -0.53391293     -0.69266665      0.60195454
N      -1.90217995     -1.00092109     -0.02327482
O      -2.38962223     -2.07182688      0.16207543
O      -2.27356587     -0.10502627     -0.69924395
H       0.17434106     -1.12267702     -0.10606178
H      -0.44255857     -1.24688340      1.52897606
H      -0.37957458      0.39985873      0.70161905
7
Frame 115  Energy = -245.1600314969 Hartree
C      -0.53349082     -0.69325468      0.60397727
N      -1.90243166     -1.00042838     -0.02239029
O      -2.38896891     -2.07322494      0.16010815
O      -2.27358841     -0.10631278     -0.69825073
H       0.17109858     -1.11966020     -0.11654658
H      -0.45263868     -1.24663677      1.53124436
H      -0.38867210      0.41890328      0.69151487
7
Frame 120  Energy = -245.1598425413 Hartree
C      -0.53312244     -0.69389676      0.60600783
N      -1.90220413     -0.99983895     -0.02123955
O      -2.38832117     -2.07469674      0.15818119
O      -2.27388471     -0.10736011     -0.69748832
H       0.16747064     -1.11614580     -0.12644035
H      -0.46326673     -1.24634190      1.53361366
H      -0.39905051      0.43481896      0.68154259
7
Frame 125  Energy = -245.1598607338 Hartree
C      -0.53276841     -0.69442176      0.60797407
N      -1.90140712     -0.99915712     -0.01986257
O      -2.38778564     -2.07626479      0.15618301
O      -2.27453305     -0.10818258     -0.69695945
H       0.16322724     -1.11207496     -0.13559475
H      -0.47406975     -1.24569900      1.53607969
H      -0.41049875      0.44635790      0.67170667
7
Frame 130  Energy = -245.1599885497 Hartree
C      -0.53235661     -0.69482207      0.60990710
N      -1.90008435     -0.99851522     -0.01820016
O      -2.38737812     -2.07795496      0.15413843
O      -2.27548042     -0.10879453     -0.69664207
H       0.15873616     -1.10738723     -0.14404537
H      -0.48430320     -1.24456449      1.53862435
H      -0.42257305      0.45281056      0.66195062
7
Frame 135  Energy = -245.1598276445 Hartree
C      -0.53206177     -0.69500017      0.61165851
N      -1.89828325     -0.99797363     -0.01630549
O      -2.38709994     -2.07976287      0.15208929
O      -2.27667408     -0.10917836     -0.69647289
H       0.15395644     -1.10227702     -0.15122414
H      -0.49398561     -1.24293842      1.54166374
H      -0.43535530      0.45403224      0.65237129
7
Frame 140  Energy = -245.1599411255 Hartree
C      -0.53183289     -0.69502563      0.61337115
N      -1.89606881     -0.99744406     -0.01422267
O      -2.38688981     -2.08171053      0.15002955
O      -2.27818450     -0.10931983     -0.69642200
H       0.14883729     -1.09649068     -0.15692277
H      -0.50279962     -1.24088428      1.54484878
H      -0.44871803      0.45014892      0.64306959
7
Frame 145  Energy = -245.1598068467 Hartree
C      -0.53174541     -0.69485767      0.61489339
N      -1.89346982     -0.99696817     -0.01194093
O      -2.38677053     -2.08367076      0.14788765
O      -2.27999935     -0.10921781     -0.69661051
H       0.14344017     -1.09029351     -0.16109477
H      -0.51069773     -1.23794972      1.54843563
H      -0.46237525      0.44172442      0.63440019
7
Frame 150  Energy = -245.1598168153 Hartree
C      -0.53180144     -0.69456087      0.61623395
N      -1.89046208     -0.99649841     -0.00949343
O      -2.38667065     -2.08561762      0.14570623
O      -2.28211065     -0.10883701     -0.69704017
H       0.13780720     -1.08348420     -0.16349740
H      -0.51763551     -1.23443611      1.55234293
H      -0.47579175      0.42914310      0.62633634
7
Frame 155  Energy = -245.1598755533 Hartree
C      -0.53207312     -0.69411361      0.61737924
N      -1.88714581     -0.99602145     -0.00686265
O      -2.38659189     -2.08748397      0.14358093
O      -2.28444207     -0.10829042     -0.69767259
H       0.13239479     -1.07639742     -0.16416951
H      -0.52320766     -1.23049985      1.55609672
H      -0.48905440      0.41325563      0.61914211
7
Frame 160  Energy = -245.1598645991 Hartree
C      -0.53253367     -0.69363874      0.61834639
N      -1.88351986     -0.99552801     -0.00412220
O      -2.38644007     -2.08933446      0.14147216
O      -2.28689973     -0.10766187     -0.69855201
H       0.12760842     -1.06942821     -0.16307467
H      -0.52745277     -1.22613777      1.55990715
H      -0.50148658      0.39524933      0.61302278
7
Frame 165  Energy = -245.1597686518 Hartree
C      -0.53322293     -0.69322610      0.61916852
N      -1.87974656     -0.99516261     -0.00134247
O      -2.38630237     -2.09114840      0.13937122
O      -2.28949335     -0.10691495     -0.69953966
H       0.12370546     -1.06275100     -0.16067396
H      -0.53058727     -1.22116806      1.56353429
H      -0.51292344      0.37629564      0.60790102
7
Frame 170  Energy = -245.1598571237 Hartree
C      -0.53408738     -0.69295559      0.61976411
N      -1.87579351     -0.99502424      0.00137631
O      -2.38612177     -2.09283688      0.13737181
O      -2.29225712     -0.10605249     -0.70058342
H       0.12124389     -1.05683140     -0.15716724
H      -0.53253820     -1.21602507      1.56720374
H      -0.52339134      0.35831275      0.60401272
7
Frame 175  Energy = -245.1598082625 Hartree
C      -0.53521276     -0.69296538      0.62022176
N      -1.87180205     -0.99502370      0.00404616
O      -2.38593267     -2.09434205      0.13539172
O      -2.29518244     -0.10509119     -0.70163615
H       0.12014593     -1.05186353     -0.15278644
H      -0.53332852     -1.21042191      1.57098327
H      -0.53316275      0.34305287      0.60159792
7
Frame 180  Energy = -245.1595181936 Hartree
C      -0.53668391     -0.69325578      0.62056784
N      -1.86777503     -0.99508987      0.00661927
O      -2.38565934     -2.09577947      0.13343092
O      -2.29820370     -0.10407468     -0.70266130
H       0.12088770     -1.04755212     -0.14784124
H      -0.53318933     -1.20443442      1.57474635
H      -0.54203567      0.33242616      0.60045599
7
Frame 185  Energy = -245.1595270892 Hartree
C      -0.53846266     -0.69392655      0.62084033
N      -1.86377850     -0.99522377      0.00901849
O      -2.38537048     -2.09713051      0.13150915
O      -2.30125105     -0.10304664     -0.70370131
H       0.12339046     -1.04429245     -0.14215124
H      -0.53190442     -1.19836301      1.57827417
H      -0.55020116      0.32673623      0.60106491
7
Frame 190  Energy = -245.1596563588 Hartree
C      -0.54048629     -0.69510169      0.62104986
N      -1.86001119     -0.99533698      0.01113379
O      -2.38502296     -2.09830805      0.12958717
O      -2.30430557     -0.10211606     -0.70470918
H       0.12788413     -1.04212039     -0.13620865
H      -0.52942045     -1.19204023      1.58127156
H      -0.55702511      0.32701494      0.60339061
7
Frame 195  Energy = -245.1597010910 Hartree
C      -0.54285731     -0.69673168      0.62113888
N      -1.85646704     -0.99548463      0.01292447
O      -2.38463667     -2.09936451      0.12773905
O      -2.30737438     -0.10127182     -0.70568341
H       0.13437249     -1.04097502     -0.13005826
H      -0.52576047     -1.18551401      1.58433375
H      -0.56244760      0.33316103      0.60719404
7
Frame 200  Energy = -245.1598305231 Hartree
C      -0.54549022     -0.69874864      0.62126773
N      -1.85326449     -0.99561949      0.01443208
O      -2.38412717     -2.10028285      0.12601303
O      -2.31037142     -0.10055561     -0.70655132
H       0.14242667     -1.04089835     -0.12396313
H      -0.52130622     -1.17897977      1.58762053
H      -0.56638205      0.34418192      0.61233011
7
Frame 205  Energy = -245.1598241291 Hartree
C      -0.54842702     -0.70100317      0.62143588
N      -1.85043645     -0.99582430      0.01565677
O      -2.38345498     -2.10103544      0.12439773
O      -2.31326468     -0.09989579     -0.70730039
H       0.15189856     -1.04164915     -0.11788340
H      -0.51620034     -1.17226640      1.59098803
H      -0.56894922      0.35876292      0.61862913
7
Frame 210  Energy = -245.1599260486 Hartree
C      -0.55152620     -0.70329380      0.62163422
N      -1.84803880     -0.99607230      0.01650224
O      -2.38265954     -2.10154779      0.12288453
O      -2.31604762     -0.09931223     -0.70795846
H       0.16276767     -1.04282714     -0.11146403
H      -0.51042712     -1.16631325      1.59445132
H      -0.57032652      0.37549964      0.62595812
7
Frame 215  Energy = -245.1600679698 Hartree
C      -0.55467265     -0.70552239      0.62180988
N      -1.84605257     -0.99642021      0.01700927
O      -2.38176374     -2.10187092      0.12146773
O      -2.31870142     -0.09887268     -0.70835989
H       0.17448928     -1.04448660     -0.10494606
H      -0.50410292     -1.16066775      1.59825764
H      -0.57003904      0.39283313      0.63384116
7
Frame 220  Energy = -245.1599542040 Hartree
C      -0.55786744     -0.70751442      0.62201046
N      -1.84451163     -0.99680429      0.01703404
O      -2.38079099     -2.10203642      0.12008123
O      -2.32117500     -0.09862169     -0.70844842
H       0.18638497     -1.04661464     -0.09789203
H      -0.49738640     -1.15536479      1.60202842
H      -0.56841563      0.40890059      0.64263875
7
Frame 225  Energy = -245.1597523313 Hartree
C      -0.56103263     -0.70914914      0.62221208
N      -1.84339238     -0.99721174      0.01659621
O      -2.37959727     -2.10206091      0.11869978
O      -2.32345351     -0.09845586     -0.70825308
H       0.19846475     -1.04906370     -0.08991160
H      -0.49017864     -1.15013038      1.60542083
H      -0.56552843      0.42265661      0.65237433
7
Frame 230  Energy = -245.1599282889 Hartree
C      -0.56415636     -0.71027476      0.62236508
N      -1.84289923     -0.99766347      0.01578483
O      -2.37820596     -2.10187700      0.11738453
O      -2.32558522     -0.09846503     -0.70783276
H       0.21020752     -1.05155744     -0.08058518
H      -0.48270508     -1.14551552      1.60877070
H      -0.56146573      0.43305759      0.66284662
7
Frame 235  Energy = -245.1599561076 Hartree
C      -0.56703587     -0.71097734      0.62252221
N      -1.84301641     -0.99818923      0.01453570
O      -2.37663562     -2.10155674      0.11622823
O      -2.32755468     -0.09873354     -0.70714088
H       0.22111026     -1.05440474     -0.07023543
H      -0.47543414     -1.14162943      1.61205978
H      -0.55621733      0.43916348      0.67341881
7
Frame 240  Energy = -245.1600161230 Hartree
C      -0.56979132     -0.71119572      0.62279092
N      -1.84359156     -0.99871039      0.01279841
O      -2.37491592     -2.10108884      0.11514003
O      -2.32932688     -0.09922187     -0.70633227
H       0.23057995     -1.05694653     -0.05854283
H      -0.46846822     -1.13834476      1.61529093
H      -0.55021242      0.44032793      0.68374223
7
Frame 245  Energy = -245.1600940028 Hartree
C      -0.57230508     -0.71089710      0.62319535
N      -1.84462999     -0.99929202      0.01065051
O      -2.37300028     -2.10046018      0.11412590
O      -2.33097770     -0.09986327     -0.70540182
H       0.23877826     -1.05893791     -0.04574201
H      -0.46189604     -1.13577235      1.61781198
H      -0.54339540      0.43660111      0.69397426
7
Frame 250  Energy = -245.1600090519 Hartree
C      -0.57453179     -0.71009733      0.62367699
N      -1.84611338     -0.99997865      0.00808788
O      -2.37096415     -2.09973875      0.11320287
O      -2.33255757     -0.10066689     -0.70438570
H       0.24569208     -1.06056192     -0.03202934
H      -0.45570910     -1.13386329      1.61922696
H      -0.53601150      0.42860296      0.70396416
7
Frame 255  Energy = -245.1602437782 Hartree
C      -0.57642354     -0.70878404      0.62435562
N      -1.84793756     -1.00063866      0.00519311
O      -2.36875781     -2.09897612      0.11237809
O      -2.33400102     -0.10164991     -0.70318706
H       0.25092684     -1.06160113     -0.01787397
H      -0.45031725     -1.13247190      1.61962368
H      -0.52818085      0.41649192      0.71383528
7
Frame 260  Energy = -245.1599895349 Hartree
C      -0.57797654     -0.70708824      0.62517284
N      -1.85008480     -1.00120734      0.00194212
O      -2.36637471     -2.09826455      0.11176426
O      -2.33531820     -0.10279439     -0.70177072
H       0.25444440     -1.06209154     -0.00321058
H      -0.44590242     -1.13199702      1.61920698
H      -0.52043177      0.40117486      0.72299797
7
Frame 265  Energy = -245.1599715278 Hartree
C      -0.57931871     -0.70506415      0.62615466
N      -1.85264376     -1.00178215     -0.00167715
O      -2.36391075     -2.09755963      0.11132377
O      -2.33655896     -0.10406981     -0.70017319
H       0.25649605     -1.06208885      0.01162836
H      -0.44291028     -1.13181016      1.61787114
H      -0.51257712      0.38341661      0.73127324
7
Frame 270  Energy = -245.1598141899 Hartree
C      -0.58040212     -0.70278460      0.62729746
N      -1.85552470     -1.00233873     -0.00561261
O      -2.36137376     -2.09675366      0.11086988
O      -2.33762194     -0.10548282     -0.69843973
H       0.25715832     -1.06213540      0.02621760
H      -0.44137622     -1.13217011      1.61614253
H      -0.50443548      0.36498161      0.73910605
7
Frame 275  Energy = -245.1597766548 Hartree
C      -0.58124716     -0.70046328      0.62860680
N      -1.85863578     -1.00285703     -0.00979574
O      -2.35881876     -2.09598545      0.11043940
O      -2.33857773     -0.10694023     -0.69658297
H       0.25657435     -1.06240143      0.04030199
H      -0.44119207     -1.13326689      1.61406056
H      -0.49648405      0.34697373      0.74646017
7
Frame 280  Energy = -245.1599130024 Hartree
C      -0.58184822     -0.69823551      0.63011768
N      -1.86190741     -1.00326428     -0.01417616
O      -2.35629329     -2.09529180      0.11019863
O      -2.33943212     -0.10843312     -0.69468361
H       0.25549391     -1.06308704      0.05326893
H      -0.44230615     -1.13539753      1.61177890
H      -0.48860120      0.33120874      0.75330411
7
Frame 285  Energy = -245.1599097202 Hartree
C      -0.58225501     -0.69619942      0.63180182
N      -1.86513179     -1.00348262     -0.01866386
O      -2.35379039     -2.09472277      0.11000677
O      -2.34017796     -0.11000587     -0.69266261
H       0.25398366     -1.06398995      0.06471586
H      -0.44513732     -1.13868711      1.60976963
H      -0.48103447      0.31904746      0.75956526
7
Frame 290  Energy = -245.1600397695 Hartree
C      -0.58239275     -0.69447478      0.63370811
N      -1.86827670     -1.00358672     -0.02321731
O      -2.35127672     -2.09420948      0.10986494
O      -2.34090353     -0.11154583     -0.69065369
H       0.25198143     -1.06535069      0.07454832
H      -0.44958400     -1.14310842      1.60784423
H      -0.47364228      0.31253287      0.76557562
7
Frame 295  Energy = -245.1600654766 Hartree
C      -0.58233559     -0.69311381      0.63585817
N      -1.87138822     -1.00356668     -0.02773282
O      -2.34877993     -2.09379271      0.10980163
O      -2.34162001     -0.11303307     -0.68865342
H       0.25025904     -1.06711181      0.08271402
H      -0.45603967     -1.14835361      1.60642042
H      -0.46675045      0.31230334      0.77154527
7
Frame 300  Energy = -245.1602222423 Hartree
C      -0.58220575     -0.69218945      0.63824553
N      -1.87442961     -1.00338570     -0.03210566
O      -2.34639497     -2.09357410      0.10981264
O      -2.34241122     -0.11443392     -0.68674806
H       0.24898956     -1.06940319      0.08854193
H      -0.46406000     -1.15454512      1.60550320
H      -0.46018946      0.31811600      0.77764686
