7
Frame 5  Energy = -245.1616671686 Hartree
C      -0.70355067     -0.54983032      0.80709242
N      -1.85542029     -1.01548113     -0.01793387
O      -2.19804915     -2.20069825     -0.05047257
O      -2.46567092     -0.13346076     -0.63128683
H       0.15856902     -1.03107924      0.29886542
H      -0.98116237     -0.95902016      1.81804636
H      -0.76602390      0.50729945      0.71002276
7
Frame 10  Energy = -245.1617371649 Hartree
C      -0.70720437     -0.54736744      0.80686795
N      -1.85604221     -1.01535492     -0.01880589
O      -2.19614728     -2.20022549     -0.05131578
O      -2.46622407     -0.13564950     -0.63040640
H       0.15510608     -1.03231853      0.31183906
H      -0.97932019     -0.96239108      1.81526199
H      -0.75788038      0.50292267      0.72392288
7
Frame 15  Energy = -245.1619689976 Hartree
C      -0.71096240     -0.54532736      0.80675794
N      -1.85699150     -1.01526649     -0.01986795
O      -2.19413573     -2.19952214     -0.05208818
O      -2.46671213     -0.13784180     -0.62949628
H       0.15119581     -1.03248523      0.32632485
H      -0.97530783     -0.96446213      1.81017030
H      -0.74858790      0.50053521      0.73866323
7
Frame 20  Energy = -245.1620314269 Hartree
C      -0.71480611     -0.54381308      0.80672029
N      -1.85835033     -1.01527696     -0.02110624
O      -2.19198404     -2.19868143     -0.05282798
O      -2.46714391     -0.14004346     -0.62848830
H       0.14727210     -1.03173095      0.34269280
H      -0.96921433     -0.96535600      1.80296045
H      -0.73872186      0.50111413      0.75348399
7
Frame 25  Energy = -245.1620414577 Hartree
C      -0.71884080     -0.54282590      0.80674537
N      -1.86002875     -1.01514515     -0.02247829
O      -2.18967799     -2.19767177     -0.05347175
O      -2.46747481     -0.14229970     -0.62741979
H       0.14349353     -1.03016005      0.36048983
H      -0.96150464     -0.96527854      1.79450011
H      -0.72828958      0.50460601      0.76838609
7
Frame 30  Energy = -245.1621605114 Hartree
C      -0.72305586     -0.54227138      0.80681440
N      -1.86201153     -1.01491493     -0.02395549
O      -2.18725111     -2.19655192     -0.05409973
O      -2.46769191     -0.14454900     -0.62638259
H       0.14014760     -1.02807843      0.37929248
H      -0.95245992     -0.96452636      1.78546482
H      -0.71752038      0.51091894      0.78271459
7
Frame 35  Energy = -245.1623516240 Hartree
C      -0.72733866     -0.54203928      0.80688525
N      -1.86422092     -1.01469919     -0.02552857
O      -2.18472017     -2.19528194     -0.05476734
O      -2.46793055     -0.14683739     -0.62540695
H       0.13812210     -1.02541767      0.39855391
H      -0.94250498     -0.96303253      1.77661008
H      -0.70642893      0.51916119      0.79685450
7
Frame 40  Energy = -245.1623329544 Hartree
C      -0.73172422     -0.54212670      0.80701782
N      -1.86660962     -1.01447209     -0.02718360
O      -2.18213752     -2.19391574     -0.05533615
O      -2.46819874     -0.14906069     -0.62446509
H       0.13765191     -1.02221922      0.41771693
H      -0.93225257     -0.96087111      1.76838203
H      -0.69515128      0.52848267      0.81102168
7
Frame 45  Energy = -245.1623203859 Hartree
C      -0.73612236     -0.54244776      0.80714053
N      -1.86913615     -1.01420374     -0.02890389
O      -2.17943041     -2.19264071     -0.05585495
O      -2.46851901     -0.15120141     -0.62355966
H       0.13884518     -1.01903871      0.43630145
H      -0.92212002     -0.95890711      1.76155223
H      -0.68379351      0.53816477      0.82498111
7
Frame 50  Energy = -245.1622715191 Hartree
C      -0.74058149     -0.54290551      0.80723965
N      -1.87178658     -1.01389820     -0.03070681
O      -2.17659205     -2.19140359     -0.05629019
O      -2.46894702     -0.15328157     -0.62271371
H       0.14179247     -1.01628350      0.45385868
H      -0.91249602     -0.95726210      1.75713691
H      -0.67286509      0.54755095      0.83870005
7
Frame 55  Energy = -245.1621256053 Hartree
C      -0.74504749     -0.54326502      0.80730158
N      -1.87449203     -1.01352993     -0.03245914
O      -2.17363215     -2.19014885     -0.05669531
O      -2.46941555     -0.15522167     -0.62187881
H       0.14661930     -1.01365184      0.47045773
H      -0.90345276     -0.95624473      1.75584241
H      -0.66253630      0.55568530      0.85161847
7
Frame 60  Energy = -245.1622718292 Hartree
C      -0.74944034     -0.54355882      0.80726144
N      -1.87717486     -1.01312350     -0.03422334
O      -2.17058221     -2.18887600     -0.05705015
O      -2.46991768     -0.15703612     -0.62113288
H       0.15296064     -1.01169128      0.48581541
H      -0.89529597     -0.95625247      1.75825521
H      -0.65274245      0.56172538      0.86382325
7
Frame 65  Energy = -245.1623081616 Hartree
C      -0.75365155     -0.54379889      0.80718091
N      -1.87989351     -1.01266807     -0.03583657
O      -2.16750569     -2.18763266     -0.05736545
O      -2.47053428     -0.15873905     -0.62052777
H       0.16054837     -1.01024861      0.49980917
H      -0.88856747     -0.95706861      1.76425441
H      -0.64420740      0.56546924      0.87507658
7
Frame 70  Energy = -245.1621334065 Hartree
C      -0.75774215     -0.54398963      0.80708722
N      -1.88259411     -1.01224868     -0.03730848
O      -2.16438387     -2.18649426     -0.05765958
O      -2.47130218     -0.16030875     -0.62006493
H       0.16869837     -1.00864247      0.51208662
H      -0.88297563     -0.95869875      1.77347988
H      -0.63705069      0.56666889      0.88555236
7
Frame 75  Energy = -245.1622307261 Hartree
C      -0.76161775     -0.54405548      0.80713209
N      -1.88516707     -1.01185153     -0.03877989
O      -2.16120118     -2.18544046     -0.05797716
O      -2.47223829     -0.16167836     -0.61974981
H       0.17689329     -1.00676518      0.52272601
H      -0.87866888     -0.96060210      1.78495115
H      -0.63139983      0.56493409      0.89488184
7
Frame 80  Energy = -245.1622097660 Hartree
C      -0.76518007     -0.54405619      0.80723170
N      -1.88755552     -1.01145490     -0.04010308
O      -2.15796545     -2.18455518     -0.05838628
O      -2.47323987     -0.16288896     -0.61959116
H       0.18513820     -1.00474870      0.53157486
H      -0.87579051     -0.96237125      1.79793928
H      -0.62717857      0.56038460      0.90258247
7
Frame 85  Energy = -245.1623521823 Hartree
C      -0.76843711     -0.54397520      0.80756959
N      -1.88973134     -1.01102720     -0.04121136
O      -2.15477498     -2.18387570     -0.05878662
O      -2.47448668     -0.16384153     -0.61963792
H       0.19234944     -1.00255119      0.53851496
H      -0.87421100     -0.96422086      1.81168344
H      -0.62437588      0.55318068      0.90880125
7
Frame 90  Energy = -245.1623032272 Hartree
C      -0.77129770     -0.54394937      0.80817343
N      -1.89170915     -1.01058870     -0.04211311
O      -2.15157210     -2.18335091     -0.05919444
O      -2.47592643     -0.16445872     -0.61986075
H       0.19814283     -1.00017285      0.54384527
H      -0.87409324     -0.96563089      1.82506441
H      -0.62351196      0.54391623      0.91364372
7
Frame 95  Energy = -245.1625440136 Hartree
C      -0.77376647     -0.54401216      0.80919195
N      -1.89343185     -1.01015496     -0.04279565
O      -2.14841617     -2.18308677     -0.05960319
O      -2.47751716     -0.16478250     -0.62025425
H       0.20244519     -0.99724260      0.54766673
H      -0.87580623     -0.96619711      1.83687561
H      -0.62452230      0.53332346      0.91749531
7
Frame 100  Energy = -245.1624267179 Hartree
C      -0.77579102     -0.54421389      0.81068515
N      -1.89491429     -1.00970511     -0.04325406
O      -2.14528249     -2.18300717     -0.06002759
O      -2.47929647     -0.16490212     -0.62083629
H       0.20505328     -0.99415343      0.55013897
H      -0.87890635     -0.96584006      1.84653796
H      -0.62745037      0.52184174      0.91998445
7
Frame 105  Energy = -245.1624707708 Hartree
C      -0.77737785     -0.54463604      0.81261708
N      -1.89614735     -1.00929291     -0.04349156
O      -2.14215642     -2.18307385     -0.06052270
O      -2.48146645     -0.16474452     -0.62169367
H       0.20568691     -0.99089627      0.55126687
H      -0.88332130     -0.96484424      1.85389676
H      -0.63195951      0.51073581      0.92074974
7
Frame 110  Energy = -245.1624267890 Hartree
C      -0.77857023     -0.54543806      0.81507176
N      -1.89713208     -1.00891498     -0.04352600
O      -2.13907078     -2.18336200     -0.06103466
O      -2.48385825     -0.16434223     -0.62283084
H       0.20424214     -0.98737148      0.55094400
H      -0.88906420     -0.96334829      1.85884632
H      -0.63796671      0.50071394      0.91970373
7
Frame 115  Energy = -245.1624711925 Hartree
C      -0.77942367     -0.54665225      0.81797289
N      -1.89783887     -1.00861819     -0.04329167
O      -2.13598102     -2.18382280     -0.06152891
O      -2.48642029     -0.16362285     -0.62411746
H       0.20048032     -0.98333869      0.54920077
H      -0.89577960     -0.96102738      1.86103247
H      -0.64532468      0.49240501      0.91744820
7
Frame 120  Energy = -245.1625281595 Hartree
C      -0.78001091     -0.54835449      0.82144290
N      -1.89833107     -1.00831267     -0.04280442
O      -2.13290523     -2.18450590     -0.06201007
O      -2.48906717     -0.16264341     -0.62550812
H       0.19448341     -0.97896127      0.54616383
H      -0.90354694     -0.95807241      1.86070871
H      -0.65367190      0.48683680      0.91423536
7
Frame 125  Energy = -245.1625980916 Hartree
C      -0.78038955     -0.55049853      0.82530676
N      -1.89853788     -1.00796785     -0.04203315
O      -2.12981484     -2.18534768     -0.06243317
O      -2.49183698     -0.16144866     -0.62707359
H       0.18683198     -0.97455525      0.54212811
H      -0.91231627     -0.95425570      1.85781221
H      -0.66312063      0.48483519      0.91026158
7
Frame 130  Energy = -245.1625467482 Hartree
C      -0.78049275     -0.55305902      0.82955795
N      -1.89849024     -1.00756066     -0.04106567
O      -2.12673837     -2.18639075     -0.06295710
O      -2.49476302     -0.16002617     -0.62877164
H       0.17790806     -0.97011176      0.53725032
H      -0.92204750     -0.94983931      1.85263525
H      -0.67337717      0.48667746      0.90557067
7
Frame 135  Energy = -245.1623157998 Hartree
C      -0.78044911     -0.55595584      0.83410115
N      -1.89814947     -1.00714210     -0.03981798
O      -2.12362751     -2.18758613     -0.06361862
O      -2.49787799     -0.15841624     -0.63067445
H       0.16827299     -0.96578829      0.53120836
H      -0.93230878     -0.94511720      1.84573068
H      -0.68455801      0.49197386      0.90016124
7
Frame 140  Energy = -245.1621612202 Hartree
C      -0.78032734     -0.55911231      0.83888837
N      -1.89757791     -1.00667658     -0.03843580
O      -2.12042476     -2.18900824     -0.06442100
O      -2.50109114     -0.15671092     -0.63268687
H       0.15874699     -0.96218957      0.52373874
H      -0.94343822     -0.94035021      1.83823087
H      -0.69689617      0.50003822      0.89425043
7
Frame 145  Energy = -245.1621540040 Hartree
C      -0.78018586     -0.56228321      0.84392880
N      -1.89680986     -1.00612148     -0.03703052
O      -2.11726517     -2.19061318     -0.06536144
O      -2.50434589     -0.15497722     -0.63487927
H       0.14977971     -0.95986736      0.51515002
H      -0.95518436     -0.93586937      1.83078540
H      -0.71001454      0.50975539      0.88783546
7
Frame 150  Energy = -245.1621719772 Hartree
C      -0.78005686     -0.56531716      0.84903131
N      -1.89593893     -1.00549518     -0.03562451
O      -2.11401960     -2.19240611     -0.06641452
O      -2.50767069     -0.15320593     -0.63712977
H       0.14193965     -0.95872217      0.50538734
H      -0.96740361     -0.93201128      1.82446433
H      -0.72378774      0.51981091      0.88097172
7
Frame 155  Energy = -245.1621585982 Hartree
C      -0.78005480     -0.56814357      0.85407932
N      -1.89496660     -1.00481982     -0.03421422
O      -2.11077536     -2.19428504     -0.06757636
O      -2.51101600     -0.15142297     -0.63941229
H       0.13556771     -0.95869393      0.49469877
H      -0.98013491     -0.92920004      1.81991793
H      -0.73792688      0.52901825      0.87349612
7
Frame 160  Energy = -245.1621964727 Hartree
C      -0.78008924     -0.57071719      0.85902808
N      -1.89406011     -1.00402489     -0.03273032
O      -2.10757326     -2.19619770     -0.06876854
O      -2.51432619     -0.14965539     -0.64171052
H       0.13060902     -0.95970735      0.48292780
H      -0.99347932     -0.92771538      1.81792281
H      -0.75268163      0.53670140      0.86560082
7
Frame 165  Energy = -245.1620744332 Hartree
C      -0.78018612     -0.57298885      0.86375212
N      -1.89319128     -1.00311901     -0.03122375
O      -2.10438787     -2.19818969     -0.06992430
O      -2.51760115     -0.14796910     -0.64396121
H       0.12729857     -0.96186808      0.47035668
H      -1.00740706     -0.92779836      1.81896082
H      -0.76755723      0.54230515      0.85758073
7
Frame 170  Energy = -245.1622765329 Hartree
C      -0.78019713     -0.57484057      0.86815699
N      -1.89233634     -1.00212849     -0.02973717
O      -2.10124406     -2.20011417     -0.07105533
O      -2.52080230     -0.14638310     -0.64624675
H       0.12576570     -0.96473618      0.45739693
H      -1.02174863     -0.92945970      1.82325570
H      -0.78213788      0.54574271      0.84973969
7
Frame 175  Energy = -245.1624895698 Hartree
C      -0.78021834     -0.57622549      0.87233865
N      -1.89146704     -1.00116911     -0.02829407
O      -2.09815336     -2.20199907     -0.07220346
O      -2.52390498     -0.14496974     -0.64846872
H       0.12536155     -0.96819263      0.44463863
H      -1.03611071     -0.93296045      1.83018266
H      -0.79629293      0.54624229      0.84209411
7
Frame 180  Energy = -245.1624526043 Hartree
C      -0.78034087     -0.57711750      0.87620973
N      -1.89071663     -1.00020911     -0.02695690
O      -2.09502291     -2.20376728     -0.07330128
O      -2.52689359     -0.14375525     -0.65056799
H       0.12555214     -0.97191652      0.43243151
H      -1.05036039     -0.93787102      1.83942520
H      -0.80996615      0.54351517      0.83506667
7
Frame 185  Energy = -245.1625303341 Hartree
C      -0.78055773     -0.57754208      0.87980069
N      -1.89014307     -0.99923971     -0.02569116
O      -2.09193203     -2.20542048     -0.07444496
O      -2.52973187     -0.14276395     -0.65253690
H       0.12611097     -0.97578464      0.42103127
H      -1.06380492     -0.94348494      1.85026586
H      -0.82277810      0.53778759      0.82859214
7
Frame 190  Energy = -245.1625229539 Hartree
C      -0.78088031     -0.57767203      0.88317006
N      -1.88975652     -0.99832432     -0.02454455
O      -2.08878517     -2.20695994     -0.07560011
O      -2.53241215     -0.14200391     -0.65437165
H       0.12641188     -0.97939483      0.41131116
H      -1.07632743     -0.94941930      1.86166716
H      -0.83428980      0.52960638      0.82286286
7
Frame 195  Energy = -245.1624590247 Hartree
C      -0.78137026     -0.57761187      0.88644378
N      -1.88964995     -0.99754374     -0.02350460
O      -2.08560682     -2.20828994     -0.07679171
O      -2.53484830     -0.14154554     -0.65612037
H       0.12589418     -0.98288063      0.40354635
H      -1.08707581     -0.95555226      1.87318633
H      -0.84510134      0.51946255      0.81817679
7
Frame 200  Energy = -245.1625216399 Hartree
C      -0.78202456     -0.57738416      0.88947005
N      -1.88970860     -0.99685589     -0.02261089
O      -2.08244728     -2.20945945     -0.07801245
O      -2.53714885     -0.14122872     -0.65762772
H       0.12439126     -0.98611173      0.39771862
H      -1.09599990     -0.96174829      1.88373772
H      -0.85478740      0.50831371      0.81450089
7
Frame 205  Energy = -245.1624426197 Hartree
C      -0.78283728     -0.57718355      0.89232434
N      -1.89004950     -0.99623506     -0.02187042
O      -2.07926083     -2.21043974     -0.07923074
O      -2.53928461     -0.14113152     -0.65897243
H       0.12157254     -0.98826363      0.39387541
H      -1.10277288     -0.96742468      1.89237151
H      -0.86305249      0.49663123      0.81215365
7
Frame 210  Energy = -245.1625426733 Hartree
C      -0.78379274     -0.57705529      0.89502660
N      -1.89069662     -0.99564431     -0.02128946
O      -2.07609635     -2.21128044     -0.08049228
O      -2.54119546     -0.14118055     -0.66011252
H       0.11742347     -0.98943096      0.39207936
H      -1.10735814     -0.97258185      1.89874505
H      -0.86965865      0.48567901      0.81089136
7
Frame 215  Energy = -245.1626582362 Hartree
C      -0.78491168     -0.57707733      0.89759494
N      -1.89171795     -0.99510224     -0.02099247
O      -2.07300703     -2.21193849     -0.08176253
O      -2.54286724     -0.14141688     -0.66100768
H       0.11206582     -0.98991384      0.39234301
H      -1.10954346     -0.97689857      1.90231504
H      -0.87452447      0.47630308      0.81099409
7
Frame 220  Energy = -245.1626803771 Hartree
C      -0.78618760     -0.57721065      0.90018498
N      -1.89296001     -0.99477272     -0.02091005
O      -2.06987465     -2.21236459     -0.08305117
O      -2.54428361     -0.14185481     -0.66175259
H       0.10524016     -0.98973443      0.39527830
H      -1.10906539     -0.98061913      1.90298572
H      -0.87774184      0.46942862      0.81225694
7
Frame 225  Energy = -245.1627416809 Hartree
C      -0.78777712     -0.57751813      0.90266934
N      -1.89439269     -0.99451117     -0.02105987
O      -2.06671065     -2.21257213     -0.08439100
O      -2.54543727     -0.14260123     -0.66230777
H       0.09787539     -0.98850611      0.40071258
H      -1.10623318     -0.98345603      1.90085273
H      -0.87939205      0.46586888      0.81468407
7
Frame 230  Energy = -245.1628844377 Hartree
C      -0.78971532     -0.57798473      0.90509533
N      -1.89605967     -0.99442573     -0.02143340
O      -2.06364956     -2.21257237     -0.08577939
O      -2.54639398     -0.14374611     -0.66260985
H       0.09044635     -0.98681562      0.40838399
H      -1.10151032     -0.98532441      1.89640855
H      -0.87965500      0.46587698      0.81835896
7
Frame 235  Energy = -245.1628561117 Hartree
C      -0.79204425     -0.57865070      0.90750158
N      -1.89796316     -0.99449784     -0.02199206
O      -2.06066785     -2.21230997     -0.08704984
O      -2.54721521     -0.14512852     -0.66275096
H       0.08324957     -0.98484291      0.41787526
H      -1.09532198     -0.98639743      1.89002838
H      -0.87821326      0.46906952      0.82332638
7
Frame 240  Energy = -245.1628915866 Hartree
C      -0.79475683     -0.57935148      0.90979631
N      -1.90005501     -0.99480986     -0.02271616
O      -2.05771359     -2.21180351     -0.08819724
O      -2.54780116     -0.14678421     -0.66263855
H       0.07646227     -0.98255532      0.42857646
H      -1.08737756     -0.98691230      1.88191632
H      -0.87524759      0.47529165      0.82961266
7
Frame 245  Energy = -245.1629555200 Hartree
C      -0.79771377     -0.58002506      0.91187122
N      -1.90223464     -0.99530859     -0.02356053
O      -2.05486960     -2.21116487     -0.08938744
O      -2.54823662     -0.14864343     -0.66231112
H       0.07050282     -0.98028534      0.44023711
H      -1.07814725     -0.98752865      1.87302716
H      -0.87069075      0.48411018      0.83726743
7
Frame 250  Energy = -245.1628403280 Hartree
C      -0.80109172     -0.58064124      0.91376603
N      -1.90454022     -0.99597726     -0.02463484
O      -2.05217576     -2.21035669     -0.09060588
O      -2.54857350     -0.15065171     -0.66172974
H       0.06613702     -0.97877874      0.45254007
H      -1.06801140     -0.98829240      1.86437439
H      -0.86477920      0.49460099      0.84609324
7
Frame 255  Energy = -245.1624939688 Hartree
C      -0.80492098     -0.58100428      0.91538279
N      -1.90699514     -0.99680000     -0.02595717
O      -2.04949177     -2.20941623     -0.09187165
O      -2.54879852     -0.15290663     -0.66099728
H       0.06410210     -0.97803580      0.46496440
H      -1.05722895     -0.98922193      1.85664325
H      -0.85713256      0.50568673      0.85599405
7
Frame 260  Energy = -245.1623250749 Hartree
C      -0.80908121     -0.58097334      0.91667126
N      -1.90959449     -0.99766900     -0.02738715
O      -2.04677352     -2.20832961     -0.09317647
O      -2.54888898     -0.15547075     -0.66014446
H       0.06450995     -0.97798617      0.47754305
H      -1.04592366     -0.99070409      1.85082662
H      -0.84816136      0.51636132      0.86687576
7
Frame 265  Energy = -245.1625773907 Hartree
C      -0.81347712     -0.58053688      0.91761415
N      -1.91221820     -0.99851155     -0.02883844
O      -2.04406369     -2.20717271     -0.09449427
O      -2.54882658     -0.15823363     -0.65915056
H       0.06734611     -0.97900210      0.48953529
H      -1.03497041     -0.99309261      1.84802085
H      -0.83832744      0.52568828      0.87884120
7
Frame 270  Energy = -245.1624370365 Hartree
C      -0.81804250     -0.57968852      0.91810007
N      -1.91479586     -0.99930425     -0.03033492
O      -2.04147355     -2.20581854     -0.09585731
O      -2.54859868     -0.16110063     -0.65795245
H       0.07298117     -0.98096305      0.50133319
H      -1.02480203     -0.99631547      1.84877637
H      -0.82750304      0.53273137      0.89177478
7
Frame 275  Energy = -245.1624528691 Hartree
C      -0.82270414     -0.57839754      0.91809612
N      -1.91728527     -1.00004602     -0.03180327
O      -2.03896487     -2.20436264     -0.09734667
O      -2.54832417     -0.16407506     -0.65662841
H       0.08016057     -0.98367259      0.51303416
H      -1.01551417     -1.00044488      1.85264794
H      -0.81558246      0.53740019      0.90548526
7
Frame 280  Energy = -245.1625300787 Hartree
C      -0.82740091     -0.57655667      0.91765177
N      -1.91962849     -1.00074278     -0.03322500
O      -2.03651049     -2.20288753     -0.09895470
O      -2.54805099     -0.16708040     -0.65528134
H       0.08860057     -0.98688828      0.52449072
H      -1.00736207     -1.00573562      1.85968286
H      -0.80314444      0.53974973      0.91958762
7
Frame 285  Energy = -245.1625382181 Hartree
C      -0.83208714     -0.57427484      0.91689959
N      -1.92173565     -1.00141334     -0.03454917
O      -2.03415202     -2.20139998     -0.10063329
O      -2.54773375     -0.17019386     -0.65391931
H       0.09753332     -0.99005360      0.53589069
H      -1.00034499     -1.01188396      1.86885117
H      -0.79053615      0.53917092      0.93410460
7
Frame 290  Energy = -245.1624176714 Hartree
C      -0.83673262     -0.57170887      0.91594184
N      -1.92352993     -1.00204183     -0.03570860
O      -2.03191844     -2.20002859     -0.10238080
O      -2.54736784     -0.17334553     -0.65258806
H       0.10606414     -0.99294468      0.54669435
H      -0.99441774     -1.01876864      1.87960994
H      -0.77799500      0.53598206      0.94898120
7
Frame 295  Energy = -245.1622462718 Hartree
C      -0.84138432     -0.56888279      0.91482571
N      -1.92503470     -1.00258066     -0.03668537
O      -2.02973375     -2.19882749     -0.10416889
O      -2.54694329     -0.17645313     -0.65130493
H       0.11392461     -0.99523182      0.55689482
H      -0.98946670     -1.02590409      1.89103979
H      -0.76571242      0.53038138      0.96400076
7
Frame 300  Energy = -245.1619966486 Hartree
C      -0.84591467     -0.56583778      0.91375391
N      -1.92628780     -1.00311772     -0.03746186
O      -2.02757970     -2.19768001     -0.10595413
O      -2.54649124     -0.17957469     -0.65006816
H       0.11998488     -0.99655079      0.56670178
H      -0.98560352     -1.03281643      1.90199387
H      -0.75388329      0.52297400      0.97869862
