7
Frame 5  Energy = -245.1611239906 Hartree
C      -0.58200468     -0.69163063      0.64075651
N      -1.87728576     -1.00310717     -0.03640614
O      -2.34408568     -2.09365672      0.10985877
O      -2.34333584     -0.11577279     -0.68499437
H       0.24807698     -1.07226626      0.09240888
H      -0.47352265     -1.16184161      1.60486568
H      -0.45352577      0.32911657      0.78354123
7
Frame 10  Energy = -245.1609162544 Hartree
C      -0.58172219     -0.69130626      0.64345425
N      -1.87994764     -1.00285188     -0.04047666
O      -2.34191449     -2.09398168      0.10999122
O      -2.34437986     -0.11706832     -0.68342559
H       0.24784642     -1.07581871      0.09410582
H      -0.48481509     -1.16999219      1.60455382
H      -0.44676006      0.34445771      0.78915628
7
Frame 15  Energy = -245.1608344140 Hartree
C      -0.58129424     -0.69113545      0.64630508
N      -1.88238818     -1.00256676     -0.04423114
O      -2.33981858     -2.09450370      0.11021074
O      -2.34556744     -0.11823561     -0.68199967
H       0.24802436     -1.08035254      0.09396534
H      -0.49755846     -1.17876254      1.60497853
H      -0.44076267      0.36279875      0.79418466
7
Frame 20  Energy = -245.1607721737 Hartree
C      -0.58079802     -0.69093724      0.64927928
N      -1.88445494     -1.00223407     -0.04773521
O      -2.33786678     -2.09517492      0.11052863
O      -2.34692169     -0.11918357     -0.68074982
H       0.24856716     -1.08563440      0.09179169
H      -0.51183304     -1.18817712      1.60586960
H      -0.43571200      0.38234727      0.79804018
7
Frame 25  Energy = -245.1605870666 Hartree
C      -0.58022545     -0.69060122      0.65236020
N      -1.88604580     -1.00181101     -0.05096625
O      -2.33594443     -2.09601761      0.11087168
O      -2.34848169     -0.11991538     -0.67975533
H       0.24936336     -1.09151796      0.08814569
H      -0.52748841     -1.19823011      1.60704849
H      -0.43182356      0.40147619      0.80043937
7
Frame 30  Energy = -245.1606065851 Hartree
C      -0.57943438     -0.69005537      0.65555813
N      -1.88716889     -1.00136961     -0.05389823
O      -2.33403018     -2.09706099      0.11117477
O      -2.35024611     -0.12044623     -0.67910469
H       0.24978403     -1.09717368      0.08316658
H      -0.54408276     -1.20891327      1.60831457
H      -0.42914734      0.41820762      0.80172752
7
Frame 35  Energy = -245.1604764654 Hartree
C      -0.57850000     -0.68927327      0.65894843
N      -1.88783644     -1.00094072     -0.05653733
O      -2.33213677     -2.09836191      0.11154029
O      -2.35218998     -0.12067102     -0.67877540
H       0.24954395     -1.10250970      0.07694041
H      -0.56156084     -1.21945529      1.60943187
H      -0.42743148      0.43129642      0.80181117
7
Frame 40  Energy = -245.1605006054 Hartree
C      -0.57733815     -0.68828786      0.66241989
N      -1.88803575     -1.00055842     -0.05881682
O      -2.33028585     -2.09988366      0.11199090
O      -2.35437956     -0.12055637     -0.67873821
H       0.24863569     -1.10753598      0.07050267
H      -0.57996953     -1.22965696      1.61024916
H      -0.42681349      0.44025442      0.80051006
7
Frame 45  Energy = -245.1604959192 Hartree
C      -0.57604152     -0.68708634      0.66585755
N      -1.88783295     -1.00026398     -0.06074990
O      -2.32845850     -2.10155020      0.11241652
O      -2.35672455     -0.12012263     -0.67905024
H       0.24635567     -1.11154038      0.06401441
H      -0.59889591     -1.23939455      1.61023899
H      -0.42736753      0.44509295      0.79829525
7
Frame 50  Energy = -245.1605479635 Hartree
C      -0.57461291     -0.68572721      0.66932135
N      -1.88713843     -1.00008382     -0.06230555
O      -2.32667270     -2.10333983      0.11289469
O      -2.35931730     -0.11937436     -0.67958134
H       0.24278714     -1.11478257      0.05793796
H      -0.61800743     -1.24873843      1.60915386
H      -0.42913303      0.44529388      0.79554113
7
Frame 55  Energy = -245.1605005060 Hartree
C      -0.57314856     -0.68426679      0.67279064
N      -1.88599732     -0.99999968     -0.06343063
O      -2.32495494     -2.10523403      0.11339289
O      -2.36206710     -0.11826828     -0.68031339
H       0.23788421     -1.11767603      0.05236678
H      -0.63702173     -1.25718485      1.60720189
H      -0.43209491      0.44095728      0.79221370
7
Frame 60  Energy = -245.1604565714 Hartree
C      -0.57165088     -0.68274810      0.67617711
N      -1.88446483     -0.99992725     -0.06418775
O      -2.32328715     -2.10722477      0.11384894
O      -2.36500880     -0.11690542     -0.68135602
H       0.23149868     -1.11993190      0.04784497
H      -0.65589000     -1.26413330      1.60432652
H      -0.43615515      0.43246150      0.78840627
7
Frame 65  Energy = -245.1603981331 Hartree
C      -0.56997547     -0.68112152      0.67935946
N      -1.88259525     -0.99991451     -0.06463939
O      -2.32164072     -2.10932411      0.11426525
O      -2.36816961     -0.11533768     -0.68258947
H       0.22362757     -1.12175584      0.04467165
H      -0.67452219     -1.26949223      1.60059718
H      -0.44109889      0.42027011      0.78423703
7
Frame 70  Energy = -245.1604441501 Hartree
C      -0.56830267     -0.67964534      0.68241671
N      -1.88039747     -0.99986744     -0.06472505
O      -2.32002908     -2.11148391      0.11467265
O      -2.37148631     -0.11351840     -0.68413245
H       0.21457188     -1.12243981      0.04254327
H      -0.69216484     -1.27347527      1.59633107
H      -0.44682081      0.40538033      0.78005587
7
Frame 75  Energy = -245.1603801850 Hartree
C      -0.56668670     -0.67848303      0.68533058
N      -1.87787724     -0.99967085     -0.06450024
O      -2.31848528     -2.11366928      0.11505486
O      -2.37495137     -0.11153094     -0.68593199
H       0.20505685     -1.12249536      0.04162013
H      -0.70837627     -1.27601331      1.59175313
H      -0.45332877      0.38919108      0.77614576
7
Frame 80  Energy = -245.1603866389 Hartree
C      -0.56518590     -0.67770869      0.68820311
N      -1.87520576     -0.99938343     -0.06394289
O      -2.31699996     -2.11583888      0.11536487
O      -2.37860106     -0.10946095     -0.68784514
H       0.19497910     -1.12203629      0.04207778
H      -0.72300132     -1.27750002      1.58687562
H      -0.46031633      0.37292952      0.77281548
7
Frame 85  Energy = -245.1604045183 Hartree
C      -0.56400671     -0.67733078      0.69088179
N      -1.87235308     -0.99898700     -0.06316622
O      -2.31551220     -2.11803799      0.11556974
O      -2.38228607     -0.10730676     -0.68982201
H       0.18487598     -1.12123760      0.04335422
H      -0.73591209     -1.27780574      1.58210100
H      -0.46697119      0.35854928      0.77002828
7
Frame 90  Energy = -245.1602924266 Hartree
C      -0.56321832     -0.67750112      0.69339947
N      -1.86942074     -0.99853681     -0.06205070
O      -2.31404745     -2.12033818      0.11575908
O      -2.38600457     -0.10520296     -0.69189847
H       0.17565760     -1.12018226      0.04533208
H      -0.74712855     -1.27725366      1.57772710
H      -0.47359134      0.34754099      0.76774424
7
Frame 95  Energy = -245.1602909672 Hartree
C      -0.56275850     -0.67819975      0.69565852
N      -1.86641074     -0.99801960     -0.06083342
O      -2.31259066     -2.12272199      0.11587268
O      -2.38969017     -0.10312844     -0.69399264
H       0.16749525     -1.11926400      0.04756621
H      -0.75673882     -1.27574788      1.57425362
H      -0.47983746      0.34069948      0.76658673
7
Frame 100  Energy = -245.1601629383 Hartree
C      -0.56267894     -0.67941448      0.69768729
N      -1.86336702     -0.99730402     -0.05950643
O      -2.31104090     -2.12505745      0.11584208
O      -2.39329431     -0.10099203     -0.69610053
H       0.16098201     -1.11887517      0.04984252
H      -0.76456047     -1.27351609      1.57207381
H      -0.48584530      0.33894377      0.76652555
7
Frame 105  Energy = -245.1602267483 Hartree
C      -0.56304512     -0.68115823      0.69960666
N      -1.86052022     -0.99651153     -0.05804336
O      -2.30941800     -2.12723213      0.11568016
O      -2.39690085     -0.09894464     -0.69823830
H       0.15651461     -1.11898016      0.05186720
H      -0.77051837     -1.27073332      1.57153257
H      -0.49122896      0.34236739      0.76764453
7
Frame 110  Energy = -245.1603385350 Hartree
C      -0.56384395     -0.68335930      0.70124567
N      -1.85785618     -0.99559549     -0.05659884
O      -2.30775704     -2.12930076      0.11531886
O      -2.40045054     -0.09714168     -0.70031675
H       0.15416126     -1.11979015      0.05403288
H      -0.77463894     -1.26771627      1.57241899
H      -0.49608353      0.35059178      0.76987882
7
Frame 115  Energy = -245.1604731759 Hartree
C      -0.56499747     -0.68587731      0.70278149
N      -1.85542810     -0.99463435     -0.05524453
O      -2.30601786     -2.13114196      0.11493409
O      -2.40387302     -0.09548349     -0.70221734
H       0.15413735     -1.12117865      0.05594235
H      -0.77661658     -1.26452908      1.57500695
H      -0.50053147      0.36231271      0.77266599
7
Frame 120  Energy = -245.1604635259 Hartree
C      -0.56661948     -0.68864175      0.70414718
N      -1.85329229     -0.99364019     -0.05396590
O      -2.30414601     -2.13272113      0.11453586
O      -2.40718108     -0.09404572     -0.70396987
H       0.15685170     -1.12299530      0.05772053
H      -0.77662473     -1.26143388      1.57943978
H      -0.50476650      0.37627077      0.77564655
7
Frame 125  Energy = -245.1606278875 Hartree
C      -0.56865171     -0.69152170      0.70523618
N      -1.85147247     -0.99265585     -0.05279986
O      -2.30218144     -2.13396198      0.11406002
O      -2.41021093     -0.09277484     -0.70563765
H       0.16217952     -1.12507713      0.05963769
H      -0.77485672     -1.25828489      1.58569433
H      -0.50810005      0.39129935      0.77883981
7
Frame 130  Energy = -245.1607525537 Hartree
C      -0.57105841     -0.69429026      0.70607963
N      -1.84997995     -0.99169432     -0.05174373
O      -2.30016454     -2.13493218      0.11356997
O      -2.41303390     -0.09173726     -0.70714360
H       0.16938411     -1.12768460      0.06161487
H      -0.77146309     -1.25497256      1.59343786
H      -0.51117497      0.40584603      0.78201396
7
Frame 135  Energy = -245.1605745984 Hartree
C      -0.57371299     -0.69688395      0.70666048
N      -1.84881499     -0.99068206     -0.05086308
O      -2.29806510     -2.13560068      0.11306279
O      -2.41560839     -0.09098569     -0.70839439
H       0.17819401     -1.13064066      0.06389870
H      -0.76629731     -1.25158837      1.60312042
H      -0.51409702      0.41840752      0.78553597
7
Frame 140  Energy = -245.1604816971 Hartree
C      -0.57667064     -0.69924371      0.70698131
N      -1.84798507     -0.98953264     -0.05009397
O      -2.29586414     -2.13605665      0.11246365
O      -2.41800292     -0.09048329     -0.70948979
H       0.18806852     -1.13362380      0.06689594
H      -0.75957577     -1.24805491      1.61424321
H      -0.51684498      0.42830794      0.78949712
7
Frame 145  Energy = -245.1604988742 Hartree
C      -0.57986377     -0.70139127      0.70701215
N      -1.84755051     -0.98834174     -0.04946309
O      -2.29348311     -2.13625772      0.11172418
O      -2.42023489     -0.09031810     -0.71042520
H       0.19841021     -1.13637697      0.07088210
H      -0.75155668     -1.24473990      1.62626703
H      -0.51948629      0.43426692      0.79333536
7
Frame 150  Energy = -245.1606444967 Hartree
C      -0.58320247     -0.70326383      0.70689064
N      -1.84753391     -0.98714597     -0.04895366
O      -2.29102001     -2.13613752      0.11091687
O      -2.42217395     -0.09050564     -0.71112925
H       0.20838649     -1.13841708      0.07606988
H      -0.74258968     -1.24106075      1.63918808
H      -0.52177877      0.43601753      0.79687696
7
Frame 155  Energy = -245.1606800073 Hartree
C      -0.58665082     -0.70470531      0.70663594
N      -1.84791627     -0.98588300     -0.04861670
O      -2.28849979     -2.13570318      0.11004387
O      -2.42389105     -0.09103296     -0.71158946
H       0.21749220     -1.13960439      0.08277415
H      -0.73236759     -1.23709251      1.65233367
H      -0.52372300      0.43396566      0.80021122
7
Frame 160  Energy = -245.1605962672 Hartree
C      -0.59013588     -0.70586551      0.70633445
N      -1.84865341     -0.98474959     -0.04846555
O      -2.28591642     -2.13493880      0.10910225
O      -2.42539330     -0.09186617     -0.71179892
H       0.22560972     -1.13993169      0.09088937
H      -0.72098929     -1.23255321      1.66505314
H      -0.52531079      0.42745697      0.80341771
7
Frame 165  Energy = -245.1606384761 Hartree
C      -0.59361213     -0.70674385      0.70595718
N      -1.84977418     -0.98376339     -0.04848675
O      -2.28318077     -2.13391465      0.10805159
O      -2.42665920     -0.09299138     -0.71177120
H       0.23270366     -1.13931085      0.10034361
H      -0.70866193     -1.22682722      1.67649897
H      -0.52655762      0.41673719      0.80613427
7
Frame 170  Energy = -245.1606528922 Hartree
C      -0.59704696     -0.70737651      0.70557803
N      -1.85122218     -0.98289767     -0.04864138
O      -2.28029495     -2.13262543      0.10682182
O      -2.42766907     -0.09438397     -0.71145528
H       0.23869798     -1.13788027      0.11118523
H      -0.69591093     -1.21980591      1.68579229
H      -0.52760362      0.40258436      0.80866628
7
Frame 175  Energy = -245.1607672366 Hartree
C      -0.60042697     -0.70788411      0.70521031
N      -1.85306750     -0.98217633     -0.04892313
O      -2.27734856     -2.13113153      0.10551481
O      -2.42847638     -0.09597978     -0.71088388
H       0.24322193     -1.13572469      0.12345591
H      -0.68320930     -1.21154360      1.69300686
H      -0.52819920      0.38598874      0.81071865
7
Frame 180  Energy = -245.1606124484 Hartree
C      -0.60368566     -0.70827274      0.70488140
N      -1.85529961     -0.98158074     -0.04930947
O      -2.27430239     -2.12945242      0.10411759
O      -2.42910305     -0.09773700     -0.71013715
H       0.24602401     -1.13268306      0.13698189
H      -0.67051128     -1.20246654      1.69795381
H      -0.52819415      0.36795573      0.81242770
7
Frame 185  Energy = -245.1606753132 Hartree
C      -0.60676732     -0.70864164      0.70468445
N      -1.85786976     -0.98103421     -0.04971532
O      -2.27127765     -2.12763657      0.10261903
O      -2.42950199     -0.09967517     -0.70922428
H       0.24726901     -1.12857440      0.15103621
H      -0.65828086     -1.19244171      1.70073193
H      -0.52736272      0.34969840      0.81400541
7
Frame 190  Energy = -245.1606821780 Hartree
C      -0.60969736     -0.70904965      0.70458661
N      -1.86064995     -0.98051425     -0.05011338
O      -2.26816139     -2.12560273      0.10106471
O      -2.42968461     -0.10177724     -0.70812840
H       0.24722995     -1.12387483      0.16535227
H      -0.64647882     -1.18191528      1.70141978
H      -0.52613087      0.33305852      0.81548589
7
Frame 195  Energy = -245.1607791236 Hartree
C      -0.61260548     -0.70957005      0.70449906
N      -1.86362180     -0.98000006     -0.05053405
O      -2.26492456     -2.12351080      0.09943529
O      -2.42966261     -0.10404981     -0.70691649
H       0.24621288     -1.11880989      0.17957711
H      -0.63570782     -1.17122975      1.70013240
H      -0.52422442      0.31962113      0.81675148
7
Frame 200  Energy = -245.1607982937 Hartree
C      -0.61547476     -0.71019948      0.70440028
N      -1.86662577     -0.97953779     -0.05089840
O      -2.26169815     -2.12142889      0.09773127
O      -2.42943141     -0.10645088     -0.70561117
H       0.24459872     -1.11349196      0.19322821
H      -0.62623023     -1.16081380      1.69751514
H      -0.52184428      0.31067922      0.81826056
7
Frame 205  Energy = -245.1608855849 Hartree
C      -0.61822312     -0.71105480      0.70436152
N      -1.86966194     -0.97917102     -0.05119544
O      -2.25852941     -2.11927115      0.09600058
O      -2.42903234     -0.10888632     -0.70415527
H       0.24285054     -1.10823858      0.20587870
H      -0.61799649     -1.15076909      1.69391126
H      -0.51866072      0.30683633      0.81990068
7
Frame 210  Energy = -245.1608964619 Hartree
C      -0.62097552     -0.71212143      0.70433736
N      -1.87286676     -0.97892296     -0.05149106
O      -2.25542107     -2.11707565      0.09423539
O      -2.42853580     -0.11138115     -0.70267832
H       0.24130611     -1.10347763      0.21678020
H      -0.61141718     -1.14136679      1.68998728
H      -0.51497328      0.30844580      0.82163170
7
Frame 215  Energy = -245.1608296029 Hartree
C      -0.62369406     -0.71323827      0.70434130
N      -1.87614968     -0.97874544     -0.05174699
O      -2.25238111     -2.11497559      0.09242232
O      -2.42798297     -0.11394756     -0.70119759
H       0.24038919     -1.09970408      0.22551663
H      -0.60673503     -1.13293007      1.68622867
H      -0.51088801      0.31512259      0.82306318
7
Frame 220  Energy = -245.1607095345 Hartree
C      -0.62633414     -0.71423258      0.70443939
N      -1.87937226     -0.97855303     -0.05189901
O      -2.24947017     -2.11297451      0.09054275
O      -2.42732413     -0.11654500     -0.69957491
H       0.24049782     -1.09696312      0.23187078
H      -0.60393670     -1.12583089      1.68294531
H      -0.50665252      0.32587583      0.82433450
7
Frame 225  Energy = -245.1605123474 Hartree
C      -0.62895952     -0.71503794      0.70459939
N      -1.88255554     -0.97841562     -0.05188369
O      -2.24664625     -2.11122232      0.08861636
O      -2.42670685     -0.11917473     -0.69786568
H       0.24164894     -1.09539056      0.23555357
H      -0.60317060     -1.12026568      1.68102726
H      -0.50248653      0.33984679      0.82476105
7
Frame 230  Energy = -245.1604930674 Hartree
C      -0.63153808     -0.71561638      0.70477337
N      -1.88557824     -0.97840526     -0.05167780
O      -2.24392266     -2.10965034      0.08662590
O      -2.42604917     -0.12172560     -0.69612526
H       0.24391026     -1.09503627      0.23660799
H      -0.60445024     -1.11663444      1.68129392
H      -0.49858126      0.35548029      0.82466117
7
Frame 235  Energy = -245.1605254934 Hartree
C      -0.63391360     -0.71577752      0.70482101
N      -1.88832992     -0.97841918     -0.05125832
O      -2.24129794     -2.10833722      0.08453408
O      -2.42548129     -0.12411726     -0.69436674
H       0.24693941     -1.09572939      0.23535428
H      -0.60786914     -1.11495114      1.68335897
H      -0.49490098      0.37094887      0.82378200
7
Frame 240  Energy = -245.1604044218 Hartree
C      -0.63621132     -0.71541411      0.70497875
N      -1.89081906     -0.97844849     -0.05061231
O      -2.23884463     -2.10729366      0.08235324
O      -2.42496399     -0.12628507     -0.69265291
H       0.25064849     -1.09749723      0.23167935
H      -0.61309490     -1.11530369      1.68739475
H      -0.49148180      0.38530828      0.82208025
7
Frame 245  Energy = -245.1604993519 Hartree
C      -0.63830608     -0.71447125      0.70527067
N      -1.89291890     -0.97846388     -0.04971256
O      -2.23661216     -2.10655966      0.08011878
O      -2.42440465     -0.12822704     -0.69105180
H       0.25378010     -1.10015010      0.22600977
H      -0.62025275     -1.11733040      1.69324117
H      -0.48896839      0.39761375      0.81962701
7
Frame 250  Energy = -245.1603319441 Hartree
C      -0.64017488     -0.71289632      0.70565061
N      -1.89461597     -0.97845724     -0.04850126
O      -2.23455188     -2.10618769      0.07780056
O      -2.42384857     -0.12989542     -0.68949590
H       0.25592975     -1.10372151      0.21863049
H      -0.62938246     -1.12100968      1.69991943
H      -0.48769156      0.40712332      0.81629080
7
Frame 255  Energy = -245.1602970600 Hartree
C      -0.64171012     -0.71067624      0.70611854
N      -1.89589244     -0.97840091     -0.04712438
O      -2.23267372     -2.10622979      0.07547485
O      -2.42339590     -0.13133621     -0.68802634
H       0.25662458     -1.10764526      0.20992438
H      -0.64017539     -1.12588147      1.70698341
H      -0.48741664      0.41336588      0.81203345
7
Frame 260  Energy = -245.1601946900 Hartree
C      -0.64301033     -0.70779960      0.70660601
N      -1.89676905     -0.97827314     -0.04548005
O      -2.23095567     -2.10671772      0.07322039
O      -2.42301657     -0.13253716     -0.68667420
H       0.25537280     -1.11174690      0.20044659
H      -0.65255146     -1.13172584      1.71369435
H      -0.48799551      0.41584878      0.80704516
7
Frame 265  Energy = -245.1602638942 Hartree
C      -0.64404077     -0.70442169      0.70721853
N      -1.89726517     -0.97802341     -0.04354586
O      -2.22947799     -2.10756566      0.07100566
O      -2.42271454     -0.13346319     -0.68545479
H       0.25184197     -1.11553884      0.19068076
H      -0.66627309     -1.13774887      1.71962812
H      -0.48943999      0.41457491      0.80160928
7
Frame 270  Energy = -245.1602433647 Hartree
C      -0.64473194     -0.70061772      0.70794486
N      -1.89736012     -0.97767369     -0.04133776
O      -2.22818665     -2.10879066      0.06879180
O      -2.42252946     -0.13414738     -0.68444162
H       0.24592174     -1.11887408      0.18105429
H      -0.68123046     -1.14372861      1.72372868
H      -0.49166896      0.40955938      0.79567125
7
Frame 275  Energy = -245.1605566230 Hartree
C      -0.64507183     -0.69638400      0.70891386
N      -1.89697289     -0.97723438     -0.03890752
O      -2.22714366     -2.11040968      0.06655983
O      -2.42246758     -0.13451768     -0.68357270
H       0.23774232     -1.12176739      0.17187903
H      -0.69633173     -1.14885228      1.72546114
H      -0.49449817      0.40190617      0.78947476
7
Frame 280  Energy = -245.1606094996 Hartree
C      -0.64499665     -0.69180840      0.71013989
N      -1.89618385     -0.97678560     -0.03632342
O      -2.22630976     -2.11236573      0.06434264
O      -2.42256465     -0.13469690     -0.68285297
H       0.22720410     -1.12407521      0.16338349
H      -0.71164892     -1.15336123      1.72499343
H      -0.49785554      0.39263834      0.78305350
7
Frame 285  Energy = -245.1605844711 Hartree
C      -0.64461430     -0.68715482      0.71162131
N      -1.89500838     -0.97639285     -0.03361187
O      -2.22568478     -2.11465509      0.06207656
O      -2.42275657     -0.13469804     -0.68230568
H       0.21444951     -1.12581351      0.15571381
H      -0.72708567     -1.15694168      1.72203890
H      -0.50175189      0.38245255      0.77646563
7
Frame 290  Energy = -245.1605078803 Hartree
C      -0.64404835     -0.68252593      0.71327304
N      -1.89343427     -0.97603740     -0.03071117
O      -2.22519546     -2.11726152      0.05973788
O      -2.42311048     -0.13440783     -0.68191884
H       0.19966853     -1.12726050      0.14874060
H      -0.74244808     -1.15933681      1.71691716
H      -0.50590657      0.37250102      0.76996824
7
Frame 295  Energy = -245.1604378773 Hartree
C      -0.64339822     -0.67798343      0.71505627
N      -1.89148698     -0.97572644     -0.02764629
O      -2.22490898     -2.12018508      0.05740002
O      -2.42358689     -0.13383732     -0.68165700
H       0.18330373     -1.12858576      0.14265066
H      -0.75726647     -1.16057793      1.70951572
H      -0.50998196      0.36376474      0.76395381
7
Frame 300  Energy = -245.1602229043 Hartree
C      -0.64269235     -0.67366278      0.71700761
N      -1.88927235     -0.97541220     -0.02450421
O      -2.22484778     -2.12339297      0.05508617
O      -2.42413417     -0.13309072     -0.68142290
H       0.16573766     -1.12960146      0.13725605
H      -0.77174726     -1.16105746      1.70001265
H      -0.51369181      0.35746968      0.75830484
