7
Frame 5  Energy = -245.1629991581 Hartree
C      -0.85019973     -0.56288523      0.91279224
N      -1.92716852     -1.00365394     -0.03800437
O      -2.02549285     -2.19661744     -0.10777734
O      -2.54605351     -0.18261656     -0.64879139
H       0.12388804     -0.99717283      0.57618952
H      -0.98257436     -1.03896353      1.91160348
H      -0.74286980      0.51426990      0.99316135
7
Frame 10  Energy = -245.1629566516 Hartree
C      -0.85411002     -0.56013517      0.91204215
N      -1.92771254     -1.00413725     -0.03826841
O      -2.02349898     -2.19567617     -0.10961841
O      -2.54572664     -0.18559690     -0.64757472
H       0.12534055     -0.99687860      0.58536812
H      -0.98037640     -1.04410826      1.91882288
H      -0.73287300      0.50520140      1.00721911
7
Frame 15  Energy = -245.1631298975 Hartree
C      -0.85767119     -0.55767564      0.91154169
N      -1.92790834     -1.00453321     -0.03823596
O      -2.02157407     -2.19495009     -0.11153351
O      -2.54554597     -0.18844930     -0.64641315
H       0.12430652     -0.99566399      0.59390040
H      -0.97932307     -1.04804296      1.92339249
H      -0.72398570      0.49679143      1.02050307
7
Frame 20  Energy = -245.1631541163 Hartree
C      -0.86086446     -0.55547499      0.91139332
N      -1.92779705     -1.00492309     -0.03794986
O      -2.01968617     -2.19440747     -0.11349634
O      -2.54552268     -0.19117345     -0.64531749
H       0.12049763     -0.99391884      0.60162320
H      -0.97974877     -1.05049023      1.92468177
H      -0.71634480      0.48972816      1.03333775
7
Frame 25  Energy = -245.1631512032 Hartree
C      -0.86370241     -0.55357561      0.91158269
N      -1.92742580     -1.00536560     -0.03736084
O      -2.01782622     -2.19409004     -0.11546400
O      -2.54566503     -0.19375456     -0.64435176
H       0.11444210     -0.99141262      0.60857836
H      -0.98154841     -1.05180834      1.92258310
H      -0.71009453      0.48461974      1.04534287
7
Frame 30  Energy = -245.1632932696 Hartree
C      -0.86622781     -0.55203844      0.91219824
N      -1.92672882     -1.00574460     -0.03648770
O      -2.01600365     -2.19408366     -0.11747423
O      -2.54598310     -0.19609341     -0.64344047
H       0.10634803     -0.98842114      0.61465923
H      -0.98441323     -1.05165119      1.91779172
H      -0.70536837      0.48180222      1.05669015
7
Frame 35  Energy = -245.1632622506 Hartree
C      -0.86844296     -0.55085019      0.91319074
N      -1.92573123     -1.00606227     -0.03534216
O      -2.01430876     -2.19429581     -0.11948420
O      -2.54649759     -0.19815565     -0.64265733
H       0.09654357     -0.98471118      0.61987328
H      -0.98860489     -1.04981824      1.91018712
H      -0.70223389      0.48124776      1.06722203
7
Frame 40  Energy = -245.1634077764 Hartree
C      -0.87037340     -0.55004398      0.91448400
N      -1.92444559     -1.00632519     -0.03394564
O      -2.01276790     -2.19471619     -0.12150511
O      -2.54712083     -0.20000385     -0.64207662
H       0.08568179     -0.98092854      0.62412895
H      -0.99432576     -1.04648579      1.90012396
H      -0.70068869      0.48287605      1.07704617
7
Frame 45  Energy = -245.1633714391 Hartree
C      -0.87203658     -0.54957055      0.91614608
N      -1.92284062     -1.00643999     -0.03231615
O      -2.01131414     -2.19536559     -0.12360763
O      -2.54788499     -0.20156973     -0.64169682
H       0.07456174     -0.97746032      0.62730348
H      -1.00137043     -1.04221520      1.88834763
H      -0.70056350      0.48645566      1.08570732
7
Frame 50  Energy = -245.1632922397 Hartree
C      -0.87359161     -0.54935179      0.91803298
N      -1.92096892     -1.00646525     -0.03046574
O      -2.00990217     -2.19623605     -0.12571247
O      -2.54888453     -0.20287804     -0.64147386
H       0.06352227     -0.97438981      0.62922367
H      -1.01003617     -1.03746982      1.87543130
H      -0.70165743      0.49204724      1.09298719
7
Frame 55  Energy = -245.1631888436 Hartree
C      -0.87493933     -0.54919763      0.92004777
N      -1.91887724     -1.00634129     -0.02837778
O      -2.00857148     -2.19739149     -0.12788671
O      -2.55003565     -0.20397836     -0.64135981
H       0.05332186     -0.97178681      0.62944659
H      -1.02012314     -1.03290766      1.86252941
H      -0.70466116      0.49935289      1.09902799
7
Frame 60  Energy = -245.1631617538 Hartree
C      -0.87605125     -0.54921860      0.92223255
N      -1.91650128     -1.00617942     -0.02614349
O      -2.00728721     -2.19879294     -0.13008481
O      -2.55130307     -0.20482692     -0.64134256
H       0.04455577     -0.96982176      0.62780218
H      -1.03157073     -1.02880950      1.85094509
H      -0.70941276      0.50771121      1.10368435
7
Frame 65  Energy = -245.1629144209 Hartree
C      -0.87704017     -0.54921734      0.92463996
N      -1.91395731     -1.00605349     -0.02379097
O      -2.00595213     -2.20041675     -0.13228059
O      -2.55271072     -0.20547456     -0.64145105
H       0.03780594     -0.96873382      0.62381236
H      -1.04450386     -1.02606351      1.84139360
H      -0.71596803      0.51646587      1.10685256
7
Frame 70  Energy = -245.1628330936 Hartree
C      -0.87788522     -0.54904315      0.92716352
N      -1.91126031     -1.00586759     -0.02133949
O      -2.00464956     -2.20223516     -0.13456005
O      -2.55424828     -0.20587091     -0.64162231
H       0.03356198     -0.96868462      0.61792987
H      -1.05914421     -1.02496984      1.83462721
H      -0.72413947      0.52510254      1.10847852
7
Frame 75  Energy = -245.1629855897 Hartree
C      -0.87862858     -0.54867555      0.92970689
N      -1.90847162     -1.00561645     -0.01897100
O      -2.00331832     -2.20414260     -0.13684016
O      -2.55588983     -0.20619923     -0.64186186
H       0.03198987     -0.96971593      0.61043778
H      -1.07539222     -1.02557824      1.83156530
H      -0.73423661      0.53282671      1.10863392
7
Frame 80  Energy = -245.1630726577 Hartree
C      -0.87939377     -0.54806446      0.93225904
N      -1.90567066     -1.00522588     -0.01667954
O      -2.00196860     -2.20608430     -0.13903339
O      -2.55749565     -0.20639903     -0.64207679
H       0.03313212     -0.97164771      0.60162957
H      -1.09297314     -1.02825810      1.83209391
H      -0.74627404      0.53890444      1.10744797
7
Frame 85  Energy = -245.1630885785 Hartree
C      -0.88009099     -0.54722864      0.93484873
N      -1.90282312     -1.00486201     -0.01450151
O      -2.00058742     -2.20804697     -0.14121452
O      -2.55909263     -0.20643784     -0.64228761
H       0.03629165     -0.97463693      0.59156933
H      -1.11115771     -1.03262304      1.83631858
H      -0.75988512      0.54303716      1.10470062
7
Frame 90  Energy = -245.1632221783 Hartree
C      -0.88068945     -0.54606142      0.93746026
N      -1.90007751     -1.00453742     -0.01239861
O      -1.99914449     -2.21000804     -0.14351407
O      -2.56073585     -0.20633272     -0.64249802
H       0.04104378     -0.97825005      0.58099820
H      -1.12937792     -1.03821570      1.84381474
H      -0.77483736      0.54488871      1.10017877
7
Frame 95  Energy = -245.1631646962 Hartree
C      -0.88117043     -0.54471308      0.94011289
N      -1.89744457     -1.00419046     -0.01050037
O      -1.99766149     -2.21196785     -0.14579359
O      -2.56231989     -0.20614519     -0.64269555
H       0.04685012     -0.98199830      0.57044535
H      -1.14742479     -1.04450176      1.85356373
H      -0.79101287      0.54467425      1.09437618
7
Frame 100  Energy = -245.1629590838 Hartree
C      -0.88150299     -0.54325802      0.94281585
N      -1.89500107     -1.00378526     -0.00877357
O      -1.99621075     -2.21394257     -0.14803867
O      -2.56379267     -0.20588729     -0.64288611
H       0.05281899     -0.98555506      0.56026477
H      -1.16514960     -1.05065983      1.86436442
H      -0.80826910      0.54300521      1.08718628
7
Frame 105  Energy = -245.1627826230 Hartree
C      -0.88163390     -0.54185305      0.94572328
N      -1.89277135     -1.00335612     -0.00737805
O      -1.99476512     -2.21595299     -0.15028312
O      -2.56526543     -0.20557808     -0.64290193
H       0.05801043     -0.98827464      0.55103689
H      -1.18226667     -1.05646179      1.87545732
H      -0.82637095      0.53954772      1.07885009
7
Frame 110  Energy = -245.1629641812 Hartree
C      -0.88159860     -0.54058981      0.94883808
N      -1.89086193     -1.00300959     -0.00631237
O      -1.99331239     -2.21791302     -0.15245188
O      -2.56670962     -0.20525152     -0.64281897
H       0.06202380     -0.99024159      0.54314490
H      -1.19770403     -1.06145952      1.88575025
H      -0.84506920      0.53515687      1.06968340
7
Frame 115  Energy = -245.1629520019 Hartree
C      -0.88131736     -0.53960023      0.95218745
N      -1.88915915     -1.00274832     -0.00546036
O      -1.99180792     -2.21971091     -0.15445208
O      -2.56809697     -0.20496419     -0.64262442
H       0.06457113     -0.99065761      0.53692385
H      -1.21125113     -1.06503434      1.89426072
H      -0.86386704      0.53042044      1.05974808
7
Frame 120  Energy = -245.1629329582 Hartree
C      -0.88091390     -0.53902563      0.95571033
N      -1.88771974     -1.00261532     -0.00492549
O      -1.99038587     -2.22135773     -0.15637568
O      -2.56945603     -0.20477009     -0.64227111
H       0.06510528     -0.98919854      0.53289231
H      -1.22287945     -1.06666150      1.90095606
H      -0.88298168      0.52566503      1.04953469
7
Frame 125  Energy = -245.1629381333 Hartree
C      -0.88045610     -0.53893306      0.95933158
N      -1.88663189     -1.00261735     -0.00470337
O      -1.98901186     -2.22284543     -0.15821642
O      -2.57083620     -0.20469313     -0.64177806
H       0.06340114     -0.98620448      0.53135921
H      -1.23223315     -1.06614274      1.90525386
H      -0.90237325      0.52166499      1.03903452
7
Frame 130  Energy = -245.1630389464 Hartree
C      -0.88003332     -0.53932378      0.96302732
N      -1.88587955     -1.00276506     -0.00475816
O      -1.98759962     -2.22422782     -0.15996881
O      -2.57204898     -0.20459745     -0.64114940
H       0.05994905     -0.98149722      0.53225652
H      -1.23898086     -1.06342678      1.90704234
H      -0.92140426      0.51889861      1.02832470
7
Frame 135  Energy = -245.1630852891 Hartree
C      -0.87961787     -0.54016075      0.96680313
N      -1.88545936     -1.00307731     -0.00517529
O      -1.98613526     -2.22538308     -0.16165366
O      -2.57302894     -0.20449913     -0.64039128
H       0.05481716     -0.97524432      0.53605090
H      -1.24313575     -1.05845429      1.90623662
H      -0.93989787      0.51747258      1.01746461
7
Frame 140  Energy = -245.1629873155 Hartree
C      -0.87921617     -0.54144314      0.97067149
N      -1.88543216     -1.00361220     -0.00591693
O      -1.98459362     -2.22627339     -0.16324189
O      -2.57388372     -0.20447009     -0.63944127
H       0.04828070     -0.96770451      0.54241992
H      -1.24477102     -1.05134838      1.90330268
H      -0.95774473      0.51777945      1.00685126
7
Frame 145  Energy = -245.1628679318 Hartree
C      -0.87890823     -0.54313162      0.97456084
N      -1.88566807     -1.00442719     -0.00700539
O      -1.98291546     -2.22698417     -0.16474007
O      -2.57461540     -0.20451849     -0.63833039
H       0.04080951     -0.95922514      0.55091816
H      -1.24363603     -1.04253484      1.89832463
H      -0.97492452      0.51990533      0.99655419
7
Frame 150  Energy = -245.1628061268 Hartree
C      -0.87876410     -0.54504263      0.97842686
N      -1.88611146     -1.00544394     -0.00846059
O      -1.98108320     -2.22746263     -0.16618395
O      -2.57521704     -0.20460176     -0.63701855
H       0.03331724     -0.94995068      0.56122279
H      -1.24042493     -1.03249309      1.89237081
H      -0.99106213      0.52334722      0.98656523
7
Frame 155  Energy = -245.1628211679 Hartree
C      -0.87890457     -0.54706481      0.98215655
N      -1.88686338     -1.00659889     -0.01019348
O      -1.97912151     -2.22781961     -0.16760831
O      -2.57564959     -0.20468187     -0.63552217
H       0.02687751     -0.93998052      0.57313895
H      -1.23525001     -1.02165869      1.88616518
H      -1.00559361      0.52772872      0.97713503
7
Frame 160  Energy = -245.1627233583 Hartree
C      -0.87923265     -0.54907273      0.98575808
N      -1.88782533     -1.00787355     -0.01212920
O      -1.97700375     -2.22800823     -0.16895929
O      -2.57595601     -0.20481973     -0.63388230
H       0.02234736     -0.92967675      0.58557389
H      -1.22878618     -1.01010238      1.88054066
H      -1.01850162      0.53214441      0.96837276
7
Frame 165  Energy = -245.1627331946 Hartree
C      -0.87990794     -0.55088360      0.98923906
N      -1.88896658     -1.00940161     -0.01431014
O      -1.97480769     -2.22808488     -0.17013400
O      -2.57608898     -0.20503677     -0.63208772
H       0.02075434     -0.91944012      0.59830001
H      -1.22164344     -0.99877321      1.87664571
H      -1.02986168      0.53608926      0.96059909
7
Frame 170  Energy = -245.1627034982 Hartree
C      -0.88113712     -0.55238401      0.99249280
N      -1.89032338     -1.01110736     -0.01662003
O      -1.97259091     -2.22798388     -0.17118980
O      -2.57610199     -0.20525904     -0.63008181
H       0.02262220     -0.90983376      0.61086537
H      -1.21394776     -0.98867420      1.87561746
H      -1.03950380      0.53902358      0.95374234
7
Frame 175  Energy = -245.1628649458 Hartree
C      -0.88276245     -0.55344340      0.99537526
N      -1.89187928     -1.01303296     -0.01907081
O      -1.97035862     -2.22777147     -0.17225191
O      -2.57599545     -0.20551104     -0.62800248
H       0.02784391     -0.90101676      0.62342451
H      -1.20599110     -0.98040893      1.87843178
H      -1.04765756      0.54067608      0.94777885
7
Frame 180  Energy = -245.1630361648 Hartree
C      -0.88474001     -0.55395943      0.99766548
N      -1.89360584     -1.01514152     -0.02160092
O      -1.96816766     -2.22750403     -0.17328070
O      -2.57576668     -0.20587642     -0.62591086
H       0.03623981     -0.89287722      0.63614658
H      -1.19866957     -0.97376509      1.88543168
H      -1.05394618      0.54050698      0.94287187
7
Frame 185  Energy = -245.1627991287 Hartree
C      -0.88713704     -0.55390228      0.99948023
N      -1.89548300     -1.01746925     -0.02430695
O      -1.96593633     -2.22709167     -0.17424632
O      -2.57539971     -0.20630292     -0.62371794
H       0.04789580     -0.88551792      0.64858341
H      -1.19207903     -0.96890225      1.89680979
H      -1.05829183      0.53862340      0.93900586
7
Frame 190  Energy = -245.1627136406 Hartree
C      -0.88991431     -0.55331580      1.00081287
N      -1.89749640     -1.02003372     -0.02717618
O      -1.96370144     -2.22656100     -0.17526641
O      -2.57490255     -0.20671867     -0.62144916
H       0.06238148     -0.87893690      0.66051668
H      -1.18634801     -0.96583681      1.91238972
H      -1.06093446      0.53523824      0.93628257
7
Frame 195  Energy = -245.1626398789 Hartree
C      -0.89301784     -0.55236646      1.00169145
N      -1.89950207     -1.02275300     -0.03004580
O      -1.96146121     -2.22595039     -0.17631285
O      -2.57446556     -0.20713392     -0.61906317
H       0.07811514     -0.87279801      0.67222150
H      -1.18132879     -0.96403310      1.93123924
H      -1.06219744      0.53028860      0.93440165
7
Frame 200  Energy = -245.1623742419 Hartree
C      -0.89639540     -0.55112356      1.00221649
N      -1.90142734     -1.02554672     -0.03287334
O      -1.95930982     -2.22529752     -0.17733787
O      -2.57401131     -0.20756362     -0.61652780
H       0.09443352     -0.86682672      0.68383759
H      -1.17658397     -0.96320181      1.95244522
H      -1.06188197      0.52435548      0.93342401
7
Frame 205  Energy = -245.1622340131 Hartree
C      -0.89991920     -0.54977990      1.00255875
N      -1.90316267     -1.02856935     -0.03553893
O      -1.95719273     -2.22465150     -0.17842308
O      -2.57357642     -0.20786148     -0.61403333
H       0.11023718     -0.86087520      0.69584420
H      -1.17221623     -0.96232744      1.97448819
H      -1.06021153      0.51813835      0.93387922
7
Frame 210  Energy = -245.1621064992 Hartree
C      -0.90342392     -0.54840383      1.00275442
N      -1.90472980     -1.03172052     -0.03801709
O      -1.95514847     -2.22401106     -0.17962664
O      -2.57315557     -0.20809734     -0.61160930
H       0.12487383     -0.85448348      0.70826481
H      -1.16787346     -0.96131219      1.99571841
H      -1.05741550      0.51180781      0.93562341
7
Frame 215  Energy = -245.1620505193 Hartree
C      -0.90691409     -0.54715250      1.00284172
N      -1.90619986     -1.03482118     -0.04034581
O      -1.95305635     -2.22351556     -0.18085495
O      -2.57282762     -0.20824184     -0.60926426
H       0.13718476     -0.84786398      0.72129476
H      -1.16317402     -0.96001430      2.01481029
H      -1.05314632      0.50637563      0.93879893
7
Frame 220  Energy = -245.1619419854 Hartree
C      -0.91040900     -0.54611786      1.00291268
N      -1.90747411     -1.03786072     -0.04243936
O      -1.95104511     -2.22321882     -0.18215911
O      -2.57258381     -0.20842515     -0.60687815
H       0.14632856     -0.84082003      0.73470090
H      -1.15805352     -0.95798958      2.03088216
H      -1.04794781      0.50283406      0.94319661
7
Frame 225  Energy = -245.1620880235 Hartree
C      -0.91389670     -0.54524882      1.00297722
N      -1.90855926     -1.04071848     -0.04424990
O      -1.94912047     -2.22304247     -0.18357724
O      -2.57245436     -0.20852955     -0.60448284
H       0.15186571     -0.83321098      0.74840012
H      -1.15286801     -0.95495575      2.04306223
H      -1.04219406      0.50135910      0.94856803
7
Frame 230  Energy = -245.1620173939 Hartree
C      -0.91726072     -0.54449014      1.00314928
N      -1.90944211     -1.04345025     -0.04575204
O      -1.94733170     -2.22312239     -0.18510410
O      -2.57244459     -0.20860312     -0.60212288
H       0.15358206     -0.82526625      0.76197399
H      -1.14729523     -0.95111410      2.05105512
H      -1.03587863      0.50238668      0.95505345
7
Frame 235  Energy = -245.1620327257 Hartree
C      -0.92051427     -0.54394932      1.00341062
N      -1.91014401     -1.04601908     -0.04693266
O      -1.94562560     -2.22351379     -0.18683173
O      -2.57250197     -0.20856302     -0.59980975
H       0.15142729     -0.81701794      0.77502241
H      -1.14195128     -0.94630657      2.05473063
H      -1.02890921      0.50602699      0.96228660
7
Frame 240  Energy = -245.1622617455 Hartree
C      -0.92356251     -0.54350618      1.00388062
N      -1.91071212     -1.04837783     -0.04776127
O      -1.94398390     -2.22412371     -0.18868985
O      -2.57268585     -0.20846993     -0.59753194
H       0.14560872     -0.80921806      0.78762905
H      -1.13725211     -0.94055486      2.05399977
H      -1.02186202      0.51198478      0.97012553
7
Frame 245  Energy = -245.1622186839 Hartree
C      -0.92642014     -0.54317963      1.00461786
N      -1.91099294     -1.05051336     -0.04821781
O      -1.94240917     -2.22499179     -0.19067688
O      -2.57287475     -0.20836263     -0.59535535
H       0.13639912     -0.80158717      0.79938407
H      -1.13282880     -0.93390432      2.04900779
H      -1.01489524      0.51986286      0.97838216
7
Frame 250  Energy = -245.1623119248 Hartree
C      -0.92909478     -0.54283844      1.00553785
N      -1.91094407     -1.05240177     -0.04827765
O      -1.94088551     -2.22622108     -0.19279140
O      -2.57307538     -0.20831527     -0.59341220
H       0.12481233     -0.79410458      0.81056663
H      -1.12887928     -0.92653034      2.04013343
H      -1.00838925      0.52915391      0.98691200
7
Frame 255  Energy = -245.1622534518 Hartree
C      -0.93154474     -0.54249945      1.00659237
N      -1.91060169     -1.05396906     -0.04792657
O      -1.93939313     -2.22787717     -0.19498010
O      -2.57332568     -0.20827263     -0.59158331
H       0.11135875     -0.78752736      0.82058598
H      -1.12558011     -0.91883880      2.02824518
H      -1.00191890      0.53875801      0.99583345
7
Frame 260  Energy = -245.1622421543 Hartree
C      -0.93385015     -0.54199830      1.00777702
N      -1.90993487     -1.05521164     -0.04718709
O      -1.93795644     -2.22986817     -0.19726943
O      -2.57355259     -0.20826762     -0.58982834
H       0.09713724     -0.78217152      0.82931078
H      -1.12327359     -0.91119020      2.01417332
H      -0.99595453      0.54824485      1.00485932
7
Frame 265  Energy = -245.1622878531 Hartree
C      -0.93610945     -0.54137678      1.00905214
N      -1.90897529     -1.05617575     -0.04601183
O      -1.93668111     -2.23210129     -0.19961546
O      -2.57377460     -0.20835227     -0.58812561
H       0.08320691     -0.77825897      0.83613584
H      -1.12211763     -0.90417915      1.99923051
H      -0.99042201      0.55671798      1.01376975
7
Frame 270  Energy = -245.1623772830 Hartree
C      -0.93824331     -0.54052116      1.01033097
N      -1.90776773     -1.05681671     -0.04446352
O      -1.93551148     -2.23470770     -0.20206293
O      -2.57414118     -0.20848139     -0.58653995
H       0.07093847     -0.77587342      0.84053475
H      -1.12270605     -0.89840400      1.98477962
H      -0.98554587      0.56384753      1.02260473
7
Frame 275  Energy = -245.1622283111 Hartree
C      -0.94048394     -0.53922710      1.01152457
N      -1.90638086     -1.05708136     -0.04255580
O      -1.93438205     -2.23752194     -0.20464081
O      -2.57458133     -0.20858481     -0.58499928
H       0.06147458     -0.77530114      0.84247971
H      -1.12537522     -0.89431587      1.97194580
H      -0.98150960      0.56911477      1.03107079
7
Frame 280  Energy = -245.1622811752 Hartree
C      -0.94292473     -0.53734482      1.01244633
N      -1.90482674     -1.05705892     -0.04037419
O      -1.93315651     -2.24057270     -0.20728248
O      -2.57507923     -0.20873996     -0.58352823
H       0.05546585     -0.77648101      0.84222870
H      -1.13048107     -0.89223233      1.96190186
H      -0.97817184      0.57235435      1.03897228
7
Frame 285  Energy = -245.1622593292 Hartree
C      -0.94551156     -0.53498660      1.01308586
N      -1.90310344     -1.05672855     -0.03789383
O      -1.93194700     -2.24384047     -0.20994727
O      -2.57561654     -0.20891554     -0.58217164
H       0.05287018     -0.77965692      0.83924237
H      -1.13854557     -0.89251727      1.95614108
H      -0.97539446      0.57358215      1.04648623
7
Frame 290  Energy = -245.1625034119 Hartree
C      -0.94819426     -0.53225275      1.01347114
N      -1.90123094     -1.05618708     -0.03514157
O      -1.93080733     -2.24711658     -0.21261202
O      -2.57621057     -0.20920062     -0.58087525
H       0.05352826     -0.78461217      0.83414900
H      -1.14953308     -0.89551493      1.95537496
H      -0.97368605      0.57272227      1.05380990
7
Frame 295  Energy = -245.1627220889 Hartree
C      -0.95084814     -0.52912409      1.01362138
N      -1.89927296     -1.05539971     -0.03230509
O      -1.92968151     -2.25046148     -0.21524436
O      -2.57686876     -0.20956983     -0.57965553
H       0.05692265     -0.79127275      0.82719370
H      -1.16293893     -0.90091493      1.95910425
H      -0.97303848      0.57013755      1.06051588
7
Frame 300  Energy = -245.1626659750 Hartree
C      -0.95345913     -0.52564485      1.01368643
N      -1.89712610     -1.05446377     -0.02924138
O      -1.92858825     -2.25379162     -0.21787789
O      -2.57748656     -0.20994408     -0.57844229
H       0.06204633     -0.79914681      0.81865180
H      -1.17858081     -0.90834771      1.96651789
H      -0.97342269      0.56616672      1.06628264
