7
Frame 5  Energy = -244.9344338876 Hartree
C      -0.64120359     -0.66061699      0.71493206
N      -1.87430989     -0.98035264     -0.00712754
O      -2.23497182     -2.14263665      0.04745604
O      -2.42246431     -0.12078367     -0.68211941
H       0.12804033     -1.14335336      0.12465957
H      -0.82126505     -1.12968287      1.68598429
H      -0.52217675      0.37068015      0.71609723
7
Frame 10  Energy = -244.9343975500 Hartree
C      -0.64114953     -0.65727351      0.71703799
N      -1.87166136     -0.97981189     -0.00466943
O      -2.23562001     -2.14699018      0.04552136
O      -2.42311909     -0.11936317     -0.68199173
H       0.11339945     -1.14339535      0.12654968
H      -0.82655972     -1.12560851      1.67282267
H      -0.52400887      0.37300798      0.71297942
7
Frame 15  Energy = -244.9344137596 Hartree
C      -0.64124102     -0.65434745      0.71903574
N      -1.86918815     -0.97923962     -0.00249696
O      -2.23632408     -2.15133131      0.04360798
O      -2.42370788     -0.11799880     -0.68174624
H       0.10044649     -1.14400429      0.12898767
H      -0.83048933     -1.12104728      1.66087704
H      -0.52546072      0.38030351      0.71067024
7
Frame 20  Energy = -244.9343930401 Hartree
C      -0.64148013     -0.65167956      0.72091853
N      -1.86694603     -0.97873168     -0.00072148
O      -2.23698977     -2.15558045      0.04170496
O      -2.42417593     -0.11671963     -0.68138885
H       0.08979162     -1.14527835      0.13165372
H      -0.83294076     -1.11642696      1.65139482
H      -0.52638134      0.39229511      0.70910753
7
Frame 25  Energy = -244.9343176657 Hartree
C      -0.64192937     -0.64911904      0.72265252
N      -1.86507400     -0.97830733      0.00077155
O      -2.23755901     -2.15967267      0.03982942
O      -2.42461411     -0.11540100     -0.68081418
H       0.08196086     -1.14738473      0.13415958
H      -0.83388794     -1.11249256      1.64539989
H      -0.52688456      0.40765787      0.70803972
7
Frame 30  Energy = -244.9343426827 Hartree
C      -0.64258656     -0.64665495      0.72420878
N      -1.86358321     -0.97805683      0.00192462
O      -2.23791522     -2.16358810      0.03796049
O      -2.42491736     -0.11419922     -0.67993591
H       0.07696743     -1.15017557      0.13631176
H      -0.83390523     -1.10896014      1.64360154
H      -0.52720113      0.42517410      0.70766046
7
Frame 35  Energy = -244.9343865698 Hartree
C      -0.64346587     -0.64405796      0.72550219
N      -1.86251975     -0.97801702      0.00266978
O      -2.23815954     -2.16728587      0.03617491
O      -2.42510345     -0.11317722     -0.67890096
H       0.07533287     -1.15415583      0.13804290
H      -0.83281685     -1.10585985      1.64584629
H      -0.52768681      0.44311070      0.70784624
7
Frame 40  Energy = -244.9343231944 Hartree
C      -0.64466292     -0.64126532      0.72664662
N      -1.86189569     -0.97821098      0.00294536
O      -2.23827255     -2.17067983      0.03444479
O      -2.42514787     -0.11226684     -0.67774447
H       0.07679643     -1.15913045      0.13966568
H      -0.83087072     -1.10352137      1.65212990
H      -0.52802729      0.46055700      0.70875376
7
Frame 45  Energy = -244.9342590068 Hartree
C      -0.64594483     -0.63828252      0.72757306
N      -1.86176349     -0.97865171      0.00289779
O      -2.23824826     -2.17379369      0.03270678
O      -2.42510309     -0.11159141     -0.67647205
H       0.08148893     -1.16452123      0.14124226
H      -0.82794270     -1.10159781      1.66215546
H      -0.52850844      0.47662002      0.71027536
7
Frame 50  Energy = -244.9340355028 Hartree
C      -0.64744294     -0.63506559      0.72834244
N      -1.86211754     -0.97933425      0.00243599
O      -2.23804364     -2.17654022      0.03091764
O      -2.42502802     -0.11101510     -0.67504513
H       0.08874860     -1.17011897      0.14310865
H      -0.82378737     -1.09967205      1.67547173
H      -0.52898732      0.49013723      0.71226861
7
Frame 55  Energy = -244.9341195848 Hartree
C      -0.64897210     -0.63168563      0.72894342
N      -1.86288594     -0.98024864      0.00164677
O      -2.23764760     -2.17895004      0.02916190
O      -2.42488630     -0.11055786     -0.67345273
H       0.09782028     -1.17536147      0.14576388
H      -0.81873351     -1.09751318      1.69113515
H      -0.52917658      0.50044248      0.71495999
7
Frame 60  Energy = -244.9342713311 Hartree
C      -0.65042553     -0.62825975      0.72950619
N      -1.86411551     -0.98149579      0.00051888
O      -2.23715059     -2.18097500      0.02744762
O      -2.42459896     -0.11022436     -0.67170067
H       0.10792945     -1.17951408      0.14931931
H      -0.81259085     -1.09458989      1.70786312
H      -0.52961794      0.50654889      0.71802000
7
Frame 65  Energy = -244.9344453523 Hartree
C      -0.65175695     -0.62498357      0.73010385
N      -1.86579611     -0.98288159     -0.00095522
O      -2.23650802     -2.18252447      0.02572925
O      -2.42422194     -0.11007125     -0.66982891
H       0.11876334     -1.18215019      0.15438284
H      -0.80553155     -1.09048170      1.72477022
H      -0.53027346      0.50900781      0.72133760
7
Frame 70  Energy = -244.9345195035 Hartree
C      -0.65294884     -0.62183865      0.73073403
N      -1.86784121     -0.98442590     -0.00279011
O      -2.23568032     -2.18376414      0.02404984
O      -2.42381070     -0.11005625     -0.66780538
H       0.12939070     -1.18335856      0.16117680
H      -0.79718347     -1.08487996      1.74071489
H      -0.53103037      0.50756973      0.72457697
7
Frame 75  Energy = -244.9343596637 Hartree
C      -0.65414433     -0.61868228      0.73141797
N      -1.87022987     -0.98621316     -0.00486377
O      -2.23471589     -2.18465982      0.02233863
O      -2.42328897     -0.11021148     -0.66570335
H       0.13953400     -1.18270326      0.16975427
H      -0.78818165     -1.07767565      1.75494907
H      -0.53219945      0.50236717      0.72760585
7
Frame 80  Energy = -244.9343398754 Hartree
C      -0.65528571     -0.61555237      0.73222442
N      -1.87292875     -0.98826951     -0.00710445
O      -2.23360000     -2.18521246      0.02058990
O      -2.42269145     -0.11051033     -0.66341276
H       0.14890693     -1.17967245      0.18043741
H      -0.77841490     -1.06907313      1.76655922
H      -0.53399436      0.49389267      0.73069684
7
Frame 85  Energy = -244.9344479454 Hartree
C      -0.65621405     -0.61257475      0.73303976
N      -1.87588990     -0.99051630     -0.00942669
O      -2.23242502     -2.18540844      0.01889771
O      -2.42203749     -0.11101641     -0.66111132
H       0.15719701     -1.17466787      0.19301780
H      -0.76772334     -1.05867293      1.77491779
H      -0.53615579      0.48313969      0.73385824
7
Frame 90  Energy = -244.9344486354 Hartree
C      -0.65689456     -0.60997281      0.73399234
N      -1.87899475     -0.99292472     -0.01188161
O      -2.23116694     -2.18531078      0.01724094
O      -2.42133045     -0.11164358     -0.65881653
H       0.16423326     -1.16764397      0.20706987
H      -0.75635227     -1.04655094      1.78025136
H      -0.53858482      0.47098235      0.73719719
7
Frame 95  Energy = -244.9346570826 Hartree
C      -0.65735451     -0.60783652      0.73510619
N      -1.88231625     -0.99547967     -0.01443836
O      -2.22983704     -2.18493438      0.01569683
O      -2.42073452     -0.11234559     -0.65654071
H       0.16995041     -1.15832838      0.22224794
H      -0.74483445     -1.03295428      1.78267044
H      -0.54096445      0.45893074      0.74051692
7
Frame 100  Energy = -244.9345689093 Hartree
C      -0.65774949     -0.60611141      0.73642200
N      -1.88569147     -0.99816333     -0.01699057
O      -2.22845292     -2.18430134      0.01415303
O      -2.42007795     -0.11314342     -0.65430316
H       0.17465506     -1.14731082      0.23850846
H      -0.73319809     -1.01790285      1.78263912
H      -0.54311942      0.44825750      0.74351603
7
Frame 105  Energy = -244.9345420322 Hartree
C      -0.65804427     -0.60487556      0.73790953
N      -1.88905204     -1.00092640     -0.01957593
O      -2.22703999     -2.18344647      0.01271822
O      -2.41944084     -0.11392503     -0.65207610
H       0.17823038     -1.13498727      0.25513389
H      -0.72188462     -1.00157585      1.78038377
H      -0.54547860      0.43969552      0.74629429
7
Frame 110  Energy = -244.9344002222 Hartree
C      -0.65837906     -0.60410729      0.73959280
N      -1.89231087     -1.00368370     -0.02213319
O      -2.22569835     -2.18239953      0.01141673
O      -2.41892762     -0.11474780     -0.64986922
H       0.18121492     -1.12166975      0.27210494
H      -0.71105750     -0.98437356      1.77604902
H      -0.54810695      0.43440130      0.74838825
7
Frame 115  Energy = -244.9342246046 Hartree
C      -0.65864435     -0.60388106      0.74151711
N      -1.89535271     -1.00640873     -0.02459137
O      -2.22433412     -2.18125813      0.01013980
O      -2.41861106     -0.11556975     -0.64767973
H       0.18390861     -1.10757394      0.28887315
H      -0.70092626     -0.96684063      1.77052810
H      -0.55079224      0.43317860      0.74947993
7
Frame 120  Energy = -244.9342232592 Hartree
C      -0.65897117     -0.60420183      0.74373207
N      -1.89815821     -1.00917163     -0.02689900
O      -2.22297841     -2.18006610      0.00880675
O      -2.41844936     -0.11638507     -0.64558694
H       0.18723707     -1.09345108      0.30479428
H      -0.69187424     -0.94957178      1.76460857
H      -0.55366100      0.43625168      0.74982224
7
Frame 125  Energy = -244.9344351356 Hartree
C      -0.65940203     -0.60490176      0.74600046
N      -1.90060115     -1.01189435     -0.02903511
O      -2.22167754     -2.17886288      0.00750623
O      -2.41841630     -0.11712762     -0.64362195
H       0.19160917     -1.07976961      0.31925711
H      -0.68446114     -0.93330670      1.75969794
H      -0.55691838      0.44309412      0.74958452
7
Frame 130  Energy = -244.9343038929 Hartree
C      -0.65998965     -0.60580464      0.74822897
N      -1.90263805     -1.01455090     -0.03107993
O      -2.22046513     -2.17770978      0.00619904
O      -2.41851837     -0.11782401     -0.64178272
H       0.19748022     -1.06709122      0.33175538
H      -0.67878590     -0.91797197      1.75678220
H      -0.56021638      0.45299358      0.74854260
7
Frame 135  Energy = -244.9341889510 Hartree
C      -0.66079151     -0.60681012      0.75030496
N      -1.90431724     -1.01711383     -0.03296386
O      -2.21936964     -2.17658792      0.00476135
O      -2.41873863     -0.11840481     -0.64005181
H       0.20493855     -1.05572496      0.34244804
H      -0.67484457     -0.90408381      1.75677634
H      -0.56403727      0.46531289      0.74665952
7
Frame 140  Energy = -244.9342831185 Hartree
C      -0.66167939     -0.60781050      0.75227455
N      -1.90568952     -1.01942456     -0.03459117
O      -2.21838697     -2.17552062      0.00322231
O      -2.41916222     -0.11885796     -0.63847783
H       0.21445455     -1.04576133      0.35092491
H      -0.67298291     -0.89188660      1.76027502
H      -0.56831079      0.47869983      0.74388547
7
Frame 145  Energy = -244.9345740552 Hartree
C      -0.66265742     -0.60860301      0.75411599
N      -1.90668619     -1.02139538     -0.03592569
O      -2.21752141     -2.17469155      0.00176617
O      -2.41984965     -0.11922417     -0.63709010
H       0.22552788     -1.03734257      0.35688478
H      -0.67325950     -0.88165490      1.76761937
H      -0.57257845      0.49191349      0.74028676
7
Frame 150  Energy = -244.9344486171 Hartree
C      -0.66377054     -0.60920583      0.75578446
N      -1.90731728     -1.02314464     -0.03705336
O      -2.21676787     -2.17407552      0.00022743
O      -2.42075904     -0.11952030     -0.63579684
H       0.23780724     -1.03028461      0.36025290
H      -0.67535166     -0.87329292      1.77848031
H      -0.57732971      0.50392570      0.73597039
7
Frame 155  Energy = -244.9344147397 Hartree
C      -0.66508022     -0.60946923      0.75731941
N      -1.90744523     -1.02469489     -0.03792683
O      -2.21616529     -2.17370060     -0.00141747
O      -2.42189030     -0.11974397     -0.63466845
H       0.25067393     -1.02409336      0.36158923
H      -0.67929220     -0.86653945      1.79237188
H      -0.58287657      0.51385773      0.73048096
7
Frame 160  Energy = -244.9342823137 Hartree
C      -0.66637376     -0.60941360      0.75881889
N      -1.90711956     -1.02603457     -0.03856688
O      -2.21569625     -2.17360026     -0.00310295
O      -2.42328619     -0.11989115     -0.63371210
H       0.26329576     -1.01882957      0.36133474
H      -0.68515791     -0.86151121      1.80810177
H      -0.58919396      0.52108377      0.72402359
7
Frame 165  Energy = -244.9342943113 Hartree
C      -0.66761426     -0.60898043      0.76038479
N      -1.90621710     -1.02719467     -0.03892574
O      -2.21538292     -2.17382771     -0.00480772
O      -2.42495249     -0.11998423     -0.63294389
H       0.27531951     -1.01425159      0.35977298
H      -0.69249792     -0.85783239      1.82413851
H      -0.59658548      0.52523636      0.71674909
7
Frame 170  Energy = -244.9344420793 Hartree
C      -0.66879558     -0.60817407      0.76203601
N      -1.90486399     -1.02797366     -0.03896324
O      -2.21519538     -2.17438091     -0.00649236
O      -2.42675859     -0.11996529     -0.63236559
H       0.28563693     -1.01073594      0.35734598
H      -0.70137767     -0.85500534      1.83975233
H      -0.60455400      0.52621009      0.70901373
7
Frame 175  Energy = -244.9344605123 Hartree
C      -0.66978972     -0.60708268      0.76376099
N      -1.90302688     -1.02837511     -0.03877087
O      -2.21516476     -2.17521051     -0.00820341
O      -2.42868083     -0.11982012     -0.63199862
H       0.29389663     -1.00782433      0.35450038
H      -0.71143660     -0.85317463      1.85407114
H      -0.61311206      0.52369422      0.70107267
7
Frame 180  Energy = -244.9344130978 Hartree
C      -0.67056084     -0.60576621      0.76564163
N      -1.90068117     -1.02838463     -0.03830181
O      -2.21531306     -2.17634391     -0.00998167
O      -2.43077732     -0.11957467     -0.63174425
H       0.29936578     -1.00491211      0.35167854
H      -0.72252291     -0.85212445      1.86603906
H      -0.62245384      0.51797929      0.69275893
7
Frame 185  Energy = -244.9342710234 Hartree
C      -0.67109423     -0.60423658      0.76764890
N      -1.89787897     -1.02802846     -0.03752384
O      -2.21550412     -2.17773858     -0.01174744
O      -2.43297188     -0.11931814     -0.63165548
H       0.30196365     -1.00214709      0.34896315
H      -0.73478072     -0.85129614      1.87516266
H      -0.63212430      0.50955034      0.68425235
7
Frame 190  Energy = -244.9341694990 Hartree
C      -0.67144830     -0.60249687      0.76984966
N      -1.89466935     -1.02731410     -0.03654517
O      -2.21570287     -2.17942132     -0.01348652
O      -2.43536816     -0.11902125     -0.63159716
H       0.30120618     -0.99915947      0.34697806
H      -0.74766679     -0.85083425      1.88070968
H      -0.64216563      0.49892507      0.67590134
7
Frame 195  Energy = -244.9343935528 Hartree
C      -0.67158774     -0.60071953      0.77216887
N      -1.89114649     -1.02628405     -0.03533048
O      -2.21595110     -2.18123443     -0.01528988
O      -2.43789563     -0.11862401     -0.63164679
H       0.29688608     -0.99642047      0.34548239
H      -0.76099527     -0.85047430      1.88234825
H      -0.65219364      0.48748627      0.66763424
7
Frame 200  Energy = -244.9344123859 Hartree
C      -0.67163949     -0.59895162      0.77458493
N      -1.88747572     -1.02503976     -0.03393658
O      -2.21626084     -2.18317653     -0.01716261
O      -2.44045353     -0.11824972     -0.63173277
H       0.28900804     -0.99348045      0.34441172
H      -0.77469478     -0.85006124      1.88049761
H      -0.66204387      0.47615535      0.65959721
7
Frame 205  Energy = -244.9343120360 Hartree
C      -0.67159954     -0.59712596      0.77713772
N      -1.88366172     -1.02357536     -0.03242352
O      -2.21664983     -2.18528803     -0.01914133
O      -2.44303827     -0.11782406     -0.63192059
H       0.27828654     -0.99046357      0.34403872
H      -0.78821642     -0.84974269      1.87481991
H      -0.67147256      0.46579291      0.65208682
7
Frame 210  Energy = -244.9343409890 Hartree
C      -0.67157049     -0.59539484      0.77986450
N      -1.87969576     -1.02192386     -0.03082888
O      -2.21701064     -2.18746476     -0.02123293
O      -2.44559337     -0.11743177     -0.63218284
H       0.26532360     -0.98767942      0.34417489
H      -0.80163461     -0.84915148      1.86560755
H      -0.68055457      0.45731846      0.64492806
7
Frame 215  Energy = -244.9342573952 Hartree
C      -0.67153546     -0.59384976      0.78267171
N      -1.87565202     -1.02016853     -0.02923713
O      -2.21735954     -2.18967677     -0.02332998
O      -2.44807626     -0.11709703     -0.63245621
H       0.25086093     -0.98551990      0.34456804
H      -0.81512196     -0.84882939      1.85367115
H      -0.68920530      0.45185835      0.63838465
7
Frame 220  Energy = -244.9343469942 Hartree
C      -0.67160195     -0.59252701      0.78548760
N      -1.87159148     -1.01836084     -0.02755320
O      -2.21760853     -2.19190924     -0.02536466
O      -2.45047552     -0.11684564     -0.63276975
H       0.23564559     -0.98425993      0.34498632
H      -0.82819380     -0.84885249      1.84001325
H      -0.69755602      0.44991900      0.63240784
7
Frame 225  Energy = -244.9343614051 Hartree
C      -0.67187225     -0.59138824      0.78820650
N      -1.86758157     -1.01655726     -0.02588985
O      -2.21776159     -2.19405553     -0.02732721
O      -2.45283421     -0.11677207     -0.63312799
H       0.22079860     -0.98428518      0.34528422
H      -0.84080434     -0.84927785      1.82539371
H      -0.70548167      0.45188976      0.62690173
7
Frame 230  Energy = -244.9342274203 Hartree
C      -0.67252142     -0.59033754      0.79082901
N      -1.86370856     -1.01487866     -0.02436076
O      -2.21766988     -2.19614077     -0.02921736
O      -2.45510835     -0.11682305     -0.63342556
H       0.20702726     -0.98582612      0.34527125
H      -0.85368975     -0.85031584      1.81114245
H      -0.71284664      0.45733511      0.62199058
7
Frame 235  Energy = -244.9339427357 Hartree
C      -0.67351354     -0.58933554      0.79326490
N      -1.86000738     -1.01320558     -0.02297932
O      -2.21740242     -2.19809301     -0.03099801
O      -2.45735517     -0.11705983     -0.63364742
H       0.19484694     -0.98913466      0.34494667
H      -0.86653304     -0.85201037      1.79808165
H      -0.71939560      0.46553093      0.61801356
7
Frame 240  Energy = -244.9339476761 Hartree
C      -0.67482796     -0.58817218      0.79542132
N      -1.85646328     -1.01165131     -0.02179967
O      -2.21696805     -2.19985168     -0.03273185
O      -2.45947210     -0.11746380     -0.63380317
H       0.18481720     -0.99410086      0.34392775
H      -0.87933530     -0.85441821      1.78792293
H      -0.72467531      0.47586450      0.61523618
7
Frame 245  Energy = -244.9340697712 Hartree
C      -0.67646450     -0.58681443      0.79728812
N      -1.85315558     -1.01032049     -0.02077774
O      -2.21642184     -2.20134891     -0.03444144
O      -2.46140165     -0.11798917     -0.63389513
H       0.17763597     -1.00071697      0.34224835
H      -0.89208167     -0.85796442      1.78137989
H      -0.72869425      0.48755544      0.61421667
7
Frame 250  Energy = -244.9338879511 Hartree
C      -0.67841305     -0.58517113      0.79881127
N      -1.85018631     -1.00914264     -0.01985685
O      -2.21574267     -2.20257261     -0.03613411
O      -2.46313310     -0.11883055     -0.63390859
H       0.17309315     -1.00930074      0.34001279
H      -0.90483849     -0.86282817      1.77906917
H      -0.73149301      0.49962707      0.61479934
7
Frame 255  Energy = -244.9340151330 Hartree
C      -0.68063977     -0.58324327      0.79980133
N      -1.84762211     -1.00815664     -0.01913504
O      -2.21488506     -2.20343355     -0.03782495
O      -2.46461874     -0.11996677     -0.63373874
H       0.17092917     -1.01915741      0.33722570
H      -0.91735189     -0.86886764      1.78078281
H      -0.73315369      0.51140895      0.61687669
7
Frame 260  Energy = -244.9340184505 Hartree
C      -0.68320122     -0.58101838      0.80037203
N      -1.84563573     -1.00726784     -0.01864146
O      -2.21385607     -2.20386484     -0.03941418
O      -2.46592990     -0.12132031     -0.63349340
H       0.17050566     -1.03007416      0.33446921
H      -0.92933506     -0.87600813      1.78600120
H      -0.73347729      0.52228708      0.62060487
7
Frame 265  Energy = -244.9339563802 Hartree
C      -0.68609365     -0.57845895      0.80053169
N      -1.84416901     -1.00647895     -0.01833798
O      -2.21255104     -2.20395026     -0.04091676
O      -2.46714398     -0.12287172     -0.63316639
H       0.17146772     -1.04144778      0.33214250
H      -0.94023035     -0.88385621      1.79411793
H      -0.73263733      0.53133014      0.62579518
7
Frame 270  Energy = -244.9339775771 Hartree
C      -0.68922553     -0.57564771      0.80044964
N      -1.84322033     -1.00594258     -0.01826768
O      -2.21100181     -2.20377262     -0.04232608
O      -2.46815333     -0.12453488     -0.63260807
H       0.17303659     -1.05290838      0.33072555
H      -0.95017556     -0.89219943      1.80381324
H      -0.73042402      0.53800829      0.63261909
7
Frame 275  Energy = -244.9339866487 Hartree
C      -0.69262179     -0.57264605      0.80015427
N      -1.84288817     -1.00567761     -0.01843645
O      -2.20918138     -2.20317710     -0.04365199
O      -2.46899587     -0.12637972     -0.63194280
H       0.17463734     -1.06403359      0.33063294
H      -0.95887848     -0.90039160      1.81398623
H      -0.72685035      0.54201157      0.64082957
7
Frame 280  Energy = -244.9338417660 Hartree
C      -0.69607397     -0.56953016      0.79966678
N      -1.84312780     -1.00568950     -0.01881890
O      -2.20711643     -2.20217162     -0.04490817
O      -2.46964922     -0.12846173     -0.63120879
H       0.17573267     -1.07426518      0.33272935
H      -0.96573557     -0.90798709      1.82387192
H      -0.72171827      0.54319752      0.65080219
7
Frame 285  Energy = -244.9335940673 Hartree
C      -0.69961023     -0.56638782      0.79907163
N      -1.84398011     -1.00590323     -0.01942149
O      -2.20487995     -2.20082041     -0.04606303
O      -2.47017383     -0.13066414     -0.63030527
H       0.17580523     -1.08341254      0.33655315
H      -0.97142999     -0.91501959      1.83287011
H      -0.71514633      0.54175885      0.66245654
7
Frame 290  Energy = -244.9337196172 Hartree
C      -0.70320148     -0.56340664      0.79845415
N      -1.84538550     -1.00633610     -0.02023683
O      -2.20242766     -2.19919982     -0.04715681
O      -2.47056315     -0.13293957     -0.62931135
H       0.17479382     -1.09095266      0.34246707
H      -0.97558841     -0.92097189      1.83989682
H      -0.70768885      0.53832433      0.67530116
7
Frame 295  Energy = -244.9337497336 Hartree
C      -0.70680211     -0.56058146      0.79795494
N      -1.84726360     -1.00704219     -0.02129189
O      -2.19975347     -2.19729990     -0.04805636
O      -2.47077661     -0.13532386     -0.62830231
H       0.17283799     -1.09683586      0.35054291
H      -0.97763113     -0.92526653      1.84417549
H      -0.69962557      0.53328315      0.68905968
7
Frame 300  Energy = -244.9336978909 Hartree
C      -0.71037657     -0.55806240      0.79761281
N      -1.84960622     -1.00801047     -0.02260078
O      -2.19682293     -2.19521336     -0.04883470
O      -2.47090146     -0.13781795     -0.62729938
H       0.16942964     -1.10076797      0.36072374
H      -0.97752567     -0.92779245      1.84517598
H      -0.69115769      0.52702939      0.70355506
