7
Frame 5  Energy = -244.9345669281 Hartree
C      -0.71386103     -0.55600324      0.79734441
N      -1.85239632     -1.00911264     -0.02413065
O      -2.19367102     -2.19295342     -0.04953544
O      -2.47097423     -0.14034824     -0.62623975
H       0.16456553     -1.10265339      0.37274163
H      -0.97554806     -0.92893595      1.84301181
H      -0.68211626      0.52024031      0.71846329
7
Frame 10  Energy = -244.9346351327 Hartree
C      -0.71730696     -0.55443848      0.79738479
N      -1.85551400     -1.01015558     -0.02574213
O      -2.19033416     -2.19062998     -0.05010493
O      -2.47099543     -0.14291891     -0.62512790
H       0.15846311     -1.10240131      0.38605681
H      -0.97169776     -0.92849507      1.83772829
H      -0.67235581      0.51419667      0.73362276
7
Frame 15  Energy = -244.9348273076 Hartree
C      -0.72070629     -0.55330089      0.79770609
N      -1.85886293     -1.01123189     -0.02744274
O      -2.18690301     -2.18818485     -0.05060281
O      -2.47102443     -0.14536050     -0.62407212
H       0.15155630     -1.10064520      0.40000350
H      -0.96652466     -0.92664384      1.82957899
H      -0.66197471      0.50921394      0.74902428
7
Frame 20  Energy = -244.9348891976 Hartree
C      -0.72405572     -0.55267317      0.79824325
N      -1.86248331     -1.01236995     -0.02919717
O      -2.18336357     -2.18575116     -0.05107084
O      -2.47108520     -0.14766722     -0.62301591
H       0.14444967     -1.09769000      0.41489430
H      -0.96021357     -0.92365318      1.81906277
H      -0.65152203      0.50632402      0.76387280
7
Frame 25  Energy = -244.9349238693 Hartree
C      -0.72747682     -0.55254074      0.79895850
N      -1.86624556     -1.01329587     -0.03094309
O      -2.17971784     -2.18333739     -0.05144916
O      -2.47114682     -0.14987382     -0.62200707
H       0.13749366     -1.09381297      0.43023241
H      -0.95331682     -0.91988244      1.80740610
H      -0.64099159      0.50562534      0.77813517
7
Frame 30  Energy = -244.9350727499 Hartree
C      -0.73097531     -0.55279840      0.79980061
N      -1.87009807     -1.01402204     -0.03263391
O      -2.17601482     -2.18104121     -0.05182161
O      -2.47120857     -0.15190935     -0.62114650
H       0.13117617     -1.08950183      0.44557021
H      -0.94618817     -0.91577969      1.79567604
H      -0.63061253      0.50726198      0.79112782
7
Frame 35  Energy = -244.9351690649 Hartree
C      -0.73445411     -0.55332968      0.80069228
N      -1.87393136     -1.01463158     -0.03424536
O      -2.17228561     -2.17885926     -0.05224710
O      -2.47141592     -0.15381220     -0.62047179
H       0.12657967     -1.08486701      0.46036003
H      -0.93930374     -0.91141884      1.78502939
H      -0.62040986      0.51063321      0.80321738
7
Frame 40  Energy = -244.9351997670 Hartree
C      -0.73796198     -0.55413007      0.80165850
N      -1.87767245     -1.01507066     -0.03575229
O      -2.16859533     -2.17687859     -0.05259054
O      -2.47178450     -0.15547323     -0.61996019
H       0.12410248     -1.08010709      0.47407512
H      -0.93329766     -0.90698941      1.77627647
H      -0.61053153      0.51520048      0.81461765
7
Frame 45  Energy = -244.9352088439 Hartree
C      -0.74142028     -0.55511776      0.80259767
N      -1.88126083     -1.01528402     -0.03713111
O      -2.16488207     -2.17531452     -0.05290374
O      -2.47234158     -0.15687333     -0.61961675
H       0.12395852     -1.07589508      0.48630385
H      -0.92856679     -0.90342530      1.77045109
H      -0.60108931      0.52054567      0.82511144
7
Frame 50  Energy = -244.9352243758 Hartree
C      -0.74488654     -0.55620536      0.80347654
N      -1.88467192     -1.01525489     -0.03839778
O      -2.16114709     -2.17413413     -0.05315565
O      -2.47314427     -0.15803689     -0.61946384
H       0.12627140     -1.07270457      0.49670739
H      -0.92542506     -0.90085292      1.76866220
H      -0.59258906      0.52626711      0.83470497
7
Frame 55  Energy = -244.9351724604 Hartree
C      -0.74831320     -0.55717412      0.80427768
N      -1.88783502     -1.01494257     -0.03942348
O      -2.15740512     -2.17329316     -0.05340152
O      -2.47412327     -0.15889088     -0.61944905
H       0.13111264     -1.07023897      0.50551012
H      -0.92380610     -0.89950977      1.77147451
H      -0.58518624      0.53160730      0.84289670
7
Frame 60  Energy = -244.9353332670 Hartree
C      -0.75162525     -0.55807791      0.80494869
N      -1.89067955     -1.01436278     -0.04028105
O      -2.15368953     -2.17279246     -0.05362232
O      -2.47526600     -0.15946057     -0.61964292
H       0.13798436     -1.06899297      0.51262145
H      -0.92381517     -0.89965680      1.77910487
H      -0.57878596      0.53585959      0.84984709
7
Frame 65  Energy = -244.9353515618 Hartree
C      -0.75471917     -0.55895142      0.80557626
N      -1.89327894     -1.01350228     -0.04082341
O      -2.15006281     -2.17267095     -0.05382934
O      -2.47664424     -0.15977518     -0.62008667
H       0.14643195     -1.06871767      0.51813722
H      -0.92574344     -0.90090445      1.79089104
H      -0.57406858      0.53889160      0.85540224
7
Frame 70  Energy = -244.9352846102 Hartree
C      -0.75766182     -0.55981877      0.80621742
N      -1.89560111     -1.01245018     -0.04108041
O      -2.14650271     -2.17298536     -0.05404098
O      -2.47828242     -0.15983220     -0.62076799
H       0.15555708     -1.06861026      0.52193698
H      -0.92901837     -0.90308557      1.80585708
H      -0.57110086      0.54046082      0.85982741
7
Frame 75  Energy = -244.9353767283 Hartree
C      -0.76036687     -0.56061677      0.80704997
N      -1.89756420     -1.01120269     -0.04121689
O      -2.14298789     -2.17368753     -0.05430148
O      -2.48018187     -0.15958776     -0.62167558
H       0.16463689     -1.06843725      0.52432751
H      -0.93350031     -0.90552011      1.82245013
H      -0.56995014      0.54012206      0.86284931
7
Frame 80  Energy = -244.9353572976 Hartree
C      -0.76274762     -0.56140771      0.80800717
N      -1.89914374     -1.00975380     -0.04111208
O      -2.13951871     -2.17482550     -0.05467825
O      -2.48222155     -0.15910903     -0.62279893
H       0.17351106     -1.06821802      0.52536857
H      -0.93905504     -0.90770889      1.83948803
H      -0.57047339      0.53788370      0.86408041
7
Frame 85  Energy = -244.9354072886 Hartree
C      -0.76482672     -0.56216724      0.80927821
N      -1.90034760     -1.00809316     -0.04072836
O      -2.13618460     -2.17639369     -0.05507009
O      -2.48456072     -0.15832533     -0.62416572
H       0.18097886     -1.06781452      0.52513129
H      -0.94529891     -0.90982673      1.85591678
H      -0.57258795      0.53374138      0.86375710
7
Frame 90  Energy = -244.9354241898 Hartree
C      -0.76653037     -0.56301489      0.81088597
N      -1.90122898     -1.00626737     -0.04010465
O      -2.13291795     -2.17829236     -0.05549221
O      -2.48712490     -0.15718913     -0.62572383
H       0.18658955     -1.06715056      0.52407795
H      -0.95217033     -0.91135484      1.87047588
H      -0.57673845      0.52807535      0.86206580
7
Frame 95  Energy = -244.9355927165 Hartree
C      -0.76788236     -0.56395883      0.81296626
N      -1.90177089     -1.00432289     -0.03925956
O      -2.12976752     -2.18057482     -0.05593675
O      -2.48984879     -0.15577264     -0.62744417
H       0.19024698     -1.06579779      0.52244672
H      -0.95984691     -0.91191619      1.88194360
H      -0.58278315      0.52135974      0.85946176
7
Frame 100  Energy = -244.9355902003 Hartree
C      -0.76885012     -0.56501783      0.81556021
N      -1.90202852     -1.00227392     -0.03821920
O      -2.12669760     -2.18310971     -0.05641694
O      -2.49274620     -0.15419480     -0.62932071
H       0.19176275     -1.06411032      0.52050784
H      -0.96773133     -0.91147177      1.88982577
H      -0.59068803      0.51374140      0.85563095
7
Frame 105  Energy = -244.9355335200 Hartree
C      -0.76946008     -0.56623729      0.81860957
N      -1.90203223     -1.00021264     -0.03701664
O      -2.12368253     -2.18580257     -0.05698615
O      -2.49599590     -0.15241067     -0.63141699
H       0.19090595     -1.06205881      0.51834911
H      -0.97563745     -0.91034996      1.89412482
H      -0.60003952      0.50616648      0.85025681
7
Frame 110  Energy = -244.9355757124 Hartree
C      -0.76977473     -0.56773861      0.82217440
N      -1.90182077     -0.99817629     -0.03569788
O      -2.12074432     -2.18867310     -0.05758864
O      -2.49940673     -0.15047861     -0.63371537
H       0.18764995     -1.05954050      0.51591756
H      -0.98350409     -0.90873082      1.89494112
H      -0.61067843      0.49902252      0.84328865
7
Frame 115  Energy = -244.9356430267 Hartree
C      -0.76986763     -0.56951664      0.82615287
N      -1.90139949     -0.99625355     -0.03422291
O      -2.11782817     -2.19161911     -0.05818788
O      -2.50290635     -0.14834917     -0.63606516
H       0.18185726     -1.05633025      0.51326608
H      -0.99094405     -0.90632837      1.89217020
H      -0.62238187      0.49264414      0.83536219
7
Frame 120  Energy = -244.9357476856 Hartree
C      -0.76982775     -0.57161292      0.83064005
N      -1.90086309     -0.99439647     -0.03263016
O      -2.11494269     -2.19464030     -0.05878647
O      -2.50639065     -0.14609900     -0.63840264
H       0.17372877     -1.05262571      0.51051263
H      -0.99805078     -0.90336975      1.88635511
H      -0.63471170      0.48782122      0.82676709
7
Frame 125  Energy = -244.9357801510 Hartree
C      -0.76972631     -0.57395325      0.83542947
N      -1.90016801     -0.99261595     -0.03090767
O      -2.11205090     -2.19762746     -0.05933754
O      -2.50988144     -0.14378867     -0.64078282
H       0.16397724     -1.04879636      0.50791347
H      -1.00483907     -0.89966692      1.87777739
H      -0.64769892      0.48524390      0.81775358
7
Frame 130  Energy = -244.9356539171 Hartree
C      -0.76950710     -0.57649375      0.84047888
N      -1.89936766     -0.99092884     -0.02915854
O      -2.10917418     -2.20058301     -0.05999823
O      -2.51339858     -0.14141757     -0.64315052
H       0.15312805     -1.04490434      0.50555683
H      -1.01138561     -0.89552444      1.86712441
H      -0.66096368      0.48518623      0.80844386
7
Frame 135  Energy = -244.9354210423 Hartree
C      -0.76930603     -0.57914684      0.84565383
N      -1.89844077     -0.98942319     -0.02731002
O      -2.10625851     -2.20342388     -0.06080385
O      -2.51696433     -0.13903395     -0.64556794
H       0.14189146     -1.04119267      0.50302591
H      -1.01742444     -0.89127815      1.85538002
H      -0.67453306      0.48739739      0.79894157
7
Frame 140  Energy = -244.9352325897 Hartree
C      -0.76919539     -0.58183879      0.85086559
N      -1.89746181     -0.98809682     -0.02551503
O      -2.10324219     -2.20619705     -0.06175651
O      -2.52048047     -0.13673405     -0.64793283
H       0.13123741     -1.03836055      0.49994147
H      -1.02350311     -0.88722716      1.84412276
H      -0.68855418      0.49145377      0.78958751
7
Frame 145  Energy = -244.9351566381 Hartree
C      -0.76923221     -0.58433639      0.85608419
N      -1.89647167     -0.98693558     -0.02388792
O      -2.10025766     -2.20883810     -0.06285253
O      -2.52388589     -0.13458573     -0.65031127
H       0.12174157     -1.03704613      0.49648896
H      -1.02960876     -0.88373080      1.83442058
H      -0.70257643      0.49658215      0.78050958
7
Frame 150  Energy = -244.9351352515 Hartree
C      -0.76944237     -0.58650885      0.86108797
N      -1.89556530     -0.98598025     -0.02245033
O      -2.09717468     -2.21133896     -0.06406595
O      -2.52720734     -0.13257793     -0.65257970
H       0.11405758     -1.03721425      0.49249254
H      -1.03583830     -0.88112704      1.82766234
H      -0.71641909      0.50185020      0.77188425
7
Frame 155  Energy = -244.9351569712 Hartree
C      -0.76993089     -0.58831370      0.86574535
N      -1.89474096     -0.98526865     -0.02119491
O      -2.09408084     -2.21359132     -0.06539260
O      -2.53039608     -0.13073258     -0.65471276
H       0.10855971     -1.03883563      0.48809052
H      -1.04243697     -0.87979961      1.82464315
H      -0.72976053      0.50645153      0.76364499
7
Frame 160  Energy = -244.9352717493 Hartree
C      -0.77059670     -0.58974084      0.87001728
N      -1.89415882     -0.98473930     -0.02004580
O      -2.09101838     -2.21554276     -0.06675399
O      -2.53339950     -0.12907118     -0.65669685
H       0.10516981     -1.04182456      0.48303457
H      -1.04964623     -0.87993585      1.82605108
H      -0.74284166      0.51006125      0.75604821
7
Frame 165  Energy = -244.9353000370 Hartree
C      -0.77145591     -0.59078112      0.87380632
N      -1.89378001     -0.98440313     -0.01904494
O      -2.08796433     -2.21724462     -0.06808346
O      -2.53622261     -0.12765284     -0.65847339
H       0.10404850     -1.04623498      0.47753131
H      -1.05749267     -0.88163540      1.83203096
H      -0.75518211      0.51242323      0.74941840
7
Frame 170  Energy = -244.9355317638 Hartree
C      -0.77235181     -0.59135943      0.87706497
N      -1.89356695     -0.98428172     -0.01822376
O      -2.08494689     -2.21856146     -0.06939306
O      -2.53883377     -0.12648881     -0.66013120
H       0.10521051     -1.05153744      0.47192705
H      -1.06578462     -0.88473736      1.84226871
H      -0.76640214      0.51369216      0.74405426
7
Frame 175  Energy = -244.9357278873 Hartree
C      -0.77337256     -0.59147053      0.87994690
N      -1.89347484     -0.98447909     -0.01759261
O      -2.08198171     -2.21953767     -0.07072519
O      -2.54121678     -0.12564315     -0.66157973
H       0.10786855     -1.05749644      0.46674714
H      -1.07405906     -0.88933242      1.85550644
H      -0.77642768      0.51327224      0.73993384
7
Frame 180  Energy = -244.9356893300 Hartree
C      -0.77459961     -0.59112572      0.88242366
N      -1.89361797     -0.98494477     -0.01719929
O      -2.07898053     -2.22011719     -0.07201318
O      -2.54336576     -0.12513356     -0.66276901
H       0.11133779     -1.06365931      0.46227007
H      -1.08210923     -0.89485119      1.87082258
H      -0.78527636      0.51098676      0.73740752
7
Frame 185  Energy = -244.9356963677 Hartree
C      -0.77601287     -0.59038107      0.88457910
N      -1.89403325     -0.98564455     -0.01699329
O      -2.07602766     -2.22032685     -0.07335417
O      -2.54525518     -0.12497562     -0.66370154
H       0.11523767     -1.06976711      0.45867013
H      -1.08919881     -0.90049693      1.88700399
H      -0.79265736      0.50710854      0.73630546
7
Frame 190  Energy = -244.9356665495 Hartree
C      -0.77760732     -0.58943065      0.88651663
N      -1.89470789     -0.98661009     -0.01700493
O      -2.07303286     -2.22019694     -0.07471492
O      -2.54688904     -0.12516857     -0.66438468
H       0.11880321     -1.07529319      0.45672277
H      -1.09521771     -0.90585036      1.90266099
H      -0.79823123      0.50215579      0.73668850
7
Frame 195  Energy = -244.9355138126 Hartree
C      -0.77942489     -0.58838959      0.88839673
N      -1.89571005     -0.98788455     -0.01720280
O      -2.07002621     -2.21966437     -0.07612181
O      -2.54819371     -0.12577379     -0.66487856
H       0.12135186     -1.08026505      0.45659269
H      -1.09937814     -0.91080418      1.91715160
H      -0.80270443      0.49650555      0.73870313
7
Frame 200  Energy = -244.9356187491 Hartree
C      -0.78144111     -0.58728018      0.89009317
N      -1.89689853     -0.98938306     -0.01760620
O      -2.06706378     -2.21881391     -0.07756923
O      -2.54929089     -0.12662183     -0.66504058
H       0.12261382     -1.08446955      0.45814196
H      -1.10174137     -0.91527613      1.92931517
H      -0.80575956      0.49090904      0.74215307
7
Frame 205  Energy = -244.9357233440 Hartree
C      -0.78362831     -0.58628663      0.89169955
N      -1.89836255     -0.99103286     -0.01820060
O      -2.06410573     -2.21765548     -0.07902753
O      -2.55016513     -0.12778111     -0.66496286
H       0.12217357     -1.08702342      0.46129474
H      -1.10212382     -0.91876173      1.93822082
H      -0.80720689      0.48553853      0.74718942
7
Frame 210  Energy = -244.9358849446 Hartree
C      -0.78595023     -0.58543337      0.89324751
N      -1.90009742     -0.99274685     -0.01896972
O      -2.06120690     -2.21627977     -0.08054468
O      -2.55077041     -0.12916803     -0.66461729
H       0.11995312     -1.08799125      0.46599246
H      -1.10065087     -0.92135397      1.94361407
H      -0.80690798      0.48126549      0.75340502
7
Frame 215  Energy = -244.9360371623 Hartree
C      -0.78840884     -0.58476904      0.89476075
N      -1.90214204     -0.99449181     -0.02001458
O      -2.05842639     -2.21468666     -0.08208871
O      -2.55110704     -0.13081272     -0.66397792
H       0.11603488     -1.08767184      0.47213249
H      -1.09728208     -0.92283357      1.94509651
H      -0.80487504      0.47847505      0.76092662
7
Frame 220  Energy = -244.9360000957 Hartree
C      -0.79098081     -0.58421993      0.89639487
N      -1.90431383     -0.99637945     -0.02124177
O      -2.05565184     -2.21287132     -0.08367216
O      -2.55117343     -0.13271761     -0.66315424
H       0.11014534     -1.08611412      0.48022133
H      -1.09192755     -0.92355101      1.94276424
H      -0.80128968      0.47760408      0.76940999
7
Frame 225  Energy = -244.9358517059 Hartree
C      -0.79380731     -0.58381304      0.89801646
N      -1.90655430     -0.99821408     -0.02264476
O      -2.05290027     -2.21089258     -0.08533090
O      -2.55097728     -0.13497669     -0.66212192
H       0.10322351     -1.08298563      0.48999591
H      -1.08506826     -0.92332752      1.93695213
H      -0.79632369      0.47900799      0.77873493
7
Frame 230  Energy = -244.9360335916 Hartree
C      -0.79690854     -0.58350127      0.89966131
N      -1.90888016     -1.00005545     -0.02419114
O      -2.05031140     -2.20880729     -0.08706545
O      -2.55059943     -0.13766595     -0.66083299
H       0.09577929     -1.07895235      0.50111972
H      -1.07733395     -0.92218875      1.92843992
H      -0.79025599      0.48257675      0.78887303
7
Frame 235  Energy = -244.9358113962 Hartree
C      -0.80031203     -0.58330096      0.90135227
N      -1.91126862     -1.00184045     -0.02581928
O      -2.04786628     -2.20660502     -0.08871250
O      -2.55011649     -0.14060940     -0.65939521
H       0.08817046     -1.07429507      0.51311541
H      -1.06930478     -0.92041769      1.91793272
H      -0.78288292      0.48770765      0.79976448
7
Frame 240  Energy = -244.9356693767 Hartree
C      -0.80399642     -0.58303430      0.90297831
N      -1.91364908     -1.00361158     -0.02748775
O      -2.04551669     -2.20434775     -0.09026979
O      -2.54944358     -0.14382675     -0.65773150
H       0.08065505     -1.06909706      0.52533065
H      -1.06082919     -0.91835687      1.90599659
H      -0.77451325      0.49418940      0.81133531
7
Frame 245  Energy = -244.9357068313 Hartree
C      -0.80780892     -0.58263675      0.90440991
N      -1.91590148     -1.00528179     -0.02913136
O      -2.04334813     -2.20218831     -0.09190563
O      -2.54868019     -0.14723104     -0.65589577
H       0.07374814     -1.06381703      0.53749175
H      -1.05249279     -0.91675992      1.89396132
H      -0.76521709      0.50168535      0.82354054
7
Frame 250  Energy = -244.9355371891 Hartree
C      -0.81191312     -0.58208711      0.90566637
N      -1.91804782     -1.00680769     -0.03084188
O      -2.04140195     -2.20012659     -0.09360731
O      -2.54789268     -0.15074949     -0.65386430
H       0.06830736     -1.05932305      0.54928400
H      -1.04475666     -0.91574688      1.88318946
H      -0.75536937      0.50950545      0.83609728
7
Frame 255  Energy = -244.9351421992 Hartree
C      -0.81632739     -0.58120939      0.90663609
N      -1.92009921     -1.00815527     -0.03262239
O      -2.03953790     -2.19823182     -0.09539502
O      -2.54708208     -0.15446048     -0.65175498
H       0.06514263     -1.05571961      0.56021055
H      -1.03790994     -0.91537339      1.87462525
H      -0.74471706      0.51690031      0.84883658
7
Frame 260  Energy = -244.9349936244 Hartree
C      -0.82092140     -0.57989206      0.90726741
N      -1.92204261     -1.00920772     -0.03432081
O      -2.03771044     -2.19651569     -0.09726071
O      -2.54623976     -0.15840667     -0.64961333
H       0.06441074     -1.05301227      0.57034551
H      -1.03204645     -0.91601216      1.86937000
H      -0.73377699      0.52323955      0.86160667
7
Frame 265  Energy = -244.9351924468 Hartree
C      -0.82559219     -0.57816138      0.90755771
N      -1.92375396     -1.00989329     -0.03584247
O      -2.03595906     -2.19507197     -0.09917739
O      -2.54536135     -0.16245716     -0.64743313
H       0.06610446     -1.05161498      0.57900715
H      -1.02794691     -0.91794347      1.86842698
H      -0.72308850      0.52797754      0.87447045
7
Frame 270  Energy = -244.9350649080 Hartree
C      -0.83026900     -0.57605498      0.90742759
N      -1.92516310     -1.01020023     -0.03720665
O      -2.03439016     -2.19378249     -0.10117524
O      -2.54444764     -0.16649678     -0.64516526
H       0.07056627     -1.05141414      0.58666092
H      -1.02588872     -0.92096801      1.87203586
H      -0.71256669      0.53055872      0.88729340
7
Frame 275  Energy = -244.9350612885 Hartree
C      -0.83487746     -0.57358870      0.90688893
N      -1.92623246     -1.01014951     -0.03833957
O      -2.03295895     -2.19274183     -0.10333197
O      -2.54362982     -0.17050907     -0.64290082
H       0.07648897     -1.05219205      0.59348872
H      -1.02576588     -0.92500010      1.87927545
H      -0.70211283      0.53124539      0.89988577
7
Frame 280  Energy = -244.9350995078 Hartree
C      -0.83935827     -0.57069951      0.90603933
N      -1.92691294     -1.00977891     -0.03922624
O      -2.03163016     -2.19202182     -0.10563534
O      -2.54296670     -0.17439893     -0.64075404
H       0.08352358     -1.05366651      0.59944145
H      -1.02760672     -0.93013971      1.88965469
H      -0.69227850      0.53040355      0.91188486
7
Frame 285  Energy = -244.9350524913 Hartree
C      -0.84367096     -0.56753367      0.90505389
N      -1.92712747     -1.00914776     -0.03982299
O      -2.03043610     -2.19160913     -0.10803165
O      -2.54242191     -0.17822686     -0.63874244
H       0.09084446     -1.05523396      0.60481444
H      -1.03117486     -0.93596600      1.90165088
H      -0.68335372      0.52768319      0.92335418
7
Frame 290  Energy = -244.9348467109 Hartree
C      -0.84779458     -0.56427520      0.90406542
N      -1.92681601     -1.00828777     -0.04007366
O      -2.02939540     -2.19160386     -0.11051276
O      -2.54199750     -0.18190866     -0.63691885
H       0.09752373     -1.05662815      0.60918161
H      -1.03619178     -0.94229373      1.91434964
H      -0.67549137      0.52360244      0.93429455
7
Frame 295  Energy = -244.9346611003 Hartree
C      -0.85178942     -0.56096338      0.90313751
N      -1.92602291     -1.00720400     -0.03997546
O      -2.02842101     -2.19202419     -0.11304309
O      -2.54168700     -0.18535114     -0.63530461
H       0.10329190     -1.05748790      0.61265287
H      -1.04231773     -0.94862806      1.92661101
H      -0.66877719      0.51848850      0.94455690
7
Frame 300  Energy = -244.9345715490 Hartree
C      -0.85554389     -0.55764220      0.90247567
N      -1.92481153     -1.00603991     -0.03953031
O      -2.02748305     -2.19271130     -0.11557137
O      -2.54152151     -0.18860554     -0.63389849
H       0.10704254     -1.05742552      0.61555886
H      -1.04944762     -0.95453027      1.93721443
H      -0.66328656      0.51298733      0.95375102
