7
Frame 5  Energy = -244.9356041075 Hartree
C      -0.85895297     -0.55461402      0.90213796
N      -1.92309083     -1.00485249     -0.03872812
O      -2.02660614     -2.19365015     -0.11813014
O      -2.54153892     -0.19157592     -0.63261086
H       0.10846902     -1.05669992      0.61809952
H      -1.05711958     -0.95951711      1.94532661
H      -0.65925385      0.50755440      0.96204046
7
Frame 10  Energy = -244.9356712959 Hartree
C      -0.86190739     -0.55196846      0.90221049
N      -1.92093053     -1.00364411     -0.03755229
O      -2.02580411     -2.19482792     -0.12069084
O      -2.54182752     -0.19428320     -0.63153447
H       0.10734867     -1.05508920      0.62041482
H      -1.06513536     -0.96341863      1.95001572
H      -0.65675345      0.50296341      0.96932982
7
Frame 15  Energy = -244.9357185030 Hartree
C      -0.86445297     -0.54976170      0.90271053
N      -1.91835720     -1.00243171     -0.03601667
O      -2.02504117     -2.19628780     -0.12330106
O      -2.54241000     -0.19666900     -0.63065273
H       0.10373523     -1.05259678      0.62229918
H      -1.07363097     -0.96609352      1.95119382
H      -0.65576311      0.49996784      0.97531849
7
Frame 20  Energy = -244.9357453268 Hartree
C      -0.86658990     -0.54792163      0.90371668
N      -1.91545390     -1.00134331     -0.03419972
O      -2.02427396     -2.19794721     -0.12592604
O      -2.54328054     -0.19874620     -0.62996088
H       0.09744349     -1.04962727      0.62372014
H      -1.08278382     -0.96732203      1.94843428
H      -0.65632216      0.49889856      0.98039307
7
Frame 25  Energy = -244.9358986146 Hartree
C      -0.86834799     -0.54644506      0.90518894
N      -1.91231289     -1.00047846     -0.03209099
O      -2.02348258     -2.19979849     -0.12851464
O      -2.54442640     -0.20051795     -0.62950364
H       0.08911525     -1.04597175      0.62484676
H      -1.09235603     -0.96750634      1.94185215
H      -0.65849362      0.49995382      0.98423255
7
Frame 30  Energy = -244.9359761732 Hartree
C      -0.86978544     -0.54534597      0.90718793
N      -1.90891605     -0.99975530     -0.02975053
O      -2.02266634     -2.20188043     -0.13109680
O      -2.54583315     -0.20190712     -0.62918321
H       0.07908069     -1.04193475      0.62569300
H      -1.10193481     -0.96633182      1.93238507
H      -0.66234140      0.50305077      0.98707169
7
Frame 35  Energy = -244.9359887408 Hartree
C      -0.87091787     -0.54456650      0.90963293
N      -1.90533743     -0.99920336     -0.02723271
O      -2.02190628     -2.20405705     -0.13362243
O      -2.54749427     -0.20290462     -0.62904860
H       0.06779247     -1.03731694      0.62637905
H      -1.11171365     -0.96362319      1.92018481
H      -0.66786611      0.50777981      0.98882861
7
Frame 40  Energy = -244.9362201083 Hartree
C      -0.87178185     -0.54410100      0.91241155
N      -1.90163821     -0.99884905     -0.02460131
O      -2.02122059     -2.20627967     -0.13609630
O      -2.54929288     -0.20360024     -0.62914787
H       0.05601977     -1.03280076      0.62691735
H      -1.12187073     -0.95957649      1.90590966
H      -0.67499132      0.51375466      0.98970565
7
Frame 45  Energy = -244.9360926487 Hartree
C      -0.87240311     -0.54387090      0.91555174
N      -1.89783420     -0.99861163     -0.02191532
O      -2.02053529     -2.20853630     -0.13858358
O      -2.55123106     -0.20395387     -0.62945275
H       0.04465963     -1.02880719      0.62728052
H      -1.13222305     -0.95476330      1.89062689
H      -0.68345975      0.52054062      0.98936537
7
Frame 50  Energy = -244.9360342495 Hartree
C      -0.87294604     -0.54377956      0.91886731
N      -1.89402158     -0.99855529     -0.01922469
O      -2.01979929     -2.21079225     -0.14100061
O      -2.55337339     -0.20401850     -0.62989289
H       0.03411913     -1.02544414      0.62737945
H      -1.14313644     -0.94964253      1.87522909
H      -0.69296805      0.52809945      0.98772840
7
Frame 55  Energy = -244.9358581319 Hartree
C      -0.87331281     -0.54363031      0.92221943
N      -1.89028567     -0.99861950     -0.01654621
O      -2.01904776     -2.21309125     -0.14341147
O      -2.55560750     -0.20387095     -0.63039560
H       0.02517900     -1.02278779      0.62684641
H      -1.15451900     -0.94484703      1.86116204
H      -0.70409163      0.53613618      0.98509432
7
Frame 60  Energy = -244.9358300181 Hartree
C      -0.87347338     -0.54354063      0.92561370
N      -1.88659458     -0.99890926     -0.01399879
O      -2.01824291     -2.21538080     -0.14576900
O      -2.55787205     -0.20349260     -0.63092661
H       0.01840512     -1.02098945      0.62558054
H      -1.16643375     -0.94059745      1.84993186
H      -0.71654303      0.54408958      0.98148734
7
Frame 65  Energy = -244.9355800365 Hartree
C      -0.87353861     -0.54333266      0.92907670
N      -1.88309022     -0.99948777     -0.01163192
O      -2.01728600     -2.21762994     -0.14804664
O      -2.56016813     -0.20295670     -0.63149587
H       0.01430477     -1.02024124      0.62316590
H      -1.17911325     -0.93767559      1.84232127
H      -0.73024990      0.55147370      0.97697472
7
Frame 70  Energy = -244.9355225557 Hartree
C      -0.87348815     -0.54288583      0.93249086
N      -1.87980571     -1.00024509     -0.00947926
O      -2.01626012     -2.21980964     -0.15033122
O      -2.56246635     -0.20223188     -0.63202517
H       0.01325422     -1.02062964      0.62010770
H      -1.19283645     -0.93622381      1.83897139
H      -0.74490149      0.55798722      0.97166400
7
Frame 75  Energy = -244.9356866031 Hartree
C      -0.87337009     -0.54221770      0.93576527
N      -1.87681269     -1.00115922     -0.00772963
O      -2.01510511     -2.22181877     -0.15254166
O      -2.56472597     -0.20151684     -0.63250877
H       0.01528176     -1.02209707      0.61672394
H      -1.20748579     -0.93609425      1.84050750
H      -0.76069361      0.56307477      0.96576969
7
Frame 80  Energy = -244.9358669227 Hartree
C      -0.87332165     -0.54131872      0.93890746
N      -1.87419261     -1.00213665     -0.00637610
O      -2.01383336     -2.22361201     -0.15459349
O      -2.56679663     -0.20076328     -0.63284643
H       0.02029252     -1.02435179      0.61331194
H      -1.22269119     -0.93745334      1.84639328
H      -0.77754099      0.56624564      0.95953667
7
Frame 85  Energy = -244.9357360220 Hartree
C      -0.87327389     -0.54024479      0.94197131
N      -1.87190524     -1.00332185     -0.00544626
O      -2.01243517     -2.22518975     -0.15656555
O      -2.56869871     -0.19994812     -0.63305508
H       0.02747792     -1.02744257      0.60989607
H      -1.23757997     -0.93974994      1.85627608
H      -0.79499402      0.56743576      0.95282869
7
Frame 90  Energy = -244.9357639930 Hartree
C      -0.87321979     -0.53891815      0.94496574
N      -1.87008572     -1.00470360     -0.00488567
O      -2.01088456     -2.22654682     -0.15859325
O      -2.57048475     -0.19909512     -0.63313835
H       0.03632901     -1.03083859      0.60713355
H      -1.25143774     -0.94243873      1.86932434
H      -0.81275700      0.56652116      0.94548229
7
Frame 95  Energy = -244.9357646743 Hartree
C      -0.87316338     -0.53750640      0.94792971
N      -1.86872445     -1.00619436     -0.00480065
O      -2.00920838     -2.22770439     -0.16054376
O      -2.57205046     -0.19827017     -0.63308697
H       0.04624764     -1.03397433      0.60542570
H      -1.26394757     -0.94499312      1.88421881
H      -0.83067141      0.56389308      0.93800310
7
Frame 100  Energy = -244.9356280928 Hartree
C      -0.87309263     -0.53608936      0.95088664
N      -1.86787153     -1.00773016     -0.00512870
O      -2.00748511     -2.22870271     -0.16240917
O      -2.57334830     -0.19748740     -0.63291298
H       0.05630471     -1.03647292      0.60495871
H      -1.27491617     -0.94668389      1.89957362
H      -0.84857749      0.56029521      0.93026058
7
Frame 105  Energy = -244.9354295326 Hartree
C      -0.87296756     -0.53481782      0.95400019
N      -1.86751936     -1.00931524     -0.00599523
O      -2.00569460     -2.22958970     -0.16423056
O      -2.57449709     -0.19676589     -0.63245734
H       0.06553874     -1.03766594      0.60611315
H      -1.28408694     -0.94743755      1.91454765
H      -0.86624450      0.55546685      0.92244020
7
Frame 110  Energy = -244.9356404927 Hartree
C      -0.87283055     -0.53376772      0.95727996
N      -1.86773799     -1.01102446     -0.00736027
O      -2.00383233     -2.23030898     -0.16594093
O      -2.57547853     -0.19613768     -0.63180698
H       0.07353173     -1.03764006      0.60905061
H      -1.29048479     -0.94699713      1.92804248
H      -0.88344753      0.55027014      0.91477198
7
Frame 115  Energy = -244.9356557159 Hartree
C      -0.87260348     -0.53304730      0.96075753
N      -1.86837329     -1.01282728     -0.00906553
O      -2.00186207     -2.23078071     -0.16745614
O      -2.57627693     -0.19565563     -0.63096190
H       0.07998572     -1.03562575      0.61386861
H      -1.29405874     -0.94495016      1.93912493
H      -0.89973115      0.54523163      0.90721047
7
Frame 120  Energy = -244.9356968487 Hartree
C      -0.87240704     -0.53276727      0.96437378
N      -1.86943812     -1.01473264     -0.01116915
O      -1.99992704     -2.23104966     -0.16887762
O      -2.57693538     -0.19536832     -0.62988938
H       0.08434526     -1.03135112      0.62084342
H      -1.29499156     -0.94097761      1.94784709
H      -0.91536366      0.54054672      0.90013046
7
Frame 125  Energy = -244.9357011252 Hartree
C      -0.87230338     -0.53295958      0.96805331
N      -1.87097413     -1.01671294     -0.01361906
O      -1.99800242     -2.23114275     -0.17020912
O      -2.57751946     -0.19529276     -0.62862410
H       0.08637810     -1.02523024      0.63004473
H      -1.29317344     -0.93507447      1.95372680
H      -0.93035844      0.53680647      0.89340998
7
Frame 130  Energy = -244.9357653441 Hartree
C      -0.87237398     -0.53358951      0.97176907
N      -1.87291702     -1.01874466     -0.01633040
O      -1.99601190     -2.23114942     -0.17145556
O      -2.57785811     -0.19528478     -0.62718669
H       0.08657058     -1.01717660      0.64117657
H      -1.28854426     -0.92736245      1.95676522
H      -0.94413202      0.53428447      0.88702519
7
Frame 135  Energy = -244.9356632754 Hartree
C      -0.87258102     -0.53458705      0.97551913
N      -1.87521440     -1.02081311     -0.01933882
O      -1.99395173     -2.23098361     -0.17264841
O      -2.57790440     -0.19535092     -0.62560051
H       0.08499122     -1.00746237      0.65449725
H      -1.28140842     -0.91793114      1.95700874
H      -0.95656434      0.53289792      0.88095280
7
Frame 140  Energy = -244.9354755328 Hartree
C      -0.87291788     -0.53592459      0.97930229
N      -1.87787786     -1.02294398     -0.02255641
O      -1.99180694     -2.23064299     -0.17376939
O      -2.57778529     -0.19555230     -0.62382076
H       0.08191852     -0.99645853      0.66950501
H      -1.27215086     -0.90702911      1.95508518
H      -0.96760930      0.53289911      0.87552483
7
Frame 145  Energy = -244.9352485513 Hartree
C      -0.87344797     -0.53754537      0.98302766
N      -1.88072939     -1.02516389     -0.02595647
O      -1.98952819     -2.23024780     -0.17483560
O      -2.57752256     -0.19588513     -0.62189605
H       0.07782263     -0.98462501      0.68561286
H      -1.26084113     -0.89517610      1.95126635
H      -0.97732290      0.53430758      0.87076109
7
Frame 150  Energy = -244.9352215384 Hartree
C      -0.87422121     -0.53925979      0.98662760
N      -1.88366741     -1.02736606     -0.02951222
O      -1.98710740     -2.22977886     -0.17589296
O      -2.57712914     -0.19629384     -0.61980373
H       0.07361085     -0.97221274      0.70240012
H      -1.24848609     -0.88290298      1.94682464
H      -0.98542381      0.53663849      0.86661416
7
Frame 155  Energy = -244.9351334557 Hartree
C      -0.87533478     -0.54096280      0.98996471
N      -1.88675010     -1.02946181     -0.03309123
O      -1.98457805     -2.22937822     -0.17698573
O      -2.57658574     -0.19672668     -0.61757718
H       0.07033275     -0.95941168      0.71962410
H      -1.23548169     -0.87064620      1.94267982
H      -0.99146363      0.53961018      0.86329412
7
Frame 160  Energy = -244.9351050246 Hartree
C      -0.87666385     -0.54254801      0.99302548
N      -1.88984022     -1.03141199     -0.03657945
O      -1.98192133     -2.22902651     -0.17806852
O      -2.57595474     -0.19723038     -0.61527375
H       0.06877336     -0.94664298      0.73620033
H      -1.22273213     -0.85841633      1.93981295
H      -0.99556108      0.54246787      0.86086106
7
Frame 165  Energy = -244.9351240459 Hartree
C      -0.87833820     -0.54386408      0.99580646
N      -1.89287311     -1.03333467     -0.03998516
O      -1.97922177     -2.22880318     -0.17904577
O      -2.57520762     -0.19781197     -0.61289764
H       0.06983324     -0.93433266      0.75195315
H      -1.21098919     -0.84702757      1.93940542
H      -0.99794433      0.54489219      0.85956940
7
Frame 170  Energy = -244.9352053778 Hartree
C      -0.88053420     -0.54483840      0.99820715
N      -1.89585682     -1.03514383     -0.04316421
O      -1.97654239     -2.22866047     -0.17998062
O      -2.57441573     -0.19838327     -0.61040657
H       0.07385290     -0.92303639      0.76650376
H      -1.20041591     -0.83728203      1.94246363
H      -0.99860597      0.54653585      0.85926309
7
Frame 175  Energy = -244.9352997135 Hartree
C      -0.88306617     -0.54538566      1.00011190
N      -1.89875331     -1.03687721     -0.04610803
O      -1.97389226     -2.22867642     -0.18100227
O      -2.57359598     -0.19895504     -0.60795123
H       0.08051057     -0.91288711      0.78007029
H      -1.19123528     -0.82954232      1.94964195
H      -0.99793983      0.54730839      0.85981928
7
Frame 180  Energy = -244.9354544249 Hartree
C      -0.88586649     -0.54544702      1.00134924
N      -1.90151937     -1.03849977     -0.04874245
O      -1.97133057     -2.22891245     -0.18207313
O      -2.57276039     -0.19959826     -0.60560380
H       0.08941441     -0.90374367      0.79285892
H      -1.18419098     -0.82335947      1.96079837
H      -0.99572648      0.54682628      0.86129206
7
Frame 185  Energy = -244.9352240187 Hartree
C      -0.88898369     -0.54502792      1.00209940
N      -1.90412707     -1.04005627     -0.05115951
O      -1.96877635     -2.22927613     -0.18316340
O      -2.57190553     -0.20024942     -0.60328434
H       0.10048010     -0.89569082      0.80442274
H      -1.17918711     -0.81871254      1.97556559
H      -0.99203106      0.54531825      0.86354966
7
Frame 190  Energy = -244.9351810659 Hartree
C      -0.89236454     -0.54419417      1.00242277
N      -1.90656064     -1.04157898     -0.05334964
O      -1.96626586     -2.22978421     -0.18438882
O      -2.57104968     -0.20082715     -0.60102526
H       0.11318062     -0.88872835      0.81450320
H      -1.17616491     -0.81553462      1.99324994
H      -0.98721628      0.54307463      0.86657721
7
Frame 195  Energy = -244.9351191795 Hartree
C      -0.89594641     -0.54311766      1.00240573
N      -1.90868058     -1.04300644     -0.05516012
O      -1.96379545     -2.23045801     -0.18571757
O      -2.57039082     -0.20133430     -0.59878978
H       0.12593144     -0.88254577      0.82330373
H      -1.17482638     -0.81332632      2.01256047
H      -0.98170326      0.54005556      0.86996346
7
Frame 200  Energy = -244.9349420450 Hartree
C      -0.89967418     -0.54185766      1.00219136
N      -1.91042431     -1.04428455     -0.05656536
O      -1.96145615     -2.23131065     -0.18709621
O      -2.56985579     -0.20178094     -0.59654737
H       0.13815082     -0.87691196      0.83088777
H      -1.17462360     -0.81193385      2.03242488
H      -0.97536094      0.53679841      0.87366860
7
Frame 205  Energy = -244.9349402266 Hartree
C      -0.90342387     -0.54058385      1.00197563
N      -1.91169734     -1.04559922     -0.05746823
O      -1.95918923     -2.23235976     -0.18859904
O      -2.56948231     -0.20201853     -0.59448711
H       0.14889519     -0.87173517      0.83767339
H      -1.17557450     -0.81053858      2.05134919
H      -0.96844851      0.53388272      0.87813786
7
Frame 210  Energy = -244.9349070577 Hartree
C      -0.90703986     -0.53933243      1.00180356
N      -1.91254056     -1.04688487     -0.05787046
O      -1.95702836     -2.23356681     -0.19027560
O      -2.56926261     -0.20211803     -0.59263441
H       0.15771009     -0.86661381      0.84365545
H      -1.17725188     -0.80925878      2.06784712
H      -0.96120226      0.53127930      0.88316372
7
Frame 215  Energy = -244.9348930536 Hartree
C      -0.91054164     -0.53822266      1.00170883
N      -1.91304834     -1.04800026     -0.05784148
O      -1.95484732     -2.23502864     -0.19202248
O      -2.56926959     -0.20205436     -0.59099075
H       0.16366027     -0.86181589      0.84904054
H      -1.17919664     -0.80815597      2.08084804
H      -0.95325684      0.52972639      0.88884510
7
Frame 220  Energy = -244.9348756345 Hartree
C      -0.91396730     -0.53730632      1.00176914
N      -1.91314879     -1.04897566     -0.05733077
O      -1.95276871     -2.23675188     -0.19387987
O      -2.56948527     -0.20196480     -0.58942628
H       0.16613967     -0.85719462      0.85364828
H      -1.18125935     -0.80695603      2.08977104
H      -0.94512308      0.52988906      0.89495029
7
Frame 225  Energy = -244.9349830219 Hartree
C      -0.91732515     -0.53649351      1.00197263
N      -1.91287832     -1.04973362     -0.05632869
O      -1.95079171     -2.23860733     -0.19587395
O      -2.56992781     -0.20174122     -0.58796066
H       0.16493988     -0.85264986      0.85748767
H      -1.18370354     -0.80550546      2.09406225
H      -0.93713980      0.53159614      0.90122867
7
Frame 230  Energy = -244.9348697341 Hartree
C      -0.92051881     -0.53569613      1.00240666
N      -1.91225599     -1.05037403     -0.05485065
O      -1.94895876     -2.24067780     -0.19798684
O      -2.57058786     -0.20144353     -0.58662407
H       0.16006587     -0.84844108      0.86026654
H      -1.18610888     -0.80409022      2.09374183
H      -0.92927142      0.53496520      0.90783332
7
Frame 235  Energy = -244.9348826893 Hartree
C      -0.92357987     -0.53499837      1.00302260
N      -1.91133765     -1.05090361     -0.05292656
O      -1.94720962     -2.24296473     -0.20029739
O      -2.57139598     -0.20100267     -0.58541175
H       0.15167017     -0.84462008      0.86173944
H      -1.18899321     -0.80259612      2.08899235
H      -0.92140848      0.53986428      0.91442347
7
Frame 240  Energy = -244.9350245876 Hartree
C      -0.92642908     -0.53426881      1.00390635
N      -1.91020670     -1.05131700     -0.05057074
O      -1.94551896     -2.24532238     -0.20272178
O      -2.57239278     -0.20049461     -0.58429440
H       0.14014219     -0.84194923      0.86216787
H      -1.19267843     -0.80105181      2.08003317
H      -0.91412319      0.54586673      0.92089514
7
Frame 245  Energy = -244.9350654220 Hartree
C      -0.92909342     -0.53352831      1.00508052
N      -1.90874712     -1.05163967     -0.04780896
O      -1.94388237     -2.24774018     -0.20524484
O      -2.57343666     -0.19997437     -0.58331895
H       0.12591024     -0.84015108      0.86133780
H      -1.19671144     -0.79947553      2.06731325
H      -0.90757677      0.55257129      0.92710996
7
Frame 250  Energy = -244.9350646734 Hartree
C      -0.93158854     -0.53266009      1.00642207
N      -1.90695391     -1.05188145     -0.04466206
O      -1.94227732     -2.25027536     -0.20785194
O      -2.57451351     -0.19953288     -0.58259805
H       0.11010233     -0.83919950      0.85973783
H      -1.20122221     -0.79798338      2.05150920
H      -0.90215202      0.55958514      0.93298583
7
Frame 255  Energy = -244.9350308462 Hartree
C      -0.93387472     -0.53170635      1.00784347
N      -1.90490064     -1.05199632     -0.04116081
O      -1.94067774     -2.25295321     -0.21047710
O      -2.57564011     -0.19913176     -0.58199258
H       0.09328086     -0.83983637      0.85699791
H      -1.20633790     -0.79689058      2.03377242
H      -0.89741737      0.56602199      0.93871503
7
Frame 260  Energy = -244.9349837650 Hartree
C      -0.93602749     -0.53053648      1.00930334
N      -1.90259352     -1.05200180     -0.03737218
O      -1.93910224     -2.25564855     -0.21313493
O      -2.57672232     -0.19882040     -0.58144231
H       0.07652049     -0.84235234      0.85321569
H      -1.21236568     -0.79643357      2.01517448
H      -0.89381980      0.57173026      0.94409408
7
Frame 265  Energy = -244.9350233894 Hartree
C      -0.93813290     -0.52923215      1.01073078
N      -1.90010107     -1.05195811     -0.03329258
O      -1.93765106     -2.25824314     -0.21577053
O      -2.57775822     -0.19866625     -0.58090608
H       0.06076471     -0.84692583      0.84802161
H      -1.21943790     -0.79704793      1.99719664
H      -0.89124095      0.57612173      0.94899609
7
Frame 270  Energy = -244.9350840242 Hartree
C      -0.94009118     -0.52772557      1.01202000
N      -1.89750428     -1.05182713     -0.02902760
O      -1.93626355     -2.26085070     -0.21841867
O      -2.57887801     -0.19863841     -0.58043010
H       0.04716054     -0.85356655      0.84112677
H      -1.22811640     -0.79913283      1.98123596
H      -0.88983895      0.57918109      0.95355817
7
Frame 275  Energy = -244.9350540995 Hartree
C      -0.94210936     -0.52586379      1.01308040
N      -1.89490626     -1.05155471     -0.02463169
O      -1.93486991     -2.26329659     -0.22109977
O      -2.57999329     -0.19867952     -0.57992526
H       0.03653920     -0.86244708      0.83273516
H      -1.23867781     -0.80289961      1.96826998
H      -0.88971159      0.58069292      0.95758381
7
Frame 280  Energy = -244.9350842167 Hartree
C      -0.94425632     -0.52355324      1.01374315
N      -1.89235069     -1.05122189     -0.02022806
O      -1.93333041     -2.26560848     -0.22374023
O      -2.58107303     -0.19887814     -0.57940109
H       0.02919028     -0.87334258      0.82332644
H      -1.25136746     -0.80838825      1.95911895
H      -0.89061502      0.58076666      0.96096942
7
Frame 285  Energy = -244.9350226700 Hartree
C      -0.94646128     -0.52096499      1.01403368
N      -1.88986359     -1.05079341     -0.01582568
O      -1.93175466     -2.26777333     -0.22629414
O      -2.58208625     -0.19921219     -0.57888949
H       0.02472041     -0.88628276      0.81256439
H      -1.26652433     -0.81566215      1.95474435
H      -0.89229439      0.57965311      0.96397530
7
Frame 290  Energy = -244.9351892192 Hartree
C      -0.94867178     -0.51825571      1.01402605
N      -1.88748851     -1.05034662     -0.01148069
O      -1.93019503     -2.26959591     -0.22873496
O      -2.58304032     -0.19977778     -0.57832574
H       0.02270321     -0.90079823      0.80125198
H      -1.28385233     -0.82477565      1.95524708
H      -0.89513143      0.57745943      0.96687275
7
Frame 295  Energy = -244.9354059631 Hartree
C      -0.95077801     -0.51545372      1.01378416
N      -1.88530806     -1.04982383     -0.00740506
O      -1.92859513     -2.27115577     -0.23102878
O      -2.58393568     -0.20055430     -0.57771832
H       0.02249977     -0.91654607      0.78976794
H      -1.30253681     -0.83517989      1.95958472
H      -0.89898484      0.57466798      0.96929799
7
Frame 300  Energy = -244.9353581329 Hartree
C      -0.95279463     -0.51263611      1.01349028
N      -1.88323242     -1.04929713     -0.00347430
O      -1.92697424     -2.27239315     -0.23320937
O      -2.58466359     -0.20146508     -0.57699162
H       0.02313865     -0.93277095      0.77847149
H      -1.32209101     -0.84635359      1.96659837
H      -0.90369155      0.57165894      0.97098098
