7
Frame 5  Energy = -244.9349036581 Hartree
C      -0.58035670     -0.69546274      0.64289166
N      -1.87695121     -1.00044188     -0.04883318
O      -2.34010062     -2.09312049      0.11582923
O      -2.34471135     -0.11472906     -0.68203613
H       0.24075651     -1.08915518      0.07899433
H      -0.52143239     -1.16399263      1.61380859
H      -0.46400012      0.33170502      0.79353844
7
Frame 10  Energy = -244.9347291663 Hartree
C      -0.57958031     -0.69529676      0.64598464
N      -1.87896178     -1.00006215     -0.05225357
O      -2.33822194     -2.09397144      0.11583219
O      -2.34618099     -0.11556886     -0.68097940
H       0.23962444     -1.09217660      0.07830230
H      -0.53484633     -1.17120073      1.61387465
H      -0.45774890      0.34684607      0.79760380
7
Frame 15  Energy = -244.9346679174 Hartree
C      -0.57871236     -0.69532435      0.64913660
N      -1.88064394     -0.99974059     -0.05520229
O      -2.33644138     -2.09505134      0.11590888
O      -2.34786987     -0.11616087     -0.68017109
H       0.23907217     -1.09599335      0.07624396
H      -0.54934466     -1.17915600      1.61499609
H      -0.45208563      0.36523646      0.80113805
7
Frame 20  Energy = -244.9345824667 Hartree
C      -0.57783658     -0.69535661      0.65231601
N      -1.88186203     -0.99946319     -0.05775661
O      -2.33482187     -2.09630055      0.11606991
O      -2.34979249     -0.11642433     -0.67963368
H       0.23906674     -1.10040132      0.07266944
H      -0.56495685     -1.18788026      1.61687301
H      -0.44716929      0.38504489      0.80356338
7
Frame 25  Energy = -244.9344075159 Hartree
C      -0.57695074     -0.69527512      0.65550866
N      -1.88253420     -0.99918557     -0.05991015
O      -2.33324280     -2.09772946      0.11624137
O      -2.35197665     -0.11637773     -0.67943223
H       0.23951257     -1.10528792      0.06817331
H      -0.58148440     -1.19734355      1.61926206
H      -0.44320206      0.40459038      0.80460907
7
Frame 30  Energy = -244.9344403516 Hartree
C      -0.57591778     -0.69500114      0.65873083
N      -1.88269160     -0.99897277     -0.06165704
O      -2.33167703     -2.09935566      0.11635745
O      -2.35440734     -0.11605597     -0.67963803
H       0.23980039     -1.10985901      0.06291608
H      -0.59843974     -1.20749379      1.62187074
H      -0.44022723      0.42183827      0.80463758
7
Frame 35  Energy = -244.9342862961 Hartree
C      -0.57481776     -0.69450190      0.66206652
N      -1.88237149     -0.99884341     -0.06302691
O      -2.33013178     -2.10122501      0.11652002
O      -2.35704380     -0.11537756     -0.68020885
H       0.23966951     -1.11406111      0.05699045
H      -0.61572328     -1.21750363      1.62435672
H      -0.43799444      0.43548027      0.80357348
7
Frame 40  Energy = -244.9342794337 Hartree
C      -0.57357083     -0.69380450      0.66541472
N      -1.88158765     -0.99881479     -0.06397920
O      -2.32862340     -2.10329072      0.11675145
O      -2.35993477     -0.11433559     -0.68109376
H       0.23913946     -1.11794456      0.05142349
H      -0.63334173     -1.22711462      1.62646348
H      -0.43665084      0.44496682      0.80125297
7
Frame 45  Energy = -244.9343557359 Hartree
C      -0.57227266     -0.69289129      0.66867122
N      -1.88043343     -0.99890806     -0.06455498
O      -2.32712806     -2.10546783      0.11694165
O      -2.36297127     -0.11297848     -0.68232716
H       0.23753001     -1.12083702      0.04635356
H      -0.65084951     -1.23614821      1.62757106
H      -0.43628798      0.45026017      0.79816033
7
Frame 50  Energy = -244.9344092490 Hartree
C      -0.57092761     -0.69181623      0.67190621
N      -1.87884585     -0.99912756     -0.06475156
O      -2.32565926     -2.10772708      0.11716858
O      -2.36622657     -0.11133896     -0.68375610
H       0.23494272     -1.12303717      0.04220605
H      -0.66789254     -1.24463100      1.62736330
H      -0.43696999      0.45080431      0.79467910
7
Frame 55  Energy = -244.9343411500 Hartree
C      -0.56963171     -0.69063031      0.67510842
N      -1.87689509     -0.99943258     -0.06454337
O      -2.32423951     -2.11004395      0.11740045
O      -2.36959139     -0.10940053     -0.68534066
H       0.23134410     -1.12499586      0.03902385
H      -0.68418124     -1.25203026      1.62600879
H      -0.43871368      0.44666186      0.79077895
7
Frame 60  Energy = -244.9343427095 Hartree
C      -0.56838538     -0.68937111      0.67819744
N      -1.87465907     -0.99971748     -0.06401895
O      -2.32284714     -2.11240557      0.11757625
O      -2.37308316     -0.10728862     -0.68717037
H       0.22659064     -1.12645781      0.03728989
H      -0.69967621     -1.25773274      1.62344181
H      -0.44145807      0.43818117      0.78655236
7
Frame 65  Energy = -244.9343041631 Hartree
C      -0.56704083     -0.68798383      0.68105824
N      -1.87221216     -1.00001123     -0.06326434
O      -2.32145020     -2.11481995      0.11769981
O      -2.37671318     -0.10507650     -0.68910752
H       0.22067778     -1.12765833      0.03723240
H      -0.71431345     -1.26164954      1.61975186
H      -0.44502803      0.42580751      0.78211302
7
Frame 70  Energy = -244.9342826302 Hartree
C      -0.56577356     -0.68672090      0.68377458
N      -1.86957985     -1.00020436     -0.06223944
O      -2.32005910     -2.11723570      0.11780359
O      -2.38040444     -0.10273497     -0.69125555
H       0.21389830     -1.12791513      0.03846880
H      -0.72738300     -1.26401373      1.61530388
H      -0.44935985      0.41052362      0.77780171
7
Frame 75  Energy = -244.9342088731 Hartree
C      -0.56463110     -0.68573939      0.68633098
N      -1.86677999     -1.00017071     -0.06101586
O      -2.31870430     -2.11961542      0.11787312
O      -2.38413841     -0.10036010     -0.69354969
H       0.20695834     -1.12776142      0.04107653
H      -0.73850818     -1.26479439      1.61039302
H      -0.45450462      0.39372212      0.77388747
7
Frame 80  Energy = -244.9341779945 Hartree
C      -0.56366366     -0.68510818      0.68883025
N      -1.86399121     -0.99996247     -0.05958303
O      -2.31737419     -2.12191580      0.11786325
O      -2.38794336     -0.09804569     -0.69583861
H       0.19972359     -1.12732629      0.04514883
H      -0.74761863     -1.26444004      1.60512060
H      -0.46019670      0.37664562      0.77066094
7
Frame 85  Energy = -244.9341823195 Hartree
C      -0.56306829     -0.68483254      0.69111840
N      -1.86118686     -0.99955913     -0.05806154
O      -2.31600601     -2.12418072      0.11774287
O      -2.39166485     -0.09579399     -0.69806730
H       0.19268898     -1.12679050      0.05004800
H      -0.75468661     -1.26288777      1.59999366
H      -0.46565747      0.36128951      0.76806618
7
Frame 90  Energy = -244.9340714035 Hartree
C      -0.56290361     -0.68506322      0.69322447
N      -1.85846795     -0.99901750     -0.05633531
O      -2.31462385     -2.12648075      0.11760338
O      -2.39529869     -0.09373975     -0.70026946
H       0.18670973     -1.12623284      0.05559232
H      -0.75984519     -1.26053515      1.59542248
H      -0.47120989      0.34921089      0.76604560
7
Frame 95  Energy = -244.9340936462 Hartree
C      -0.56309580     -0.68578132      0.69504540
N      -1.85583248     -0.99832923     -0.05464140
O      -2.31321188     -2.12879798      0.11738612
O      -2.39877860     -0.09185885     -0.70236364
H       0.18188986     -1.12603268      0.06128526
H      -0.76330226     -1.25736215      1.59202064
H      -0.47653157      0.34129148      0.76520630
7
Frame 100  Energy = -244.9339884765 Hartree
C      -0.56368394     -0.68697771      0.69660357
N      -1.85331761     -0.99737068     -0.05296900
O      -2.31166912     -2.13100054      0.11702393
O      -2.40205822     -0.09005448     -0.70434835
H       0.17874148     -1.12655585      0.06687775
H      -0.76499497     -1.25366445      1.59028262
H      -0.48176800      0.33854808      0.76550288
7
Frame 105  Energy = -244.9340635318 Hartree
C      -0.56471944     -0.68866954      0.69801471
N      -1.85114463     -0.99627335     -0.05128639
O      -2.31001631     -2.13297695      0.11653064
O      -2.40522548     -0.08846976     -0.70624404
H       0.17756276     -1.12772669      0.07205985
H      -0.76496268     -1.24966708      1.59062460
H      -0.48653878      0.34116454      0.76700399
7
Frame 110  Energy = -244.9341664212 Hartree
C      -0.56617399     -0.69078934      0.69910505
N      -1.84928793     -0.99500254     -0.04974079
O      -2.30829046     -2.13478366      0.11583876
O      -2.40822685     -0.08725052     -0.70796729
H       0.17831148     -1.12970603      0.07722148
H      -0.76333670     -1.24571214      1.59286721
H      -0.49094278      0.34882982      0.76962854
7
Frame 115  Energy = -244.9343138527 Hartree
C      -0.56795399     -0.69319987      0.70005346
N      -1.84778764     -0.99365002     -0.04839476
O      -2.30645430     -2.13630192      0.11512444
O      -2.41099902     -0.08628616     -0.70940654
H       0.18108940     -1.13231233      0.08196624
H      -0.75990358     -1.24185684      1.59726290
H      -0.49510710      0.36026807      0.77279504
7
Frame 120  Energy = -244.9342899879 Hartree
C      -0.57015783     -0.69583279      0.70080046
N      -1.84668583     -0.99224184     -0.04722348
O      -2.30445703     -2.13750069      0.11439774
O      -2.41356296     -0.08564036     -0.71059954
H       0.18619530     -1.13534101      0.08641580
H      -0.75491511     -1.23832297      1.60387418
H      -0.49923028      0.37421165      0.77612239
7
Frame 125  Energy = -244.9344229780 Hartree
C      -0.57271250     -0.69855860      0.70125315
N      -1.84599133     -0.99083494     -0.04625278
O      -2.30234290     -2.13830802      0.11359439
O      -2.41576412     -0.08524693     -0.71161847
H       0.19340599     -1.13858106      0.09082591
H      -0.74863016     -1.23489610      1.61254131
H      -0.50262798      0.38945793      0.77960640
7
Frame 130  Energy = -244.9345726390 Hartree
C      -0.57556904     -0.70115151      0.70146151
N      -1.84569996     -0.98945584     -0.04546821
O      -2.30015706     -2.13879677      0.11277758
O      -2.41768394     -0.08515903     -0.71239587
H       0.20190579     -1.14225336      0.09508899
H      -0.74125378     -1.23137866      1.62275289
H      -0.50594611      0.40440088      0.78299038
7
Frame 135  Energy = -244.9343689141 Hartree
C      -0.57858948     -0.70354998      0.70143112
N      -1.84579585     -0.98804349     -0.04492304
O      -2.29787449     -2.13894187      0.11194421
O      -2.41929180     -0.08541577     -0.71284876
H       0.21136908     -1.14615132      0.09940874
H      -0.73268815     -1.22776758      1.63475316
H      -0.50929014      0.41748807      0.78661662
7
Frame 140  Energy = -244.9342747007 Hartree
C      -0.58181947     -0.70569583      0.70118928
N      -1.84626986     -0.98652282     -0.04454063
O      -2.29548165     -2.13883926      0.11101945
O      -2.42066805     -0.08596630     -0.71308799
H       0.22122826     -1.14993667      0.10413536
H      -0.72319815     -1.22389867      1.64782833
H      -0.51263497      0.42799393      0.79055350
7
Frame 145  Energy = -244.9342571603 Hartree
C      -0.58518399     -0.70760959      0.70072999
N      -1.84716514     -0.98499979     -0.04433484
O      -2.29290555     -2.13845406      0.10995512
O      -2.42184248     -0.08688429     -0.71312066
H       0.23088927     -1.15335022      0.10947583
H      -0.71309408     -1.22007637      1.66124477
H      -0.51604031      0.43459184      0.79421969
7
Frame 150  Energy = -244.9343466191 Hartree
C      -0.58858855     -0.70922584      0.70021128
N      -1.84848638     -0.98351959     -0.04427589
O      -2.29024974     -2.13772803      0.10882421
O      -2.42269760     -0.08817078     -0.71288753
H       0.23954945     -1.15591711      0.11557039
H      -0.70277867     -1.21568603      1.67484887
H      -0.51925308      0.43697841      0.79742530
7
Frame 155  Energy = -244.9343670875 Hartree
C      -0.59199557     -0.71038476      0.69966715
N      -1.85019569     -0.98202695     -0.04440171
O      -2.28754471     -2.13667709      0.10762958
O      -2.42331758     -0.08979810     -0.71238867
H       0.24675558     -1.15751255      0.12266499
H      -0.69199479     -1.21080407      1.68787845
H      -0.52225992      0.43553518      0.80024749
7
Frame 160  Energy = -244.9342425154 Hartree
C      -0.59533344     -0.71123054      0.69919294
N      -1.85222903     -0.98072455     -0.04471244
O      -2.28479006     -2.13529470      0.10636914
O      -2.42372321     -0.09171726     -0.71163033
H       0.25246199     -1.15814966      0.13059153
H      -0.68088285     -1.20517954      1.69965920
H      -0.52503634      0.42958326      0.80275681
7
Frame 165  Energy = -244.9342550224 Hartree
C      -0.59856124     -0.71175610      0.69876305
N      -1.85459447     -0.97963459     -0.04518121
O      -2.28190232     -2.13366119      0.10500351
O      -2.42390702     -0.09389894     -0.71063962
H       0.25672104     -1.15776338      0.13922564
H      -0.66967751     -1.19824733      1.70937519
H      -0.52757994      0.41934300      0.80458446
7
Frame 170  Energy = -244.9342419603 Hartree
C      -0.60165442     -0.71199206      0.69844914
N      -1.85721418     -0.97873380     -0.04575544
O      -2.27888911     -2.13178191      0.10346378
O      -2.42386354     -0.09630272     -0.70937950
H       0.25955760     -1.15651660      0.14857644
H      -0.65891315     -1.18996235      1.71622984
H      -0.53001127      0.40558038      0.80603252
7
Frame 175  Energy = -244.9343139890 Hartree
C      -0.60461077     -0.71205517      0.69825694
N      -1.86013614     -0.97804859     -0.04641463
O      -2.27584551     -2.12972865      0.10185313
O      -2.42366069     -0.09884808     -0.70789720
H       0.26071021     -1.15451967      0.15866142
H      -0.64905092     -1.18045145      1.72042412
H      -0.53205978      0.38929365      0.80680568
7
Frame 180  Energy = -244.9342038378 Hartree
C      -0.60737778     -0.71194959      0.69820152
N      -1.86332718     -0.97756216     -0.04712167
O      -2.27273766     -2.12753296      0.10016002
O      -2.42333493     -0.10147636     -0.70628778
H       0.26003949     -1.15163759      0.16929981
H      -0.64001171     -1.17021754      1.72193185
H      -0.53355281      0.37151763      0.80704315
7
Frame 185  Energy = -244.9341992872 Hartree
C      -0.60991590     -0.71177467      0.69835938
N      -1.86671600     -0.97719900     -0.04777682
O      -2.26969188     -2.12525589      0.09837478
O      -2.42285343     -0.10419003     -0.70457546
H       0.25782062     -1.14771505      0.17977664
H      -0.63220521     -1.15920407      1.72104337
H      -0.53424215      0.35351388      0.80696278
7
Frame 190  Energy = -244.9342154969 Hartree
C      -0.61226812     -0.71159235      0.69867720
N      -1.87015257     -0.97693717     -0.04833820
O      -2.26660021     -2.12282917      0.09654446
O      -2.42224142     -0.10695505     -0.70275829
H       0.25443097     -1.14325346      0.18985692
H      -0.62551858     -1.14793146      1.71805043
H      -0.53453073      0.33720509      0.80660844
7
Frame 195  Energy = -244.9342860955 Hartree
C      -0.61458159     -0.71148137      0.69904275
N      -1.87359787     -0.97675583     -0.04882235
O      -2.26343821     -2.12042599      0.09465125
O      -2.42152361     -0.10976132     -0.70091765
H       0.25026414     -1.13849839      0.19924267
H      -0.62046405     -1.13681014      1.71329246
H      -0.53412087      0.32427464      0.80587465
7
Frame 200  Energy = -244.9343676804 Hartree
C      -0.61685541     -0.71144471      0.69940950
N      -1.87687442     -0.97670034     -0.04913797
O      -2.26034102     -2.11812752      0.09269715
O      -2.42070709     -0.11255116     -0.69908958
H       0.24576689     -1.13357406      0.20752989
H      -0.61719971     -1.12632560      1.70763868
H      -0.53319122      0.31610660      0.80523194
7
Frame 205  Energy = -244.9344298083 Hartree
C      -0.61902156     -0.71160453      0.69982328
N      -1.87996788     -0.97681202     -0.04926402
O      -2.25735935     -2.11586060      0.09073164
O      -2.41984303     -0.11521643     -0.69722860
H       0.24144447     -1.12880171      0.21439164
H      -0.61556140     -1.11662433      1.70164549
H      -0.53139046      0.31336425      0.80457941
7
Frame 210  Energy = -244.9344493364 Hartree
C      -0.62121576     -0.71194954      0.70021447
N      -1.88300500     -0.97710988     -0.04925959
O      -2.25449851     -2.11367510      0.08874839
O      -2.41900922     -0.11777086     -0.69547354
H       0.23764245     -1.12460107      0.21920376
H      -0.61583820     -1.10800392      1.69615968
H      -0.52899568      0.31640793      0.80389030
7
Frame 215  Energy = -244.9343749289 Hartree
C      -0.62340717     -0.71232027      0.70057507
N      -1.88589097     -0.97753950     -0.04908362
O      -2.25176799     -2.11171460      0.08673551
O      -2.41825137     -0.12021871     -0.69384801
H       0.23475422     -1.12144560      0.22169788
H      -0.61814780     -1.10078941      1.69179086
H      -0.52608710      0.32480485      0.80279564
7
Frame 220  Energy = -244.9342421482 Hartree
C      -0.62555479     -0.71254524      0.70095550
N      -1.88848901     -0.97800699     -0.04867343
O      -2.24922872     -2.10999101      0.08467583
O      -2.41752105     -0.12251560     -0.69221671
H       0.23311650     -1.11934745      0.22182196
H      -0.62235205     -1.09531996      1.68888311
H      -0.52288467      0.33746702      0.80146668
7
Frame 225  Energy = -244.9340514781 Hartree
C      -0.62772333     -0.71256078      0.70131534
N      -1.89082776     -0.97857162     -0.04797157
O      -2.24683756     -2.10865990      0.08259029
O      -2.41696372     -0.12466337     -0.69063420
H       0.23266374     -1.11840009      0.21946347
H      -0.62847759     -1.09172116      1.68825428
H      -0.51958190      0.35340767      0.79926132
7
Frame 230  Energy = -244.9339809015 Hartree
C      -0.62988021     -0.71233529      0.70160711
N      -1.89279933     -0.97929237     -0.04696539
O      -2.24460530     -2.10765513      0.08046277
O      -2.41649192     -0.12655645     -0.68915102
H       0.23337587     -1.11860583      0.21484436
H      -0.63641874     -1.09028505      1.69054051
H      -0.51634820      0.37093846      0.79654950
7
Frame 235  Energy = -244.9340258036 Hartree
C      -0.63186938     -0.71168893      0.70169967
N      -1.89431220     -0.98005067     -0.04564704
O      -2.24252665     -2.10705480      0.07825688
O      -2.41622698     -0.12812525     -0.68777140
H       0.23483695     -1.11974838      0.20845436
H      -0.64615015     -1.09088972      1.69507433
H      -0.51312968      0.38811944      0.79313636
7
Frame 240  Energy = -244.9338760718 Hartree
C      -0.63381819     -0.71052841      0.70184478
N      -1.89539890     -0.98081979     -0.04402303
O      -2.24066916     -2.10686573      0.07598562
O      -2.41611762     -0.12932101     -0.68654536
H       0.23691217     -1.12181640      0.20033192
H      -0.65721824     -1.09347354      1.70169104
H      -0.50994819      0.40392659      0.78903912
7
Frame 245  Energy = -244.9338721263 Hartree
C      -0.63560587     -0.70881410      0.70208406
N      -1.89596159     -0.98155134     -0.04208948
O      -2.23907599     -2.10712035      0.07368478
O      -2.41605623     -0.13016230     -0.68552454
H       0.23832823     -1.12458850      0.19103251
H      -0.66962408     -1.09752752      1.70989087
H      -0.50743980      0.41735923      0.78438793
7
Frame 250  Energy = -244.9336532945 Hartree
C      -0.63721673     -0.70650855      0.70238841
N      -1.89601989     -0.98221792     -0.03981515
O      -2.23769100     -2.10785963      0.07132438
O      -2.41607062     -0.13062602     -0.68462190
H       0.23870118     -1.12807740      0.18093902
H      -0.68328141     -1.10289851      1.71839670
H      -0.50593177      0.42764444      0.77910535
7
Frame 255  Energy = -244.9335964151 Hartree
C      -0.63855241     -0.70361281      0.70277173
N      -1.89559239     -0.98277327     -0.03737499
O      -2.23651540     -2.10912028      0.06898063
O      -2.41624162     -0.13078593     -0.68385666
H       0.23760915     -1.13170643      0.17050049
H      -0.69775839     -1.10902056      1.72653999
H      -0.50519185      0.43430212      0.77319937
7
Frame 260  Energy = -244.9335125552 Hartree
C      -0.63972110     -0.70012792      0.70317447
N      -1.89473862     -0.98317899     -0.03469743
O      -2.23551736     -2.11091505      0.06673207
O      -2.41651874     -0.13065947     -0.68323652
H       0.23462991     -1.13529826      0.16030976
H      -0.71286206     -1.11560080      1.73345518
H      -0.50508041      0.43685018      0.76689677
7
Frame 265  Energy = -244.9336186963 Hartree
C      -0.64069677     -0.69621893      0.70370629
N      -1.89351823     -0.98337073     -0.03179081
O      -2.23476633     -2.11313588      0.06454693
O      -2.41688510     -0.13024208     -0.68275284
H       0.22951269     -1.13837030      0.15085898
H      -0.72826061     -1.12180701      1.73868617
H      -0.50562449      0.43531370      0.76050514
7
Frame 270  Energy = -244.9335251292 Hartree
C      -0.64141681     -0.69196926      0.70435692
N      -1.89195127     -0.98336007     -0.02870145
O      -2.23419678     -2.11577506      0.06238610
O      -2.41735966     -0.12959703     -0.68245531
H       0.22223520     -1.14078890      0.14255471
H      -0.74377425     -1.12740824      1.74122374
H      -0.50676376      0.42975200      0.75398102
7
Frame 275  Energy = -244.9338518894 Hartree
C      -0.64187357     -0.68738247      0.70525409
N      -1.88999664     -0.98315100     -0.02551001
O      -2.23385873     -2.11882293      0.06023034
O      -2.41792890     -0.12868107     -0.68225919
H       0.21301707     -1.14259077      0.13565994
H      -0.75827091     -1.13160646      1.74064266
H      -0.50834046      0.42133735      0.74756519
7
Frame 280  Energy = -244.9339924547 Hartree
C      -0.64200475     -0.68255217      0.70640968
N      -1.88777237     -0.98282168     -0.02231096
O      -2.23370085     -2.12219478      0.05811233
O      -2.41861047     -0.12764331     -0.68214863
H       0.20184720     -1.14366323      0.13032851
H      -0.77181733     -1.13467903      1.73726948
H      -0.51031468      0.41117851      0.74127389
7
Frame 285  Energy = -244.9339293631 Hartree
C      -0.64191704     -0.67774563      0.70781875
N      -1.88532802     -0.98243964     -0.01915342
O      -2.23371138     -2.12585956      0.05596821
O      -2.41932429     -0.12651973     -0.68212862
H       0.18895487     -1.14406242      0.12660864
H      -0.78434524     -1.13636734      1.73101492
H      -0.51273295      0.40006678      0.73513422
7
Frame 290  Energy = -244.9338416490 Hartree
C      -0.64173038     -0.67306641      0.70939205
N      -1.88268156     -0.98199211     -0.01599454
O      -2.23380619     -2.12977459      0.05377403
O      -2.42012387     -0.12521639     -0.68217171
H       0.17461441     -1.14411524      0.12425334
H      -0.79572115     -1.13648831      1.72242962
H      -0.51535143      0.38925739      0.72935983
7
Frame 295  Energy = -244.9337076063 Hartree
C      -0.64153784     -0.66857364      0.71108556
N      -1.87988375     -0.98149604     -0.01287370
O      -2.23404264     -2.13391499      0.05160294
O      -2.42095868     -0.12375962     -0.68223015
H       0.15934493     -1.14404529      0.12331702
H      -0.80556890     -1.13516487      1.71165876
H      -0.51787041      0.37982871      0.72428894
7
Frame 300  Energy = -244.9335323722 Hartree
C      -0.64135845     -0.66439529      0.71292911
N      -1.87706030     -0.98091692     -0.00988740
O      -2.23443450     -2.13822506      0.04947776
O      -2.42176911     -0.12226454     -0.68219781
H       0.14359472     -1.14372266      0.12346936
H      -0.81422196     -1.13289915      1.69916206
H      -0.52004278      0.37307896      0.71974364
