7
Frame 5  Energy = -244.9338816392 Hartree
C      -0.52761961     -0.75210560      0.58605631
N      -1.83447041     -0.97534015     -0.01540852
O      -2.41287280     -2.06070919      0.20615354
O      -2.30766502     -0.07361968     -0.74307512
H       0.23901584     -1.12493993     -0.10216065
H      -0.47491798     -1.30127688      1.52731889
H      -0.39289241      0.33184234      0.77597499
7
Frame 10  Energy = -244.9335613905 Hartree
C      -0.53008288     -0.74905069      0.58520637
N      -1.83654553     -0.97776408     -0.01502919
O      -2.41254025     -2.06218081      0.20427718
O      -2.30617428     -0.07344885     -0.74196286
H       0.24341683     -1.13047958     -0.09714307
H      -0.46356115     -1.29339104      1.52761128
H      -0.38099519      0.34712560      0.78608335
7
Frame 15  Energy = -244.9335110411 Hartree
C      -0.53232676     -0.74575528      0.58446060
N      -1.83914390     -0.98021244     -0.01488444
O      -2.41209446     -2.06332212      0.20225245
O      -2.30449988     -0.07348092     -0.74070766
H       0.24673326     -1.13544723     -0.09181989
H      -0.45281573     -1.28616603      1.52783757
H      -0.36987703      0.36015150      0.79513671
7
Frame 20  Energy = -244.9334278266 Hartree
C      -0.53428201     -0.74222259      0.58377666
N      -1.84217374     -0.98273536     -0.01496577
O      -2.41149485     -2.06422117      0.20022453
O      -2.30268674     -0.07379825     -0.73917402
H       0.24916915     -1.13978608     -0.08608405
H      -0.44320484     -1.27938339      1.52823518
H      -0.35975840      0.37033065      0.80283837
7
Frame 25  Energy = -244.9336616806 Hartree
C      -0.53587438     -0.73855317      0.58315263
N      -1.84557305     -0.98520357     -0.01517538
O      -2.41074298     -2.06491250      0.19816150
O      -2.30081118     -0.07438007     -0.73738775
H       0.25029360     -1.14345426     -0.08016475
H      -0.43443923     -1.27288863      1.52861398
H      -0.35103123      0.37670340      0.80884752
7
Frame 30  Energy = -244.9335780024 Hartree
C      -0.53708273     -0.73474342      0.58266928
N      -1.84934010     -0.98758770     -0.01557305
O      -2.40987265     -2.06540204      0.19616391
O      -2.29877261     -0.07519209     -0.73534276
H       0.25033066     -1.14608582     -0.07446382
H      -0.42669533     -1.26688598      1.52862733
H      -0.34380371      0.37889283      0.81314564
7
Frame 35  Energy = -244.9335943456 Hartree
C      -0.53782995     -0.73078138      0.58237285
N      -1.85345097     -0.98987454     -0.01611526
O      -2.40892121     -2.06578024      0.19411856
O      -2.29665078     -0.07620667     -0.73314232
H       0.24932982     -1.14765412     -0.06870852
H      -0.41992133     -1.26135530      1.52817205
H      -0.33810160      0.37696090      0.81555247
7
Frame 40  Energy = -244.9335440911 Hartree
C      -0.53819812     -0.72665506      0.58230175
N      -1.85781062     -0.99202441     -0.01683076
O      -2.40782637     -2.06605099      0.19207020
O      -2.29451907     -0.07742359     -0.73076961
H       0.24701694     -1.14827866     -0.06319523
H      -0.41453024     -1.25641271      1.52756848
H      -0.33399369      0.37102543      0.81614072
7
Frame 45  Energy = -244.9336559187 Hartree
C      -0.53816659     -0.72244574      0.58252657
N      -1.86231657     -0.99404515     -0.01769262
O      -2.40660485     -2.06620513      0.19000783
O      -2.29234680     -0.07886375     -0.72839247
H       0.24373839     -1.14793043     -0.05836092
H      -0.41024744     -1.25205584      1.52695130
H      -0.33194044      0.36200282      0.81462217
7
Frame 50  Energy = -244.9338669973 Hartree
C      -0.53783718     -0.71822526      0.58305208
N      -1.86682437     -0.99591111     -0.01858592
O      -2.40533137     -2.06624577      0.18793551
O      -2.29022666     -0.08047934     -0.72596948
H       0.23975466     -1.14679588     -0.05430981
H      -0.40751960     -1.24846503      1.52659560
H      -0.33183709      0.35090142      0.81125685
7
Frame 55  Energy = -244.9339520113 Hartree
C      -0.53724817     -0.71409928      0.58377794
N      -1.87125403     -0.99756944     -0.01946632
O      -2.40394224     -2.06635907      0.18586375
O      -2.28813140     -0.08231732     -0.72350044
H       0.23476734     -1.14496351     -0.05143677
H      -0.40648903     -1.24559888      1.52685494
H      -0.33337183      0.33856062      0.80645419
7
Frame 60  Energy = -244.9337578607 Hartree
C      -0.53642555     -0.71009573      0.58456732
N      -1.87560460     -0.99884236     -0.02029648
O      -2.40249986     -2.06653359      0.18383159
O      -2.28614555     -0.08428425     -0.72098114
H       0.22922493     -1.14257516     -0.04961512
H      -0.40682415     -1.24332039      1.52719081
H      -0.33617012      0.32617476      0.80034396
7
Frame 65  Energy = -244.9337455903 Hartree
C      -0.53547721     -0.70638433      0.58556098
N      -1.87979673     -0.99974808     -0.02105014
O      -2.40097300     -2.06679136      0.18175024
O      -2.28424687     -0.08635341     -0.71845190
H       0.22363907     -1.13960810     -0.04928214
H      -0.40888138     -1.24144367      1.52784913
H      -0.34009006      0.31521613      0.79309725
7
Frame 70  Energy = -244.9339211200 Hartree
C      -0.53445017     -0.70310725      0.58669783
N      -1.88373466     -1.00030405     -0.02171457
O      -2.39939369     -2.06714061      0.17963293
O      -2.28246925     -0.08840043     -0.71597566
H       0.21798107     -1.13651474     -0.05050105
H      -0.41245769     -1.23964945      1.52847886
H      -0.34461961      0.30728976      0.78542624
7
Frame 75  Energy = -244.9341366712 Hartree
C      -0.53334823     -0.70044869      0.58788340
N      -1.88731892     -1.00049980     -0.02235171
O      -2.39788975     -2.06760637      0.17758737
O      -2.28084051     -0.09037429     -0.71351294
H       0.21308201     -1.13313681     -0.05305141
H      -0.41716690     -1.23804057      1.52914787
H      -0.34993794      0.30367769      0.77790298
7
Frame 80  Energy = -244.9341219110 Hartree
C      -0.53243659     -0.69845213      0.58921765
N      -1.89054521     -1.00049302     -0.02291944
O      -2.39650793     -2.06823591      0.17564400
O      -2.27946263     -0.09231734     -0.71117496
H       0.20847361     -1.12961025     -0.05744856
H      -0.42298302     -1.23652136      1.52980511
H      -0.35582541      0.30512070      0.76970762
7
Frame 85  Energy = -244.9341936130 Hartree
C      -0.53162918     -0.69708025      0.59069078
N      -1.89333366     -1.00024830     -0.02329488
O      -2.39528180     -2.06901795      0.17371434
O      -2.27829473     -0.09420061     -0.70905727
H       0.20440773     -1.12604033     -0.06372229
H      -0.43010320     -1.23519661      1.53080486
H      -0.36226818      0.31172161      0.76133539
7
Frame 90  Energy = -244.9342279073 Hartree
C      -0.53085783     -0.69633927      0.59225412
N      -1.89558346     -0.99981471     -0.02346469
O      -2.39417144     -2.06996711      0.17176915
O      -2.27734213     -0.09609517     -0.70711497
H       0.20108851     -1.12240072     -0.07136934
H      -0.43808100     -1.23429065      1.53233242
H      -0.36923068      0.32348292      0.75275895
7
Frame 95  Energy = -244.9341833968 Hartree
C      -0.53009752     -0.69618793      0.59396966
N      -1.89736650     -0.99928634     -0.02347037
O      -2.39316841     -2.07115024      0.16984873
O      -2.27664173     -0.09780691     -0.70534961
H       0.19815843     -1.11869469     -0.08027015
H      -0.44700692     -1.23388035      1.53451702
H      -0.37651630      0.33954201      0.74380480
7
Frame 100  Energy = -244.9341386454 Hartree
C      -0.52947555     -0.69650845      0.59580939
N      -1.89860521     -0.99873090     -0.02337011
O      -2.39226908     -2.07249404      0.16793308
O      -2.27619243     -0.09931831     -0.70388669
H       0.19586386     -1.11527999     -0.08997922
H      -0.45640736     -1.23349040      1.53684620
H      -0.38415155      0.35869477      0.73456082
7
Frame 105  Energy = -244.9340687155 Hartree
C      -0.52901967     -0.69715538      0.59765531
N      -1.89945628     -0.99819297     -0.02304012
O      -2.39150064     -2.07403673      0.16605436
O      -2.27601123     -0.10067319     -0.70265041
H       0.19406822     -1.11190953     -0.10029377
H      -0.46618402     -1.23310718      1.53926812
H      -0.39251457      0.37936535      0.72520460
7
Frame 110  Energy = -244.9340103647 Hartree
C      -0.52859462     -0.69798880      0.59947643
N      -1.89978505     -0.99766428     -0.02238683
O      -2.39081467     -2.07568646      0.16420973
O      -2.27606857     -0.10180972     -0.70170649
H       0.19247227     -1.10817248     -0.11065224
H      -0.47659173     -1.23303600      1.54193559
H      -0.40167372      0.39987413      0.71564892
7
Frame 115  Energy = -244.9339734466 Hartree
C      -0.52822995     -0.69893306      0.60132461
N      -1.89960009     -0.99709512     -0.02137000
O      -2.39022037     -2.07735781      0.16245525
O      -2.27639724     -0.10266771     -0.70103013
H       0.19099781     -1.10393254     -0.12037333
H      -0.48738630     -1.23320259      1.54499064
H      -0.41141268      0.41882722      0.70588730
7
Frame 120  Energy = -244.9337790226 Hartree
C      -0.52800516     -0.69991684      0.60315347
N      -1.89892701     -0.99649109     -0.02007911
O      -2.38961414     -2.07906969      0.16074182
O      -2.27700454     -0.10326813     -0.70059085
H       0.18925629     -1.09934611     -0.12938879
H      -0.49844230     -1.23364271      1.54836379
H      -0.42213472      0.43499177      0.69622808
7
Frame 125  Energy = -244.9338436262 Hartree
C      -0.52787820     -0.70076277      0.60490017
N      -1.89768404     -0.99585862     -0.01856001
O      -2.38910024     -2.08083845      0.15895627
O      -2.27796365     -0.10363270     -0.70038450
H       0.18697922     -1.09437515     -0.13754008
H      -0.50939287     -1.23398711      1.55193781
H      -0.43361717      0.44704567      0.68666659
7
Frame 130  Energy = -244.9339565664 Hartree
C      -0.52777267     -0.70145927      0.60660670
N      -1.89592368     -0.99532949     -0.01676084
O      -2.38869246     -2.08268489      0.15712207
O      -2.27921598     -0.10378417     -0.70038133
H       0.18449177     -1.08897509     -0.14485415
H      -0.51950275     -1.23400898      1.55556131
H      -0.44541357      0.45421047      0.67714188
7
Frame 135  Energy = -244.9338108139 Hartree
C      -0.52785763     -0.70190655      0.60813616
N      -1.89370213     -0.99496086     -0.01474330
O      -2.38839052     -2.08460086      0.15528004
O      -2.28070293     -0.10371412     -0.70050977
H       0.18170762     -1.08335164     -0.15075821
H      -0.52880241     -1.23362018      1.55951219
H      -0.45761320      0.45627780      0.66774976
7
Frame 140  Energy = -244.9339316378 Hartree
C      -0.52807512     -0.70217210      0.60964267
N      -1.89109321     -0.99465901     -0.01256099
O      -2.38813180     -2.08660575      0.15342353
O      -2.28248890     -0.10341787     -0.70073129
H       0.17852927     -1.07725809     -0.15504391
H      -0.53698869     -1.23279917      1.56331077
H      -0.47010520      0.45330673      0.65859379
7
Frame 145  Energy = -244.9337835623 Hartree
C      -0.52849262     -0.70221307      0.61098418
N      -1.88813451     -0.99445850     -0.01021324
O      -2.38793788     -2.08857087      0.15148069
O      -2.28455555     -0.10290388     -0.70115852
H       0.17497294     -1.07096250     -0.15766926
H      -0.54403084     -1.23101964      1.56710528
H      -0.48262826      0.44579376      0.65003570
7
Frame 150  Energy = -244.9337921416 Hartree
C      -0.52910353     -0.70209049      0.61217665
N      -1.88480992     -0.99430332     -0.00774319
O      -2.38773634     -2.09046984      0.14949424
O      -2.28688926     -0.10214593     -0.70178522
H       0.17103792     -1.06426341     -0.15840146
H      -0.54990442     -1.22852663      1.57073861
H      -0.49468176      0.43404418      0.64205920
7
Frame 155  Energy = -244.9338445781 Hartree
C      -0.52997075     -0.70177810      0.61321053
N      -1.88122630     -0.99417078     -0.00514246
O      -2.38752832     -2.09223619      0.14756008
O      -2.28940870     -0.10126513     -0.70256597
H       0.16714277     -1.05749304     -0.15729473
H      -0.55422760     -1.22544162      1.57370074
H      -0.50639658      0.41882570      0.63494338
7
Frame 160  Energy = -244.9338103407 Hartree
C      -0.53105836     -0.70139332      0.61410305
N      -1.87738775     -0.99404183     -0.00249257
O      -2.38721934     -2.09393598      0.14563898
O      -2.29201588     -0.10035248     -0.70353922
H       0.16366254     -1.05104259     -0.15433160
H      -0.55706598     -1.22175039      1.57621000
H      -0.51714532      0.40124638      0.62891535
7
Frame 165  Energy = -244.9337113749 Hartree
C      -0.53239685     -0.70101959      0.61488336
N      -1.87346053     -0.99405120      0.00012971
O      -2.38689651     -2.09555047      0.14372257
O      -2.29471733     -0.09937754     -0.70456170
H       0.16083035     -1.04507953     -0.14999346
H      -0.55866639     -1.21728398      1.57807925
H      -0.52681685      0.38239678      0.62392421
7
Frame 170  Energy = -244.9337580696 Hartree
C      -0.53392309     -0.70073063      0.61546279
N      -1.86941460     -0.99428780      0.00261953
O      -2.38650304     -2.09699328      0.14190487
O      -2.29754493     -0.09834788     -0.70557817
H       0.15918464     -1.04005715     -0.14450194
H      -0.55899085     -1.21250880      1.57962526
H      -0.53549781      0.36411630      0.62023123
7
Frame 175  Energy = -244.9337288646 Hartree
C      -0.53571322     -0.70066109      0.61592040
N      -1.86539218     -0.99465252      0.00498619
O      -2.38607400     -2.09820960      0.14010382
O      -2.30048871     -0.09728374     -0.70653975
H       0.15863219     -1.03615322     -0.13811296
H      -0.55810058     -1.20718470      1.58103774
H      -0.54351969      0.34811291      0.61810055
7
Frame 180  Energy = -244.9334499053 Hartree
C      -0.53784274     -0.70081247      0.61627198
N      -1.86139587     -0.99506515      0.00718090
O      -2.38553486     -2.09931838      0.13831929
O      -2.30348273     -0.09623104     -0.70740954
H       0.15963935     -1.03305397     -0.13116437
H      -0.55626731     -1.20144304      1.58233394
H      -0.55073188      0.33631151      0.61735098
7
Frame 185  Energy = -244.9334191295 Hartree
C      -0.54026433     -0.70129161      0.61654529
N      -1.85749069     -0.99551898      0.00912728
O      -2.38495604     -2.10030487      0.13657067
O      -2.30645779     -0.09523434     -0.70823109
H       0.16212150     -1.03113704     -0.12350771
H      -0.55331582     -1.19564241      1.58344899
H      -0.55736377      0.32910855      0.61847332
7
Frame 190  Energy = -244.9335587820 Hartree
C      -0.54290622     -0.70223466      0.61674218
N      -1.85387380     -0.99591948      0.01071747
O      -2.38429675     -2.10108635      0.13481814
O      -2.30939650     -0.09440210     -0.70895978
H       0.16630578     -1.03042217     -0.11567149
H      -0.54923351     -1.18967114      1.58424197
H      -0.56280595      0.32769735      0.62143676
7
Frame 195  Energy = -244.9336019444 Hartree
C      -0.54586168     -0.70360717      0.61679889
N      -1.85053701     -0.99631723      0.01191444
O      -2.38357998     -2.10172030      0.13313491
O      -2.31230826     -0.09372138     -0.70959768
H       0.17219483     -1.03083328     -0.10774059
H      -0.54408339     -1.18362495      1.58545123
H      -0.56701200      0.33217630      0.62599206
7
Frame 200  Energy = -244.9337704838 Hartree
C      -0.54903548     -0.70535567      0.61687320
N      -1.84759612     -0.99666174      0.01276478
O      -2.38272509     -2.10219535      0.13156816
O      -2.31510989     -0.09323087     -0.71007664
H       0.17935867     -1.03239714     -0.10002147
H      -0.53828514     -1.17773313      1.58735496
H      -0.56990251      0.34174112      0.63196903
7
Frame 205  Energy = -244.9337803399 Hartree
C      -0.55245903     -0.70734155      0.61696647
N      -1.84508165     -0.99703384      0.01327445
O      -2.38169702     -2.10249014      0.13010525
O      -2.31777268     -0.09285497     -0.71038939
H       0.18764931     -1.03485792     -0.09252027
H      -0.53201734     -1.17184005      1.58989075
H      -0.57159970      0.35521598      0.63916242
7
Frame 210  Energy = -244.9339005949 Hartree
C      -0.55597974     -0.70936945      0.61707597
N      -1.84304690     -0.99740599      0.01335390
O      -2.38054008     -2.10253686      0.12873619
O      -2.32029383     -0.09260877     -0.71056974
H       0.19704807     -1.03780222     -0.08493046
H      -0.52529974     -1.16688110      1.59310990
H      -0.57227824      0.37127186      0.64739805
7
Frame 215  Energy = -244.9340349417 Hartree
C      -0.55947201     -0.71134396      0.61715916
N      -1.84146974     -0.99783505      0.01305175
O      -2.37928242     -2.10239356      0.12745384
O      -2.32265883     -0.09255459     -0.71045875
H       0.20701787     -1.04127205     -0.07754131
H      -0.51828238     -1.16238057      1.59724580
H      -0.57145429      0.38837417      0.65615906
7
Frame 220  Energy = -244.9339025142 Hartree
C      -0.56292774     -0.71309165      0.61727728
N      -1.84037986     -0.99825780      0.01223311
O      -2.37795297     -2.10209918      0.12619069
O      -2.32482134     -0.09273076     -0.71000744
H       0.21689602     -1.04523949     -0.06995995
H      -0.51115402     -1.15833024      1.60185763
H      -0.56944692      0.40464027      0.66576486
7
Frame 225  Energy = -244.9336907280 Hartree
C      -0.56626147     -0.71449142      0.61742246
N      -1.83974815     -0.99866225      0.01092758
O      -2.37641322     -2.10167771      0.12492013
O      -2.32677163     -0.09302699     -0.70925267
H       0.22671536     -1.04954039     -0.06183662
H      -0.50384367     -1.15439947      1.60650013
H      -0.56632046      0.41896603      0.67619819
7
Frame 230  Energy = -244.9338014759 Hartree
C      -0.56945579     -0.71539139      0.61756176
N      -1.83977208     -0.99907010      0.00923510
O      -2.37469200     -2.10106910      0.12370204
O      -2.32856353     -0.09352564     -0.70826158
H       0.23598596     -1.05388009     -0.05278432
H      -0.49660069     -1.15107494      1.61138033
H      -0.56215836      0.43023305      0.68721932
7
Frame 235  Energy = -244.9337940668 Hartree
C      -0.57230480     -0.71587917      0.61776388
N      -1.84042731     -0.99951139      0.00710311
O      -2.37281325     -2.10035283      0.12262814
O      -2.33018761     -0.09430306     -0.70699624
H       0.24424399     -1.05854765     -0.04314742
H      -0.48991097     -1.14839913      1.61633805
H      -0.55694791      0.43742810      0.69815831
7
Frame 240  Energy = -244.9338423899 Hartree
C      -0.57492848     -0.71589564      0.61814985
N      -1.84155083     -0.99990747      0.00449363
O      -2.37081191     -2.09952524      0.12160674
O      -2.33161554     -0.09531100     -0.70562072
H       0.25094385     -1.06286423     -0.03261652
H      -0.48388622     -1.14618238      1.62123677
H      -0.55111642      0.43982952      0.70863972
7
Frame 245  Energy = -244.9339428778 Hartree
C      -0.57721244     -0.71541009      0.61875367
N      -1.84313546     -1.00032325      0.00149735
O      -2.36864632     -2.09858064      0.12064332
O      -2.33293034     -0.09647357     -0.70413947
H       0.25630022     -1.06656591     -0.02142477
H      -0.47861541     -1.14448352      1.62530283
H      -0.54460517      0.43741190      0.71880186
7
Frame 250  Energy = -244.9339014341 Hartree
C      -0.57911745     -0.71444008      0.61952241
N      -1.84514882     -1.00080318     -0.00187626
O      -2.36639644     -2.09759434      0.11975465
O      -2.33418996     -0.09779015     -0.70259854
H       0.26035527     -1.06981722     -0.00975536
H      -0.47408084     -1.14321338      1.62804340
H      -0.53765463      0.43071682      0.72848269
7
Frame 255  Energy = -244.9341298178 Hartree
C      -0.58060431     -0.71297434      0.62057686
N      -1.84747179     -1.00121606     -0.00553075
O      -2.36401652     -2.09662491      0.11894799
O      -2.33533671     -0.09926762     -0.70091124
H       0.26276967     -1.07238229      0.00194790
H      -0.47067332     -1.14219865      1.62947853
H      -0.53037697      0.41982333      0.73780252
7
Frame 260  Energy = -244.9339241113 Hartree
C      -0.58168018     -0.71114423      0.62185483
N      -1.85007107     -1.00149888     -0.00947597
O      -2.36150321     -2.09577074      0.11833636
O      -2.33638874     -0.10087714     -0.69905272
H       0.26355700     -1.07427886      0.01378857
H      -0.46854537     -1.14182386      1.62977614
H      -0.52328977      0.40555763      0.74617725
7
Frame 265  Energy = -244.9338393306 Hartree
C      -0.58248588     -0.70900329      0.62337370
N      -1.85301945     -1.00175278     -0.01370939
O      -2.35895466     -2.09499234      0.11788266
O      -2.33740414     -0.10257668     -0.69707009
H       0.26301433     -1.07554594      0.02548524
H      -0.46810278     -1.14146003      1.62882401
H      -0.51619180      0.38860575      0.75344312
7
Frame 270  Energy = -244.9336887931 Hartree
C      -0.58298757     -0.70662357      0.62511677
N      -1.85621130     -1.00195931     -0.01816398
O      -2.35638023     -2.09418569      0.11740073
O      -2.33828984     -0.10436074     -0.69501931
H       0.26125446     -1.07670992      0.03667633
H      -0.46933180     -1.14137838      1.62716927
H      -0.50888444      0.37066745      0.76006995
7
Frame 275  Energy = -244.9336576352 Hartree
C      -0.58321972     -0.70421830      0.62707283
N      -1.85953977     -1.00210668     -0.02275666
O      -2.35383557     -2.09349206      0.11692811
O      -2.33912457     -0.10612351     -0.69292351
H       0.25844390     -1.07792456      0.04718233
H      -0.47206728     -1.14179389      1.62489675
H      -0.50182594      0.35280244      0.76605289
7
Frame 280  Energy = -244.9337691068 Hartree
C      -0.58319035     -0.70192446      0.62925686
N      -1.86292157     -1.00213297     -0.02742283
O      -2.35136813     -2.09294923      0.11663179
O      -2.33992202     -0.10784311     -0.69087365
H       0.25534174     -1.07937302      0.05647642
H      -0.47619434     -1.14304238      1.62222939
H      -0.49487259      0.33682929      0.77139791
7
Frame 285  Energy = -244.9337321236 Hartree
C      -0.58296219     -0.69984465      0.63161841
N      -1.86613719     -1.00197369     -0.03205922
O      -2.34896995     -2.09260665      0.11637168
O      -2.34068234     -0.10955087     -0.68880028
H       0.25201532     -1.08083689      0.06424678
H      -0.48206344     -1.14529984      1.61972979
H      -0.48824709      0.32416584      0.77607250
7
Frame 290  Energy = -244.9338396577 Hartree
C      -0.58247270     -0.69810556      0.63418357
N      -1.86914562     -1.00171917     -0.03661247
O      -2.34660583     -2.09239283      0.11614937
O      -2.34150024     -0.11112180     -0.68684559
H       0.24839771     -1.08254370      0.07049068
H      -0.48950136     -1.14859712      1.61731147
H      -0.48177984      0.31696261      0.78044867
7
Frame 295  Energy = -244.9338744904 Hartree
C      -0.58180721     -0.69676709      0.63695210
N      -1.87198771     -1.00137616     -0.04096954
O      -2.34430075     -2.09234395      0.11599351
O      -2.34239161     -0.11252552     -0.68501245
H       0.24525130     -1.08442718      0.07524650
H      -0.49883014     -1.15268653      1.61549516
H      -0.47576484      0.31599317      0.78477111
7
Frame 300  Energy = -244.9340047146 Hartree
C      -0.58109831     -0.69590866      0.63989803
N      -1.87462642     -1.00092427     -0.04502016
O      -2.34214595     -2.09255498      0.11589992
O      -2.34344256     -0.11372101     -0.68339039
H       0.24273909     -1.08661553      0.07792915
H      -0.50953625     -1.15774906      1.61437881
H      -0.46999514      0.32115492      0.78924074
