7
Frame 5  Energy = -245.1597724031 Hartree
C      -0.66739097     -0.78522942      0.82503389
N      -1.89733430     -0.90174593      0.00441198
O      -2.93811632     -1.09439312      0.58684363
O      -1.70427981     -0.87579009     -1.18571016
H       0.10433425     -1.26768606      0.28753630
H      -0.84485549     -1.14266577      1.82578671
H      -0.28954771      0.22036084      0.78102883
7
Frame 10  Energy = -245.1598375861 Hartree
C      -0.66693847     -0.78541467      0.82662211
N      -1.89850913     -0.90200986      0.00152923
O      -2.93849587     -1.08942103      0.58589581
O      -1.70352578     -0.88012313     -1.18305091
H       0.09478466     -1.26877094      0.28720345
H      -0.84620947     -1.15026262      1.82770326
H      -0.28298753      0.21800640      0.78372532
7
Frame 15  Energy = -245.1597517830 Hartree
C      -0.66657203     -0.78548707      0.82823866
N      -1.89945428     -0.90230295     -0.00121668
O      -2.93903112     -1.08441792      0.58493644
O      -1.70282577     -0.88439306     -1.18051362
H       0.08688510     -1.27288590      0.28584207
H      -0.84797489     -1.15758932      1.82986678
H      -0.27747448      0.21748379      0.78706053
7
Frame 20  Energy = -245.1597223207 Hartree
C      -0.66629478     -0.78558628      0.82998479
N      -1.90020318     -0.90268111     -0.00370091
O      -2.93969459     -1.07939642      0.58399122
O      -1.70227256     -0.88860934     -1.17819455
H       0.08065586     -1.28015325      0.28333587
H      -0.84973234     -1.16429514      1.83183403
H      -0.27325696      0.21870386      0.79097721
7
Frame 25  Energy = -245.1597338667 Hartree
C      -0.66610923     -0.78571751      0.83181198
N      -1.90072692     -0.90306486     -0.00582489
O      -2.94043014     -1.07428161      0.58307521
O      -1.70175770     -0.89279253     -1.17622825
H       0.07636911     -1.29067203      0.28011800
H      -0.85156107     -1.17073688      1.83315870
H      -0.27015895      0.22154144      0.79600855
7
Frame 30  Energy = -245.1597981109 Hartree
C      -0.66587538     -0.78583457      0.83374006
N      -1.90114231     -0.90348955     -0.00749151
O      -2.94122649     -1.06914502      0.58206988
O      -1.70130134     -0.89694347     -1.17463597
H       0.07402888     -1.30383051      0.27594557
H      -0.85320969     -1.17651649      1.83360691
H      -0.26845844      0.22559820      0.80197833
7
Frame 35  Energy = -245.1599792693 Hartree
C      -0.66549358     -0.78593943      0.83574356
N      -1.90131677     -0.90399473     -0.00866741
O      -2.94210171     -1.06400301      0.58097265
O      -1.70098007     -0.90100202     -1.17338625
H       0.07281126     -1.31894000      0.27148203
H      -0.85455409     -1.18157240      1.83327411
H      -0.26833253      0.22981737      0.80874105
7
Frame 40  Energy = -245.1597163852 Hartree
C      -0.66513324     -0.78606615      0.83782428
N      -1.90132039     -0.90450583     -0.00941264
O      -2.94320546     -1.05888933      0.57972315
O      -1.70082045     -0.90501144     -1.17257390
H       0.07277946     -1.33557132      0.26688629
H      -0.85583716     -1.18589482      1.83178197
H      -0.26983023      0.23415794      0.81633649
7
Frame 45  Energy = -245.1598000167 Hartree
C      -0.66472175     -0.78622223      0.83993985
N      -1.90107541     -0.90509122     -0.00976084
O      -2.94454501     -1.05375654      0.57843729
O      -1.70075592     -0.90901763     -1.17222864
H       0.07330656     -1.35325843      0.26273833
H      -0.85696757     -1.18938760      1.82925769
H      -0.27290289      0.23814223      0.82432190
7
Frame 50  Energy = -245.1600395093 Hartree
C      -0.66426862     -0.78644177      0.84192912
N      -1.90068695     -0.90567482     -0.00968016
O      -2.94597506     -1.04862380      0.57717637
O      -1.70067930     -0.91286085     -1.17226162
H       0.07333051     -1.37117210      0.25977021
H      -0.85826159     -1.19251723      1.82639943
H      -0.27746437      0.24143968      0.83241267
7
Frame 55  Energy = -245.1601253865 Hartree
C      -0.66373667     -0.78662896      0.84374298
N      -1.90016480     -0.90625457     -0.00919825
O      -2.94753181     -1.04345768      0.57591441
O      -1.70064686     -0.91656642     -1.17270164
H       0.07256015     -1.38856077      0.25841436
H      -0.85963621     -1.19530586      1.82346421
H      -0.28359053      0.24406265      0.84065407
7
Frame 60  Energy = -245.1602748851 Hartree
C      -0.66302233     -0.78689871      0.84536551
N      -1.89948666     -0.90685171     -0.00824892
O      -2.94923594     -1.03835552      0.57461681
O      -1.70054516     -0.92013869     -1.17344024
H       0.07058689     -1.40520539      0.25876152
H      -0.86088544     -1.19786258      1.82113396
H      -0.29085402      0.24578231      0.84928099
7
Frame 65  Energy = -245.1601675728 Hartree
C      -0.66204542     -0.78738278      0.84676797
N      -1.89875817     -0.90742062     -0.00683273
O      -2.95106144     -1.03331610      0.57331033
O      -1.70044601     -0.92360176     -1.17453241
H       0.06704850     -1.42081873      0.26108904
H      -0.86233458     -1.20025914      1.81914331
H      -0.29908496      0.24674101      0.85800153
7
Frame 70  Energy = -245.1602599013 Hartree
C      -0.66077826     -0.78798681      0.84791003
N      -1.89796055     -0.90802939     -0.00507214
O      -2.95296332     -1.02827629      0.57191822
O      -1.70043987     -0.92705148     -1.17594826
H       0.06173064     -1.43477457      0.26572620
H      -0.86400155     -1.20240078      1.81770560
H      -0.30831856      0.24679996      0.86687683
7
Frame 75  Energy = -245.1599923112 Hartree
C      -0.65922931     -0.78873238      0.84875848
N      -1.89702990     -0.90854811     -0.00297080
O      -2.95496377     -1.02319797      0.57047601
O      -1.70044949     -0.93043485     -1.17764256
H       0.05487243     -1.44633369      0.27287967
H      -0.86599495     -1.20450928      1.81708394
H      -0.31825205      0.24614359      0.87590731
7
Frame 80  Energy = -245.1599733098 Hartree
C      -0.65746776     -0.78973669      0.84942864
N      -1.89586723     -0.90906198     -0.00054005
O      -2.95710665     -1.01806304      0.56901027
O      -1.70050501     -0.93379693     -1.17950686
H       0.04662199     -1.45561852      0.28255086
H      -0.86839274     -1.20645484      1.81725085
H      -0.32866481      0.24508366      0.88434930
7
Frame 85  Energy = -245.1597626297 Hartree
C      -0.65554967     -0.79095213      0.84999128
N      -1.89460096     -0.90956700      0.00212793
O      -2.95933833     -1.01291411      0.56748643
O      -1.70053366     -0.93709693     -1.18158902
H       0.03735759     -1.46249720      0.29457512
H      -0.87121144     -1.20808266      1.81842300
H      -0.33905177      0.24354756      0.89246929
7
Frame 90  Energy = -245.1599392984 Hartree
C      -0.65354199     -0.79237034      0.85044710
N      -1.89323725     -0.90998505      0.00504484
O      -2.96160036     -1.00774563      0.56592727
O      -1.70060184     -0.94031336     -1.18376064
H       0.02759721     -1.46747143      0.30828035
H      -0.87409855     -1.20945724      1.82035223
H      -0.34967208      0.24191669      0.90036200
7
Frame 95  Energy = -245.1599472248 Hartree
C      -0.65154989     -0.79402667      0.85086027
N      -1.89181690     -0.91038795      0.00809353
O      -2.96393297     -1.00261545      0.56436682
O      -1.70067620     -0.94346277     -1.18605896
H       0.01828556     -1.47044291      0.32299333
H      -0.87690151     -1.21037729      1.82289178
H      -0.35987238      0.24020156      0.90791929
7
Frame 100  Energy = -245.1600105279 Hartree
C      -0.64966466     -0.79592039      0.85119734
N      -1.89044548     -0.91070110      0.01119251
O      -2.96626846     -0.99750834      0.56274780
O      -1.70076226     -0.94659159     -1.18834499
H       0.01032491     -1.47210236      0.33839414
H      -0.88011776     -1.21076960      1.82538686
H      -0.36956483      0.23886367      0.91534926
7
Frame 105  Energy = -245.1600804295 Hartree
C      -0.64799075     -0.79804991      0.85153708
N      -1.88909140     -0.91092257      0.01423709
O      -2.96859221     -0.99240229      0.56106146
O      -1.70083843     -0.94970144     -1.19053114
H       0.00425116     -1.47279002      0.35360227
H      -0.88346112     -1.21036225      1.82796109
H      -0.37833278      0.23801431      0.92255649
7
Frame 110  Energy = -245.1598633931 Hartree
C      -0.64640726     -0.80031055      0.85190646
N      -1.88771724     -0.91115545      0.01717616
O      -2.97090163     -0.98726013      0.55942652
O      -1.70104493     -0.95281167     -1.19262535
H       0.00117833     -1.47305292      0.36811940
H      -0.88728443     -1.20912629      1.83060133
H      -0.38602120      0.23718367      0.92920347
7
Frame 115  Energy = -245.1598689325 Hartree
C      -0.64505399     -0.80271845      0.85248255
N      -1.88640058     -0.91134567      0.02000944
O      -2.97323577     -0.98205515      0.55789214
O      -1.70132391     -0.95587451     -1.19457311
H       0.00127790     -1.47355043      0.38163866
H      -0.89159171     -1.20726772      1.83319578
H      -0.39273834      0.23668556      0.93514413
7
Frame 120  Energy = -245.1597818922 Hartree
C      -0.64412428     -0.80514902      0.85336661
N      -1.88515761     -0.91149638      0.02255449
O      -2.97553203     -0.97676111      0.55641200
O      -1.70168783     -0.95894745     -1.19631024
H       0.00496717     -1.47485726      0.39373703
H      -0.89596436     -1.20429823      1.83587095
H      -0.39826886      0.23632540      0.94036745
7
Frame 125  Energy = -245.1597646891 Hartree
C      -0.64359769     -0.80758705      0.85458186
N      -1.88393981     -0.91172955      0.02491426
O      -2.97772588     -0.97137422      0.55499979
O      -1.70208654     -0.96209857     -1.19781412
H       0.01256118     -1.47700566      0.40400525
H      -0.90053238     -1.20087623      1.83828159
H      -0.40270771      0.23637788      0.94470892
7
Frame 130  Energy = -245.1596535813 Hartree
C      -0.64348211     -0.80996940      0.85607517
N      -1.88278083     -0.91200852      0.02701015
O      -2.97985665     -0.96593852      0.55364190
O      -1.70246723     -0.96517568     -1.19900693
H       0.02388932     -1.48025628      0.41251288
H      -0.90533184     -1.19720528      1.84034811
H      -0.40624989      0.23700939      0.94862086
7
Frame 135  Energy = -245.1596083749 Hartree
C      -0.64375470     -0.81243826      0.85772224
N      -1.88179035     -0.91233918      0.02876311
O      -2.98199075     -0.96041247      0.55231382
O      -1.70285940     -0.96826148     -1.19994953
H       0.03862620     -1.48411248      0.41948797
H      -0.91021187     -1.19345924      1.84190105
H      -0.40838633      0.23805274      0.95199279
7
Frame 140  Energy = -245.1597319105 Hartree
C      -0.64440871     -0.81487526      0.85971217
N      -1.88095767     -0.91283454      0.03004804
O      -2.98405004     -0.95486063      0.55106752
O      -1.70330002     -0.97121632     -1.20058480
H       0.05593357     -1.48835196      0.42482140
H      -0.91537107     -1.18897722      1.84303236
H      -0.40942517      0.23900651      0.95438025
7
Frame 145  Energy = -245.1597937589 Hartree
C      -0.64526106     -0.81739262      0.86188310
N      -1.88027626     -0.91344682      0.03090492
O      -2.98606424     -0.94934162      0.54990632
O      -1.70381031     -0.97403572     -1.20093192
H       0.07494968     -1.49246989      0.42917442
H      -0.92026464     -1.18426271      1.84372011
H      -0.40942874      0.23962282      0.95576320
7
Frame 150  Energy = -245.1600373628 Hartree
C      -0.64619794     -0.82001488      0.86418603
N      -1.87966270     -0.91413669      0.03137223
O      -2.98793024     -0.94385746      0.54876375
O      -1.70426875     -0.97679031     -1.20100194
H       0.09494027     -1.49501000      0.43302393
H      -0.92489802     -1.17988294      1.84454302
H      -0.40872822      0.23971464      0.95623300
7
Frame 155  Energy = -245.1596992163 Hartree
C      -0.64738686     -0.82279703      0.86659125
N      -1.87912319     -0.91497417      0.03148989
O      -2.98960152     -0.93838408      0.54755912
O      -1.70471852     -0.97953466     -1.20071929
H       0.11491694     -1.49579105      0.43692919
H      -0.92986102     -1.17561514      1.84549459
H      -0.40729753      0.23943043      0.95610629
7
Frame 160  Energy = -245.1598240627 Hartree
C      -0.64868100     -0.82562430      0.86905391
N      -1.87871131     -0.91593291      0.03127248
O      -2.99099275     -0.93278572      0.54622693
O      -1.70516643     -0.98225658     -1.20020468
H       0.13389152     -1.49434614      0.44085759
H      -0.93486084     -1.17164456      1.84681428
H      -0.40558798      0.23811522      0.95533718
7
Frame 165  Energy = -245.1596944690 Hartree
C      -0.64994673     -0.82865179      0.87152077
N      -1.87852521     -0.91700253      0.03063540
O      -2.99220260     -0.92713345      0.54490098
O      -1.70561032     -0.98487435     -1.19936624
H       0.15113052     -1.49094856      0.44503361
H      -0.94026661     -1.16776225      1.84878220
H      -0.40358194      0.23572699      0.95355500
7
Frame 170  Energy = -245.1596292506 Hartree
C      -0.65117711     -0.83181933      0.87401213
N      -1.87855498     -0.91813090      0.02965699
O      -2.99321398     -0.92144527      0.54357506
O      -1.70603703     -0.98750530     -1.19820530
H       0.16590183     -1.48508985      0.44983895
H      -0.94578715     -1.16444093      1.85187251
H      -0.40095042      0.23185484      0.95113237
7
Frame 175  Energy = -245.1594275997 Hartree
C      -0.65237040     -0.83509330      0.87638463
N      -1.87877842     -0.91939621      0.02834411
O      -2.99404623     -0.91574894      0.54218844
O      -1.70646257     -0.99010906     -1.19677534
H       0.17821510     -1.47640158      0.45553449
H      -0.95127477     -1.16164618      1.85583964
H      -0.39774381      0.22689876      0.94770141
7
Frame 180  Energy = -245.1594958060 Hartree
C      -0.65344419     -0.83840885      0.87879498
N      -1.87916111     -0.92072672      0.02673455
O      -2.99470102     -0.91004973      0.54076302
O      -1.70688328     -0.99277665     -1.19506117
H       0.18778764     -1.46539568      0.46182477
H      -0.95688253     -1.15925404      1.86068683
H      -0.39396403      0.22075188      0.94333836
7
Frame 185  Energy = -245.1596367460 Hartree
C      -0.65441496     -0.84164303      0.88125669
N      -1.87959460     -0.92211717      0.02490184
O      -2.99519243     -0.90433351      0.53939261
O      -1.70738536     -0.99542978     -1.19313488
H       0.19407309     -1.45257501      0.46891109
H      -0.96271553     -1.15713514      1.86578095
H      -0.38984540      0.21428288      0.93814363
7
Frame 190  Energy = -245.1595136329 Hartree
C      -0.65527996     -0.84500039      0.88371712
N      -1.88014635     -0.92360758      0.02275312
O      -2.99546981     -0.89862988      0.53803915
O      -1.70788759     -0.99812982     -1.19094459
H       0.19730752     -1.43808377      0.47662179
H      -0.96843635     -1.15554748      1.87099837
H      -0.38565063      0.20772563      0.93273867
7
Frame 195  Energy = -245.1594900755 Hartree
C      -0.65609132     -0.84837942      0.88611747
N      -1.88086362     -0.92523727      0.02030639
O      -2.99553433     -0.89292525      0.53672578
O      -1.70832724     -1.00085979     -1.18857593
H       0.19827656     -1.42241929      0.48437791
H      -0.97367381     -1.15440461      1.87650024
H      -0.38155264      0.20106093      0.92716154
7
Frame 200  Energy = -245.1594226204 Hartree
C      -0.65694981     -0.85169337      0.88851774
N      -1.88174804     -0.92693930      0.01762794
O      -2.99534974     -0.88718007      0.53540793
O      -1.70869383     -1.00354907     -1.18604711
H       0.19718023     -1.40659998      0.49238841
H      -0.97844367     -1.15380298      1.88210010
H      -0.37768110      0.19445049      0.92099592
7
Frame 205  Energy = -245.1593879498 Hartree
C      -0.65795345     -0.85504535      0.89101512
N      -1.88273308     -0.92857331      0.01486201
O      -2.99497088     -0.88147195      0.53407415
O      -1.70893512     -1.00625766     -1.18341647
H       0.19450141     -1.39127194      0.50035282
H      -0.98257187     -1.15340785      1.88768703
H      -0.37371204      0.18818954      0.91455043
7
Frame 210  Energy = -245.1593125009 Hartree
C      -0.65916608     -0.85837072      0.89366197
N      -1.88374568     -0.93021643      0.01195081
O      -2.99445369     -0.87575906      0.53268685
O      -1.70916234     -1.00899195     -1.18076272
H       0.19097084     -1.37719210      0.50786494
H      -0.98582204     -1.15312254      1.89265725
H      -0.36982755      0.18248806      0.90831331
7
Frame 215  Energy = -245.1591349336 Hartree
C      -0.66063822     -0.86155347      0.89641262
N      -1.88475800     -0.93193095      0.00897366
O      -2.99380326     -0.87009352      0.53129748
O      -1.70938208     -1.01173715     -1.17813170
H       0.18750375     -1.36465383      0.51464166
H      -0.98806813     -1.15314825      1.89718363
H      -0.36627995      0.17754816      0.90201243
7
Frame 220  Energy = -245.1590480460 Hartree
C      -0.66233631     -0.86462650      0.89933071
N      -1.88575413     -0.93373009      0.00611548
O      -2.99302597     -0.86446287      0.52999060
O      -1.70955913     -1.01451248     -1.17552720
H       0.18435158     -1.35420490      0.52013099
H      -0.98938112     -1.15334723      1.90087729
H      -0.36327755      0.17356043      0.89625195
7
Frame 225  Energy = -245.1590126035 Hartree
C      -0.66436730     -0.86750467      0.90249017
N      -1.88676514     -0.93553480      0.00331864
O      -2.99215224     -0.85877484      0.52860322
O      -1.70965307     -1.01723050     -1.17295249
H       0.18240445     -1.34686833      0.52381093
H      -0.99008079     -1.15385284      1.90344478
H      -0.36094625      0.17040472      0.89115919
7
Frame 230  Energy = -245.1589739329 Hartree
C      -0.66672472     -0.87009024      0.90576701
N      -1.88785175     -0.93732513      0.00062220
O      -2.99113018     -0.85311847      0.52721574
O      -1.70965614     -1.02002147     -1.17054080
H       0.18206174     -1.34306925      0.52584757
H      -0.99052011     -1.15434588      1.90494225
H      -0.35911295      0.16808657      0.88641765
7
Frame 235  Energy = -245.1589639290 Hartree
C      -0.66939658     -0.87235209      0.90908699
N      -1.88907200     -0.93917760     -0.00184437
O      -2.99001408     -0.84745406      0.52582376
O      -1.70962133     -1.02283276     -1.16838374
H       0.18366241     -1.34281278      0.52625658
H      -0.99072084     -1.15495160      1.90581853
H      -0.35840073      0.16692652      0.88244907
7
Frame 240  Energy = -245.1592092700 Hartree
C      -0.67229524     -0.87428412      0.91241027
N      -1.89036080     -0.94097172     -0.00398608
O      -2.98886623     -0.84172489      0.52449746
O      -1.70952761     -1.02567900     -1.16655221
H       0.18700815     -1.34598976      0.52511190
H      -0.99083756     -1.15580868      1.90623817
H      -0.35881990      0.16677518      0.87959722
7
Frame 245  Energy = -245.1591358844 Hartree
C      -0.67529447     -0.87598365      0.91564130
N      -1.89165383     -0.94267209     -0.00572479
O      -2.98771378     -0.83598366      0.52322094
O      -1.70933954     -1.02863088     -1.16507188
H       0.19115089     -1.35233200      0.52277064
H      -0.99058178     -1.15688519      1.90636700
H      -0.35993973      0.16699835      0.87750935
7
Frame 250  Energy = -245.1590721308 Hartree
C      -0.67838947     -0.87744057      0.91874269
N      -1.89293843     -0.94432407     -0.00700897
O      -2.98654882     -0.83021585      0.52197798
O      -1.70906615     -1.03166417     -1.16401461
H       0.19532667     -1.36126970      0.51921451
H      -0.99011893     -1.15855492      1.90652921
H      -0.36222098      0.16753204      0.87612889
7
Frame 255  Energy = -245.1591185699 Hartree
C      -0.68150227     -0.87864981      0.92168889
N      -1.89423268     -0.94604103     -0.00783507
O      -2.98534243     -0.82451516      0.52080684
O      -1.70868614     -1.03477535     -1.16329560
H       0.19884640     -1.37203819      0.51514210
H      -0.98947280     -1.16069658      1.90690347
H      -0.36568434      0.16833588      0.87545299
7
Frame 260  Energy = -245.1590178833 Hartree
C      -0.68454627     -0.87965741      0.92450219
N      -1.89556258     -0.94776748     -0.00808921
O      -2.98401032     -0.81882215      0.51956610
O      -1.70819207     -1.03790795     -1.16293245
H       0.20089711     -1.38444517      0.51099232
H      -0.98890127     -1.16318226      1.90811514
H      -0.36991704      0.16945990      0.87568382
7
Frame 265  Energy = -245.1586152302 Hartree
C      -0.68752183     -0.88053759      0.92712213
N      -1.89696073     -0.94940338     -0.00783572
O      -2.98265037     -0.81306904      0.51829283
O      -1.70762998     -1.04109063     -1.16305815
H       0.20086251     -1.39774177      0.50703480
H      -0.98857832     -1.16610565      1.91021719
H      -0.37539508      0.17012928      0.87678927
7
Frame 270  Energy = -245.1587349166 Hartree
C      -0.69042297     -0.88135402      0.92948624
N      -1.89828629     -0.95099435     -0.00708868
O      -2.98133741     -0.80729419      0.51704386
O      -1.70694600     -1.04440808     -1.16367074
H       0.19803634     -1.41162518      0.50331045
H      -0.98859874     -1.16951343      1.91280849
H      -0.38200567      0.17044315      0.87871813
7
Frame 275  Energy = -245.1587678683 Hartree
C      -0.69308882     -0.88202128      0.93151549
N      -1.89951576     -0.95240623     -0.00586156
O      -2.98002694     -0.80158894      0.51581111
O      -1.70609464     -1.04778396     -1.16465471
H       0.19189951     -1.42561576      0.50056708
H      -0.98896639     -1.17332664      1.91612458
H      -0.38938259      0.17039931      0.88146825
7
Frame 280  Energy = -245.1587513105 Hartree
C      -0.69562124     -0.88264856      0.93326604
N      -1.90071277     -0.95376242     -0.00421133
O      -2.97872459     -0.79594427      0.51458533
O      -1.70520541     -1.05122419     -1.16603938
H       0.18236174     -1.43936345      0.49903587
H      -0.99006494     -1.17750125      1.92015346
H      -0.39753090      0.16956166      0.88500894
7
Frame 285  Energy = -245.1586121962 Hartree
C      -0.69801420     -0.88328391      0.93474243
N      -1.90182823     -0.95515406     -0.00224056
O      -2.97745901     -0.79034755      0.51340635
O      -1.70426559     -1.05478645     -1.16774454
H       0.16965588     -1.45244066      0.49889089
H      -0.99159984     -1.18187820      1.92511881
H      -0.40612976      0.16851411      0.88904167
7
Frame 290  Energy = -245.1588330997 Hartree
C      -0.70025524     -0.88399511      0.93603611
N      -1.90276541     -0.95640005      0.00005112
O      -2.97630684     -0.78479561      0.51228977
O      -1.70325536     -1.05847173     -1.16969235
H       0.15402662     -1.46435577      0.49989325
H      -0.99327129     -1.18630050      1.93028391
H      -0.41516105      0.16710050      0.89351721
7
Frame 295  Energy = -245.1588725119 Hartree
C      -0.70228672     -0.88481499      0.93707394
N      -1.90343846     -0.95758229      0.00258172
O      -2.97531726     -0.77929205      0.51128301
O      -1.70218760     -1.06224157     -1.17182712
H       0.13572640     -1.47489356      0.50204263
H      -0.99513564     -1.19063945      1.93531631
H      -0.42457045      0.16580600      0.89855668
7
Frame 300  Energy = -245.1585348910 Hartree
C      -0.70421760     -0.88572899      0.93789919
N      -1.90395857     -0.95862369      0.00533648
O      -2.97441228     -0.77375872      0.51035247
O      -1.70101215     -1.06609897     -1.17405711
H       0.11494352     -1.48443412      0.50480005
H      -0.99743999     -1.19488565      1.93965828
H      -0.43410470      0.16497682      0.90414308
