7
Frame 5  Energy = -245.1617195939 Hartree
C      -0.58402982     -0.76126027      0.72223851
N      -1.89635663     -0.94455832      0.00375652
O      -2.69243532     -1.67090840      0.53552682
O      -1.96163715     -0.40229246     -1.06803239
H       0.11846676     -1.38154945      0.18519776
H      -0.66722869     -1.13658037      1.74865128
H      -0.37634326      0.30419088      0.66858340
7
Frame 10  Energy = -245.1615534470 Hartree
C      -0.58612455     -0.76024187      0.72341037
N      -1.89357160     -0.94194878      0.00426190
O      -2.69613497     -1.66860215      0.53859021
O      -1.95961764     -0.40545045     -1.07188407
H       0.10727478     -1.39381826      0.18506455
H      -0.66530896     -1.13813487      1.75021109
H      -0.37389870      0.30486684      0.67699690
7
Frame 15  Energy = -245.1615266508 Hartree
C      -0.58830103     -0.75913168      0.72469266
N      -1.89048013     -0.93947200      0.00486718
O      -2.69985273     -1.66629036      0.54155071
O      -1.95768913     -0.40855532     -1.07581315
H       0.09675027     -1.40564053      0.18433885
H      -0.66384792     -1.13899654      1.75058719
H      -0.37079072      0.30520876      0.68545273
7
Frame 20  Energy = -245.1614253131 Hartree
C      -0.59058593     -0.75802126      0.72609446
N      -1.88714985     -0.93712067      0.00567861
O      -2.70370325     -1.66390949      0.54447718
O      -1.95586945     -0.41161334     -1.07982987
H       0.08673211     -1.41654081      0.18342561
H      -0.66292673     -1.13909306      1.74970872
H      -0.36703131      0.30519091      0.69354047
7
Frame 25  Energy = -245.1615461090 Hartree
C      -0.59282472     -0.75702589      0.72760397
N      -1.88374098     -0.93481574      0.00669987
O      -2.70757293     -1.66150346      0.54733336
O      -1.95415251     -0.41458193     -1.08385896
H       0.07765300     -1.42598076      0.18231149
H      -0.66251929     -1.13861124      1.74767615
H      -0.36229004      0.30431561      0.70134857
7
Frame 30  Energy = -245.1615123342 Hartree
C      -0.59506003     -0.75617181      0.72922523
N      -1.88037082     -0.93258113      0.00792484
O      -2.71134801     -1.65898921      0.55011327
O      -1.95253396     -0.41753805     -1.08784846
H       0.06920732     -1.43426734      0.18146948
H      -0.66259104     -1.13763591      1.74465706
H      -0.35668822      0.30259710      0.70866123
7
Frame 35  Energy = -245.1619251207 Hartree
C      -0.59726141     -0.75543359      0.73088130
N      -1.87715150     -0.93053697      0.00929394
O      -2.71498726     -1.65633177      0.55283038
O      -1.95092614     -0.42054849     -1.09176048
H       0.06150770     -1.44071005      0.18085216
H      -0.66349000     -1.13648771      1.74132870
H      -0.35025059      0.30030485      0.71512445
7
Frame 40  Energy = -245.1619326042 Hartree
C      -0.59945806     -0.75470119      0.73248826
N      -1.87416786     -0.92867939      0.01070004
O      -2.71853785     -1.65349349      0.55539006
O      -1.94941210     -0.42355092     -1.09558071
H       0.05443989     -1.44513347      0.18021336
H      -0.66530569     -1.13477905      1.73781007
H      -0.34302414      0.29791549      0.72078072
7
Frame 45  Energy = -245.1621051422 Hartree
C      -0.60155007     -0.75403441      0.73395262
N      -1.87147227     -0.92695106      0.01210153
O      -2.72189081     -1.65049544      0.55779423
O      -1.94788639     -0.42656669     -1.09929442
H       0.04793609     -1.44804345      0.17979605
H      -0.66801767     -1.13293799      1.73479576
H      -0.33519906      0.29524582      0.72596235
7
Frame 50  Energy = -245.1623473295 Hartree
C      -0.60353171     -0.75339607      0.73531741
N      -1.86907525     -0.92531871      0.01340201
O      -2.72506372     -1.64732407      0.56000800
O      -1.94633529     -0.42956635     -1.10285445
H       0.04224804     -1.44908137      0.18013126
H      -0.67170320     -1.13148825      1.73269905
H      -0.32690167      0.29223705      0.73025720
7
Frame 55  Energy = -245.1623593377 Hartree
C      -0.60551603     -0.75283753      0.73650204
N      -1.86703148     -0.92400849      0.01470933
O      -2.72813004     -1.64396772      0.56204665
O      -1.94484239     -0.43252166     -1.10627848
H       0.03752216     -1.44808093      0.18110862
H      -0.67624604     -1.13028414      1.73137669
H      -0.31806925      0.28887800      0.73407051
7
Frame 60  Energy = -245.1625835189 Hartree
C      -0.60746142     -0.75245581      0.73760607
N      -1.86541888     -0.92297326      0.01607700
O      -2.73102159     -1.64044086      0.56390280
O      -1.94331994     -0.43547146     -1.10951125
H       0.03384369     -1.44556149      0.18256199
H      -0.68121754     -1.12942740      1.73078034
H      -0.30888768      0.28556606      0.73728372
7
Frame 65  Energy = -245.1626261904 Hartree
C      -0.60926741     -0.75214609      0.73874445
N      -1.86416419     -0.92209601      0.01736361
O      -2.73373136     -1.63667875      0.56554593
O      -1.94177149     -0.43845954     -1.11243353
H       0.03108067     -1.44126956      0.18415896
H      -0.68715791     -1.12921946      1.73118291
H      -0.29932957      0.28229130      0.73970182
7
Frame 70  Energy = -245.1625016272 Hartree
C      -0.61094466     -0.75188186      0.73969860
N      -1.86332564     -0.92134898      0.01857515
O      -2.73625289     -1.63267282      0.56703886
O      -1.94012266     -0.44151480     -1.11508161
H       0.02938491     -1.43531156      0.18594174
H      -0.69412659     -1.12943146      1.73260980
H      -0.28922582      0.27918009      0.74138226
7
Frame 75  Energy = -245.1624463056 Hartree
C      -0.61252164     -0.75163772      0.74059959
N      -1.86293121     -0.92079677      0.01977813
O      -2.73859969     -1.62850057      0.56838063
O      -1.93843714     -0.44459469     -1.11748998
H       0.02886576     -1.42789495      0.18785954
H      -0.70186933     -1.12981380      1.73536363
H      -0.27854627      0.27611635      0.74215796
7
Frame 80  Energy = -245.1624066211 Hartree
C      -0.61407465     -0.75135262      0.74147373
N      -1.86301111     -0.92044601      0.02081273
O      -2.74064092     -1.62417078      0.56954113
O      -1.93675618     -0.44787262     -1.11960320
H       0.02956830     -1.41959602      0.18979853
H      -0.71034442     -1.13015048      1.73972012
H      -0.26754211      0.27309430      0.74195141
7
Frame 85  Energy = -245.1624490165 Hartree
C      -0.61537750     -0.75104115      0.74230301
N      -1.86355153     -0.92020767      0.02160779
O      -2.74240914     -1.61959711      0.57049561
O      -1.93508848     -0.45124139     -1.12141863
H       0.03196216     -1.41063857      0.19160414
H      -0.71953640     -1.13056712      1.74512003
H      -0.25651248      0.27005566      0.74103262
7
Frame 90  Energy = -245.1623642855 Hartree
C      -0.61651925     -0.75070708      0.74318283
N      -1.86439294     -0.92006369      0.02227471
O      -2.74396033     -1.61480497      0.57126452
O      -1.93343178     -0.45467052     -1.12295679
H       0.03661354     -1.40167536      0.19290525
H      -0.72906552     -1.13117752      1.75073506
H      -0.24584483      0.26702796      0.73959149
7
Frame 95  Energy = -245.1623746815 Hartree
C      -0.61750816     -0.75042773      0.74413981
N      -1.86559205     -0.92000749      0.02279084
O      -2.74525982     -1.60971461      0.57190224
O      -1.93177323     -0.45816663     -1.12424286
H       0.04344483     -1.39284408      0.19417011
H      -0.73879869     -1.13213281      1.75622693
H      -0.23550642      0.26420712      0.73749447
7
Frame 100  Energy = -245.1623575905 Hartree
C      -0.61838091     -0.75016931      0.74509091
N      -1.86716479     -0.92008263      0.02311420
O      -2.74637180     -1.60442536      0.57237558
O      -1.93002760     -0.46168740     -1.12528581
H       0.05188904     -1.38464041      0.19522129
H      -0.74885196     -1.13267990      1.76087491
H      -0.22558834      0.26172949      0.73502848
7
Frame 105  Energy = -245.1624016153 Hartree
C      -0.61919074     -0.74999386      0.74613958
N      -1.86910011     -0.92035464      0.02313832
O      -2.74732072     -1.59903216      0.57266877
O      -1.92823886     -0.46531739     -1.12605762
H       0.06206068     -1.37702047      0.19652304
H      -0.75929964     -1.13255673      1.76442949
H      -0.21645504      0.25950766      0.73225693
7
Frame 110  Energy = -245.1623824626 Hartree
C      -0.61984988     -0.74997746      0.74737855
N      -1.87128037     -0.92072330      0.02288893
O      -2.74809132     -1.59352718      0.57284394
O      -1.92643222     -0.46908413     -1.12657999
H       0.07347317     -1.37012403      0.19782114
H      -0.76939389     -1.13153218      1.76671069
H      -0.20843255      0.25705710      0.72931815
7
Frame 115  Energy = -245.1622896320 Hartree
C      -0.62028866     -0.74998737      0.74885509
N      -1.87377849     -0.92114275      0.02244442
O      -2.74871668     -1.58794534      0.57285646
O      -1.92466193     -0.47304638     -1.12695090
H       0.08561738     -1.36378003      0.19907835
H      -0.77906093     -1.13003661      1.76796137
H      -0.20174826      0.25431597      0.72618107
7
Frame 120  Energy = -245.1620790154 Hartree
C      -0.62052415     -0.75007498      0.75045001
N      -1.87650124     -0.92159998      0.02185432
O      -2.74930923     -1.58224010      0.57269081
O      -1.92288092     -0.47712657     -1.12720007
H       0.09809458     -1.35797260      0.20104362
H      -0.78828315     -1.12811624      1.76812904
H      -0.19671517      0.25161883      0.72268110
7
Frame 125  Energy = -245.1619308737 Hartree
C      -0.62058423     -0.75027281      0.75219484
N      -1.87935535     -0.92205863      0.02111199
O      -2.74988628     -1.57640074      0.57235332
O      -1.92112100     -0.48136023     -1.12732770
H       0.11057899     -1.35252900      0.20368862
H      -0.79686821     -1.12558241      1.76704574
H      -0.19360025      0.24913215      0.71914902
7
Frame 130  Energy = -245.1617428733 Hartree
C      -0.62034726     -0.75048411      0.75405550
N      -1.88231844     -0.92259673      0.02017291
O      -2.75049407     -1.57050415      0.57196183
O      -1.91936608     -0.48566958     -1.12719243
H       0.12279420     -1.34742918      0.20702090
H      -0.80478067     -1.12197504      1.76469766
H      -0.19243117      0.24694362      0.71564618
7
Frame 135  Energy = -245.1617042938 Hartree
C      -0.61985301     -0.75078944      0.75596700
N      -1.88526790     -0.92322325      0.01909017
O      -2.75118370     -1.56447799      0.57155130
O      -1.91766264     -0.48997625     -1.12690470
H       0.13443460     -1.34267479      0.21151616
H      -0.81214348     -1.11814321      1.76135641
H      -0.19328537      0.24494470      0.71216887
7
Frame 140  Energy = -245.1617691275 Hartree
C      -0.61916530     -0.75114016      0.75786246
N      -1.88811204     -0.92389222      0.01784611
O      -2.75179285     -1.55835262      0.57114632
O      -1.91602401     -0.49421722     -1.12645058
H       0.14518711     -1.33821548      0.21658828
H      -0.81876141     -1.11401348      1.75767552
H      -0.19594091      0.24339490      0.70856376
7
Frame 145  Energy = -245.1619275029 Hartree
C      -0.61832355     -0.75153308      0.75969023
N      -1.89080872     -0.92449836      0.01635170
O      -2.75244394     -1.55221495      0.57078336
O      -1.91438429     -0.49836218     -1.12600045
H       0.15463650     -1.33396803      0.22220724
H      -0.82463724     -1.10956199      1.75409105
H      -0.20026488      0.24258309      0.70504995
7
Frame 150  Energy = -245.1619575915 Hartree
C      -0.61739184     -0.75204423      0.76142639
N      -1.89332853     -0.92505496      0.01473903
O      -2.75318057     -1.54618297      0.57042429
O      -1.91285690     -0.50248549     -1.12553774
H       0.16275467     -1.33026454      0.22851357
H      -0.82979927     -1.10505445      1.75092679
H      -0.20629768      0.24272053      0.70218809
7
Frame 155  Energy = -245.1621473430 Hartree
C      -0.61633105     -0.75265413      0.76311648
N      -1.89550351     -0.92564256      0.01311627
O      -2.75411666     -1.54017960      0.57003923
O      -1.91138232     -0.50660999     -1.12504762
H       0.16903447     -1.32694657      0.23571818
H      -0.83433269     -1.10042097      1.74871299
H      -0.21355997      0.24381425      0.69963148
7
Frame 160  Energy = -245.1622388987 Hartree
C      -0.61521007     -0.75334473      0.76464634
N      -1.89730156     -0.92613496      0.01140946
O      -2.75529828     -1.53422868      0.56965362
O      -1.91000740     -0.51063441     -1.12448952
H       0.17343632     -1.32404339      0.24375949
H      -0.83818879     -1.09628615      1.74776478
H      -0.22181979      0.24578117      0.69751936
7
Frame 165  Energy = -245.1622297072 Hartree
C      -0.61398778     -0.75400815      0.76603298
N      -1.89869268     -0.92648154      0.00954236
O      -2.75666563     -1.52831405      0.56931625
O      -1.90872691     -0.51465425     -1.12404317
H       0.17628010     -1.32152164      0.25251597
H      -0.84169824     -1.09240400      1.74801796
H      -0.23112182      0.24898987      0.69591716
7
Frame 170  Energy = -245.1620171522 Hartree
C      -0.61264087     -0.75467498      0.76722519
N      -1.89962893     -0.92666658      0.00764989
O      -2.75821616     -1.52244750      0.56910061
O      -1.90741697     -0.51873787     -1.12373770
H       0.17773337     -1.31943951      0.26181602
H      -0.84433107     -1.08876454      1.74956369
H      -0.24160307      0.25344556      0.69484118
7
Frame 175  Energy = -245.1621473398 Hartree
C      -0.61126229     -0.75535081      0.76823763
N      -1.90013149     -0.92676166      0.00570820
O      -2.76005358     -1.51667728      0.56896144
O      -1.90617481     -0.52277472     -1.12351905
H       0.17792162     -1.31821845      0.27163242
H      -0.84568843     -1.08526715      1.75251674
H      -0.25326874      0.25885043      0.69456602
7
Frame 180  Energy = -245.1620710747 Hartree
C      -0.60983491     -0.75605158      0.76904366
N      -1.90012940     -0.92682208      0.00370864
O      -2.76209043     -1.51101705      0.56890962
O      -1.90499774     -0.52672967     -1.12359526
H       0.17692929     -1.31813258      0.28165746
H      -0.84608197     -1.08218474      1.75694020
H      -0.26607038      0.26505481      0.69487697
7
Frame 185  Energy = -245.1619584931 Hartree
C      -0.60833802     -0.75678718      0.76975024
N      -1.89958955     -0.92686084      0.00170890
O      -2.76438253     -1.50543731      0.56895759
O      -1.90383695     -0.53061829     -1.12389131
H       0.17522947     -1.31936198      0.29132273
H      -0.84559093     -1.07913102      1.76284709
H      -0.27968342      0.27188241      0.69614783
7
Frame 190  Energy = -245.1618320759 Hartree
C      -0.60682774     -0.75746566      0.77038810
N      -1.89860698     -0.92689191     -0.00022289
O      -2.76694298     -1.49994255      0.56905676
O      -1.90278813     -0.53446536     -1.12444443
H       0.17319704     -1.32215678      0.30075811
H      -0.84452729     -1.07632082      1.76954534
H      -0.29426231      0.27920330      0.69788935
7
Frame 195  Energy = -245.1617159290 Hartree
C      -0.60543116     -0.75812375      0.77105171
N      -1.89723183     -0.92692652     -0.00203887
O      -2.76975936     -1.49453011      0.56933285
O      -1.90189021     -0.53824552     -1.12523086
H       0.17152635     -1.32662501      0.30955467
H      -0.84267657     -1.07360159      1.77666352
H      -0.30969938      0.28667433      0.70026709
7
Frame 200  Energy = -245.1617126800 Hartree
C      -0.60422812     -0.75861202      0.77175861
N      -1.89550072     -0.92708209     -0.00374198
O      -2.77285538     -1.48918220      0.56976294
O      -1.90102996     -0.54194821     -1.12626907
H       0.17024044     -1.33275652      0.31745436
H      -0.83990257     -1.07079480      1.78409301
H      -0.32566019      0.29377585      0.70284900
7
Frame 205  Energy = -245.1614848067 Hartree
C      -0.60323650     -0.75893061      0.77256428
N      -1.89330195     -0.92727478     -0.00525889
O      -2.77621877     -1.48392948      0.57034438
O      -1.90012628     -0.54558773     -1.12756834
H       0.16962484     -1.34011246      0.32449599
H      -0.83622862     -1.06768584      1.79121654
H      -0.34187092      0.30029845      0.70568751
7
Frame 210  Energy = -245.1615002011 Hartree
C      -0.60244909     -0.75906320      0.77346060
N      -1.89070775     -0.92753226     -0.00659122
O      -2.77983158     -1.47874067      0.57103061
O      -1.89914587     -0.54911751     -1.12913467
H       0.16987618     -1.34849777      0.33032566
H      -0.83190569     -1.06439642      1.79755749
H      -0.35821083      0.30608713      0.70909969
7
Frame 215  Energy = -245.1611433841 Hartree
C      -0.60175583     -0.75900386      0.77456500
N      -1.88799107     -0.92790030     -0.00773084
O      -2.78366427     -1.47358954      0.57186239
O      -1.89814534     -0.55257662     -1.13103301
H       0.17086749     -1.35792793      0.33542071
H      -0.82704559     -1.06082903      1.80293919
H      -0.37417994      0.31119622      0.71336577
7
Frame 220  Energy = -245.1610304069 Hartree
C      -0.60119378     -0.75870931      0.77588856
N      -1.88505912     -0.92827298     -0.00858076
O      -2.78773373     -1.46843975      0.57275936
O      -1.89704544     -0.55592580     -1.13337756
H       0.17246554     -1.36800645      0.33958373
H      -0.82164501     -1.05707604      1.80724992
H      -0.38971936      0.31562274      0.71810244
7
Frame 225  Energy = -245.1612344861 Hartree
C      -0.60080207     -0.75824004      0.77739444
N      -1.88184383     -0.92882147     -0.00912758
O      -2.79197131     -1.46334845      0.57364896
O      -1.89590736     -0.55914042     -1.13602643
H       0.17422736     -1.37821919      0.34301563
H      -0.81619969     -1.05323315      1.81026881
H      -0.40451648      0.31884469      0.72269155
7
Frame 230  Energy = -245.1610166890 Hartree
C      -0.60058235     -0.75769730      0.77897047
N      -1.87836127     -0.92959022     -0.00930559
O      -2.79628195     -1.45832014      0.57449275
O      -1.89477555     -0.56219075     -1.13895119
H       0.17620821     -1.38801895      0.34576428
H      -0.81074879     -1.04919587      1.81212848
H      -0.41848438      0.32065246      0.72749422
7
Frame 235  Energy = -245.1609937731 Hartree
C      -0.60052678     -0.75707859      0.78055135
N      -1.87471501     -0.93041127     -0.00919065
O      -2.80069705     -1.45328347      0.57530764
O      -1.89361342     -0.56512365     -1.14210690
H       0.17802503     -1.39694987      0.34812630
H      -0.80484094     -1.04511653      1.81345768
H      -0.43152242      0.32119591      0.73221155
7
Frame 240  Energy = -245.1609209846 Hartree
C      -0.60057983     -0.75628334      0.78215870
N      -1.87102581     -0.93136695     -0.00881846
O      -2.80515159     -1.44827925      0.57609410
O      -1.89233273     -0.56796261     -1.14545256
H       0.17900423     -1.40413292      0.35042334
H      -0.79876081     -1.04128381      1.81410238
H      -0.44314553      0.32090829      0.73715233
7
Frame 245  Energy = -245.1610218859 Hartree
C      -0.60067079     -0.75537292      0.78381907
N      -1.86736855     -0.93263442     -0.00817217
O      -2.80961621     -1.44332023      0.57684541
O      -1.89088280     -0.57067467     -1.14893737
H       0.17900085     -1.40950892      0.35284695
H      -0.79266597     -1.03754429      1.81397389
H      -0.45308910      0.32006617      0.74204498
7
Frame 250  Energy = -245.1609728129 Hartree
C      -0.60088192     -0.75453349      0.78549363
N      -1.86377065     -0.93404656     -0.00731441
O      -2.81399477     -1.43837378      0.57756575
O      -1.88935467     -0.57334670     -1.15251779
H       0.17840379     -1.41295040      0.35600362
H      -0.78668590     -1.03395389      1.81348382
H      -0.46122223      0.31882181      0.74665429
7
Frame 255  Energy = -245.1610772349 Hartree
C      -0.60112321     -0.75385964      0.78724105
N      -1.86026587     -0.93563935     -0.00636480
O      -2.81833754     -1.43347860      0.57828688
O      -1.88776754     -0.57600669     -1.15622057
H       0.17674287     -1.41420115      0.35962506
H      -0.78106545     -1.03053936      1.81288698
H      -0.46729252      0.31738676      0.75073116
7
Frame 260  Energy = -245.1613379198 Hartree
C      -0.60142968     -0.75332879      0.78890108
N      -1.85696101     -0.93734615     -0.00521678
O      -2.82248189     -1.42857587      0.57903463
O      -1.88613582     -0.57867461     -1.15994654
H       0.17440102     -1.41333029      0.36348390
H      -0.77612778     -1.02757718      1.81244682
H      -0.47107547      0.31582984      0.75432655
7
Frame 265  Energy = -245.1610070294 Hartree
C      -0.60178164     -0.75282571      0.79052550
N      -1.85387703     -0.93916909     -0.00389871
O      -2.82641635     -1.42361204      0.57973229
O      -1.88435815     -0.58131852     -1.16361809
H       0.17115885     -1.41034627      0.36749080
H      -0.77223848     -1.02488699      1.81237945
H      -0.47279229      0.31411440      0.75721314
7
Frame 270  Energy = -245.1609481136 Hartree
C      -0.60218666     -0.75227454      0.79210249
N      -1.85111190     -0.94126021     -0.00253008
O      -2.83026019     -1.41853698      0.58029101
O      -1.88245942     -0.58398416     -1.16720872
H       0.16748544     -1.40523929      0.37146417
H      -0.76892634     -1.02267494      1.81332996
H      -0.47229199      0.31287019      0.75943563
7
Frame 275  Energy = -245.1608912757 Hartree
C      -0.60264130     -0.75173045      0.79363344
N      -1.84861748     -0.94345848     -0.00125725
O      -2.83392914     -1.41336214      0.58077399
O      -1.88045970     -0.58666753     -1.17064894
H       0.16381652     -1.39813079      0.37506506
H      -0.76647742     -1.02120193      1.81535632
H      -0.46979346      0.31213067      0.76111522
7
Frame 280  Energy = -245.1609850536 Hartree
C      -0.60324016     -0.75119971      0.79515351
N      -1.84646971     -0.94582531      0.00002345
O      -2.83738552     -1.40815194      0.58117424
O      -1.87835046     -0.58942676     -1.17396252
H       0.16042859     -1.38950506      0.37793608
H      -0.76502764     -1.02054697      1.81821658
H      -0.46569153      0.31222963      0.76206175
7
Frame 285  Energy = -245.1608570695 Hartree
C      -0.60389879     -0.75080757      0.79650539
N      -1.84478691     -0.94834956      0.00124645
O      -2.84064474     -1.40284600      0.58151635
O      -1.87615045     -0.59224783     -1.17712894
H       0.15775351     -1.37990034      0.38023074
H      -0.76441218     -1.02027211      1.82206293
H      -0.46008630      0.31274865      0.76253161
7
Frame 290  Energy = -245.1609925516 Hartree
C      -0.60459423     -0.75050708      0.79789598
N      -1.84356961     -0.95093094      0.00235506
O      -2.84364256     -1.39751731      0.58179667
O      -1.87381158     -0.59515381     -1.18008229
H       0.15647585     -1.36967064      0.38175248
H      -0.76466061     -1.02045310      1.82666392
H      -0.45275230      0.31412592      0.76210640
7
Frame 295  Energy = -245.1609518171 Hartree
C      -0.60548281     -0.75016940      0.79929250
N      -1.84287244     -0.95347300      0.00340379
O      -2.84633482     -1.39211226      0.58196446
O      -1.87136356     -0.59808549     -1.18278008
H       0.15658012     -1.35899585      0.38209103
H      -0.76582112     -1.02124593      1.83195811
H      -0.44394332      0.31600582      0.76058282
7
Frame 300  Energy = -245.1610276160 Hartree
C      -0.60659904     -0.74986608      0.80069346
N      -1.84260977     -0.95601558      0.00429234
O      -2.84881808     -1.38665291      0.58206728
O      -1.86874327     -0.60107084     -1.18519090
H       0.15829217     -1.34850193      0.38136502
H      -0.76796348     -1.02244085      1.83726334
H      -0.43399927      0.31805845      0.75819622
