7
Frame 5  Energy = -245.1622931582 Hartree
C      -0.51920897     -0.77343378      0.66687196
N      -1.87595570     -0.97405681     -0.02972033
O      -2.54856177     -1.88660212      0.37484845
O      -2.14628408     -0.22244825     -0.92699254
H       0.24355656     -1.20445524      0.02418382
H      -0.61372738     -1.22842116      1.65284957
H      -0.31221679      0.29357848      0.67417367
7
Frame 10  Energy = -245.1621346045 Hartree
C      -0.51854494     -0.77052124      0.66896862
N      -1.87745800     -0.97817106     -0.03138897
O      -2.55120860     -1.88023380      0.37672338
O      -2.14343160     -0.22552575     -0.92784261
H       0.24394180     -1.20966864      0.02702620
H      -0.61371207     -1.22877273      1.65190644
H      -0.31037388      0.29439287      0.67359062
7
Frame 15  Energy = -245.1622641638 Hartree
C      -0.51802565     -0.76755296      0.67091588
N      -1.87860159     -0.98226780     -0.03287458
O      -2.55401843     -1.87397610      0.37863503
O      -2.14065987     -0.22855939     -0.92876842
H       0.24372479     -1.21562134      0.03048463
H      -0.61274232     -1.22859477      1.64994708
H      -0.30910467      0.29546380      0.67376991
7
Frame 20  Energy = -245.1622803078 Hartree
C      -0.51771817     -0.76465452      0.67268088
N      -1.87932572     -0.98625801     -0.03417674
O      -2.55702587     -1.86792740      0.38059447
O      -2.13795301     -0.23148154     -0.92976371
H       0.24262157     -1.22211006      0.03429914
H      -0.61124204     -1.22787434      1.64711684
H      -0.30869655      0.29685913      0.67442500
7
Frame 25  Energy = -245.1622418199 Hartree
C      -0.51750861     -0.76176425      0.67437916
N      -1.87967950     -0.99013650     -0.03526473
O      -2.56019478     -1.86214095      0.38263737
O      -2.13530628     -0.23433399     -0.93083103
H       0.24086161     -1.22892158      0.03877395
H      -0.60938038     -1.22666932      1.64378443
H      -0.30927426      0.29834515      0.67564281
7
Frame 30  Energy = -245.1623549073 Hartree
C      -0.51742638     -0.75897990      0.67607380
N      -1.87959354     -0.99373912     -0.03612596
O      -2.56354590     -1.85674285      0.38477209
O      -2.13266456     -0.23711822     -0.93207999
H       0.23829707     -1.23601208      0.04403070
H      -0.60676384     -1.22529203      1.64059205
H      -0.31060675      0.29980594      0.67711782
7
Frame 35  Energy = -245.1622760530 Hartree
C      -0.51742856     -0.75641975      0.67766225
N      -1.87910359     -0.99699097     -0.03673477
O      -2.56709771     -1.85161903      0.38703610
O      -2.13005591     -0.23980008     -0.93348587
H       0.23485584     -1.24336670      0.05003482
H      -0.60369979     -1.22378879      1.63783941
H      -0.31263875      0.30147103      0.67935664
7
Frame 40  Energy = -245.1623631890 Hartree
C      -0.51752544     -0.75397265      0.67909336
N      -1.87818254     -0.99988400     -0.03722529
O      -2.57085559     -1.84681714      0.38935247
O      -2.12739623     -0.24236370     -0.93507192
H       0.23052512     -1.25109904      0.05653544
H      -0.60061730     -1.22221928      1.63580390
H      -0.31512197      0.30370652      0.68187448
7
Frame 45  Energy = -245.1621926327 Hartree
C      -0.51779848     -0.75170564      0.68014292
N      -1.87683014     -1.00234936     -0.03758066
O      -2.57481043     -1.84229212      0.39179889
O      -2.12463127     -0.24485800     -0.93690306
H       0.22571786     -1.25869071      0.06344207
H      -0.59747562     -1.22062728      1.63468049
H      -0.31794193      0.30636290      0.68451624
7
Frame 50  Energy = -245.1622034971 Hartree
C      -0.51816830     -0.74963973      0.68091499
N      -1.87503992     -1.00448327     -0.03781704
O      -2.57903169     -1.83810450      0.39437964
O      -2.12192478     -0.24730786     -0.93893096
H       0.22062013     -1.26617744      0.07071808
H      -0.59436725     -1.21902852      1.63461215
H      -0.32101905      0.30960919      0.68721194
7
Frame 55  Energy = -245.1625460202 Hartree
C      -0.51854314     -0.74779548      0.68143071
N      -1.87285498     -1.00622797     -0.03793389
O      -2.58347323     -1.83425856      0.39711086
O      -2.11933004     -0.24973341     -0.94103892
H       0.21530923     -1.27368025      0.07802275
H      -0.59111936     -1.21770315      1.63591829
H      -0.32478134      0.31316930      0.68968235
7
Frame 60  Energy = -245.1623423751 Hartree
C      -0.51893666     -0.74617022      0.68161741
N      -1.87029426     -1.00759565     -0.03797953
O      -2.58808458     -1.83070340      0.39999590
O      -2.11677904     -0.25203352     -0.94327502
H       0.20991559     -1.28128208      0.08526919
H      -0.58803938     -1.21647315      1.63845387
H      -0.32889808      0.31647688      0.69225577
7
Frame 65  Energy = -245.1624068689 Hartree
C      -0.51942831     -0.74473723      0.68162235
N      -1.86738956     -1.00859515     -0.03796827
O      -2.59287557     -1.82746046      0.40295915
O      -2.11416651     -0.25435462     -0.94564941
H       0.20459697     -1.28896590      0.09221248
H      -0.58490296     -1.21541647      1.64208247
H      -0.33331761      0.31938089      0.69492623
7
Frame 70  Energy = -245.1624736320 Hartree
C      -0.51996633     -0.74333060      0.68156228
N      -1.86421731     -1.00929490     -0.03784477
O      -2.59775239     -1.82454114      0.40596661
O      -2.11152879     -0.25660557     -0.94817929
H       0.19935772     -1.29637467      0.09893527
H      -0.58228311     -1.21407407      1.64672497
H      -0.33846210      0.32192586      0.69758349
7
Frame 75  Energy = -245.1623956704 Hartree
C      -0.52065293     -0.74205335      0.68136496
N      -1.86082048     -1.00965883     -0.03753372
O      -2.60275467     -1.82186445      0.40910032
O      -2.10890354     -0.25879119     -0.95083811
H       0.19469638     -1.30346507      0.10496968
H      -0.58014277     -1.21260923      1.65218904
H      -0.34423663      0.32440702      0.70037022
7
Frame 80  Energy = -245.1624422177 Hartree
C      -0.52150231     -0.74102361      0.68112959
N      -1.85715075     -1.00969523     -0.03710646
O      -2.60780354     -1.81948125      0.41231495
O      -2.10622827     -0.26100189     -0.95359621
H       0.19094496     -1.31022162      0.11050589
H      -0.57841279     -1.21060959      1.65806067
H      -0.35033530      0.32675789      0.70297229
7
Frame 85  Energy = -245.1625002061 Hartree
C      -0.52257114     -0.74012817      0.68095992
N      -1.85325334     -1.00930171     -0.03646223
O      -2.61285655     -1.81725099      0.41551589
O      -2.10352533     -0.26315496     -0.95644784
H       0.18853729     -1.31647589      0.11534120
H      -0.57699820     -1.20810201      1.66375074
H      -0.35627388      0.32881251      0.70532658
7
Frame 90  Energy = -245.1623970599 Hartree
C      -0.52368808     -0.73948715      0.68078576
N      -1.84911561     -1.00858464     -0.03555890
O      -2.61794890     -1.81515689      0.41865114
O      -2.10087176     -0.26540685     -0.95937873
H       0.18726097     -1.32191339      0.11960610
H      -0.57576262     -1.20470086      1.66912486
H      -0.36193366      0.33052484      0.70774150
7
Frame 95  Energy = -245.1624187596 Hartree
C      -0.52487579     -0.73927521      0.68070873
N      -1.84488578     -1.00751103     -0.03450303
O      -2.62307317     -1.81319242      0.42172048
O      -2.09829329     -0.26773579     -0.96240076
H       0.18714155     -1.32643819      0.12319115
H      -0.57509359     -1.20061323      1.67375649
H      -0.36728422      0.33183303      0.71000844
7
Frame 100  Energy = -245.1624102841 Hartree
C      -0.52630539     -0.73938731      0.68068989
N      -1.84074095     -1.00619529     -0.03324321
O      -2.62809383     -1.81126649      0.42482714
O      -2.09561002     -0.27007811     -0.96546102
H       0.18825773     -1.33026775      0.12598249
H      -0.57523881     -1.19548514      1.67749114
H      -0.37217821      0.33258471      0.71212013
7
Frame 105  Energy = -245.1624538594 Hartree
C      -0.52796484     -0.73977071      0.68067361
N      -1.83677986     -1.00467406     -0.03181788
O      -2.63300974     -1.80930480      0.42794702
O      -2.09288500     -0.27233048     -0.96848877
H       0.19057015     -1.33312283      0.12774683
H      -0.57607385     -1.18893628      1.68001725
H      -0.37645284      0.33266651      0.71385766
7
Frame 110  Energy = -245.1625639173 Hartree
C      -0.52975441     -0.74043093      0.68082042
N      -1.83300238     -1.00302968     -0.03038570
O      -2.63783558     -1.80733404      0.43102520
O      -2.09017022     -0.27468055     -0.97150564
H       0.19397557     -1.33476619      0.12931302
H      -0.57734607     -1.18143622      1.68172593
H      -0.38031688      0.33213240      0.71502150
7
Frame 115  Energy = -245.1627423869 Hartree
C      -0.53159974     -0.74131978      0.68105270
N      -1.82948949     -1.00134462     -0.02885591
O      -2.64242844     -1.80539614      0.43400584
O      -2.08739002     -0.27700894     -0.97455654
H       0.19807095     -1.33522859      0.13073849
H      -0.57918232     -1.17327844      1.68271841
H      -0.38349665      0.33140965      0.71508823
7
Frame 120  Energy = -245.1627368451 Hartree
C      -0.53345361     -0.74238653      0.68137764
N      -1.82630784     -0.99961579     -0.02716669
O      -2.64676742     -1.80336604      0.43696842
O      -2.08459038     -0.27934087     -0.97756046
H       0.20298639     -1.33426030      0.13194614
H      -0.58163575     -1.16451569      1.68327186
H      -0.38593574      0.33003035      0.71428275
7
Frame 125  Energy = -245.1625805906 Hartree
C      -0.53533764     -0.74364375      0.68183870
N      -1.82347176     -0.99778731     -0.02545544
O      -2.65088184     -1.80125250      0.43989539
O      -2.08175816     -0.28165008     -0.98055432
H       0.20795117     -1.33160888      0.13313722
H      -0.58465547     -1.15539743      1.68342865
H      -0.38799202      0.32817680      0.71265768
7
Frame 130  Energy = -245.1625660999 Hartree
C      -0.53730162     -0.74516092      0.68245139
N      -1.82111267     -0.99591879     -0.02363137
O      -2.65474134     -1.79904458      0.44279271
O      -2.07880874     -0.28403869     -0.98356194
H       0.21267991     -1.32750590      0.13474929
H      -0.58814547     -1.14630352      1.68340712
H      -0.38950588      0.32570319      0.71028066
7
Frame 135  Energy = -245.1625083135 Hartree
C      -0.53931755     -0.74684653      0.68307728
N      -1.81923389     -0.99411968     -0.02158812
O      -2.65825907     -1.79668636      0.44562527
O      -2.07581281     -0.28654231     -0.98660682
H       0.21724348     -1.32185959      0.13673102
H      -0.59222794     -1.13742391      1.68370791
H      -0.39051760      0.32302383      0.70693725
7
Frame 140  Energy = -245.1626483795 Hartree
C      -0.54119206     -0.74866417      0.68359516
N      -1.81789850     -0.99234747     -0.01957021
O      -2.66155202     -1.79419884      0.44833617
O      -2.07275664     -0.28913223     -0.98960784
H       0.22175173     -1.31479372      0.13890871
H      -0.59706874     -1.12884379      1.68449581
H      -0.39095210      0.32023818      0.70265943
7
Frame 145  Energy = -245.1627329789 Hartree
C      -0.54287898     -0.75060151      0.68409016
N      -1.81716225     -0.99053419     -0.01759094
O      -2.66444671     -1.79162999      0.45098005
O      -2.06958343     -0.29176805     -0.99254345
H       0.22613624     -1.30662170      0.14105243
H      -0.60251305     -1.12100917      1.68583662
H      -0.39082026      0.31729168      0.69785976
7
Frame 150  Energy = -245.1625063895 Hartree
C      -0.54449379     -0.75263573      0.68456741
N      -1.81702372     -0.98878414     -0.01561922
O      -2.66696456     -1.78886518      0.45356721
O      -2.06633524     -0.29456985     -0.99549436
H       0.23043700     -1.29693530      0.14318406
H      -0.60845670     -1.11403480      1.68784382
H      -0.38995515      0.31412841      0.69268157
7
Frame 155  Energy = -245.1625200688 Hartree
C      -0.54601791     -0.75479024      0.68506197
N      -1.81740753     -0.98712645     -0.01362016
O      -2.66908434     -1.78586798      0.45611341
O      -2.06297790     -0.29753274     -0.99833030
H       0.23507481     -1.28615137      0.14551770
H      -0.61460862     -1.10807791      1.69055249
H      -0.38876687      0.31115472      0.68684076
7
Frame 160  Energy = -245.1627411440 Hartree
C      -0.54736564     -0.75684115      0.68554898
N      -1.81833594     -0.98555256     -0.01163695
O      -2.67084617     -1.78263401      0.45861451
O      -2.05955152     -0.30055251     -1.00102611
H       0.23984394     -1.27530611      0.14798107
H      -0.62117630     -1.10315719      1.69417025
H      -0.38699666      0.30835954      0.68067746
7
Frame 165  Energy = -245.1628598192 Hartree
C      -0.54863190     -0.75876049      0.68606481
N      -1.81988272     -0.98409666     -0.00971976
O      -2.67221516     -1.77925838      0.46109712
O      -2.05604302     -0.30363628     -1.00359087
H       0.24463997     -1.26444334      0.15058432
H      -0.62815902     -1.09929458      1.69849254
H      -0.38476719      0.30636613      0.67401455
7
Frame 170  Energy = -245.1626813653 Hartree
C      -0.54981520     -0.76064032      0.68662217
N      -1.82210488     -0.98275336     -0.00784443
O      -2.67322817     -1.77569315      0.46357423
O      -2.05244333     -0.30673178     -1.00601784
H       0.24891969     -1.25370584      0.15309731
H      -0.63549058     -1.09613070      1.70360428
H      -0.38220033      0.30482997      0.66669713
7
Frame 175  Energy = -245.1628042829 Hartree
C      -0.55096107     -0.76245414      0.68728480
N      -1.82492862     -0.98152109     -0.00608906
O      -2.67397863     -1.77194877      0.46602044
O      -2.04872266     -0.30989579     -1.00833577
H       0.25278189     -1.24342890      0.15526966
H      -0.64281403     -1.09375099      1.70908735
H      -0.37936446      0.30399631      0.65873558
7
Frame 180  Energy = -245.1630400630 Hartree
C      -0.55209597     -0.76410947      0.68808790
N      -1.82818982     -0.98040218     -0.00448870
O      -2.67446500     -1.76801398      0.46845618
O      -2.04494602     -0.31306642     -1.01050641
H       0.25659086     -1.23394962      0.15664601
H      -0.65001926     -1.09208307      1.71469883
H      -0.37668082      0.30334510      0.65069388
7
Frame 185  Energy = -245.1629394155 Hartree
C      -0.55322188     -0.76559770      0.68896047
N      -1.83193272     -0.97935143     -0.00289819
O      -2.67466182     -1.76389692      0.47079084
O      -2.04109007     -0.31626490     -1.01257702
H       0.26029874     -1.22593072      0.15755211
H      -0.65692439     -1.09101253      1.72015841
H      -0.37396967      0.30271817      0.64284316
7
Frame 190  Energy = -245.1627983184 Hartree
C      -0.55426767     -0.76693814      0.68995672
N      -1.83614050     -0.97843359     -0.00143704
O      -2.67463238     -1.75956740      0.47311374
O      -2.03718452     -0.31959132     -1.01460699
H       0.26428590     -1.21896509      0.15815829
H      -0.66336794     -1.09039304      1.72525940
H      -0.37115869      0.30209366      0.63517617
7
Frame 195  Energy = -245.1627042660 Hartree
C      -0.55526422     -0.76807654      0.69123767
N      -1.84068822     -0.97757529     -0.00011402
O      -2.67430339     -1.75512540      0.47535266
O      -2.03322211     -0.32307074     -1.01655027
H       0.26806260     -1.21335181      0.15869699
H      -0.66942378     -1.09017685      1.72951131
H      -0.36850711      0.30141710      0.62814154
7
Frame 200  Energy = -245.1626807296 Hartree
C      -0.55620916     -0.76895989      0.69276218
N      -1.84565951     -0.97683316      0.00108666
O      -2.67378694     -1.75057480      0.47758102
O      -2.02924281     -0.32660098     -1.01843523
H       0.27147788     -1.20892503      0.15873940
H      -0.67519480     -1.09051987      1.73290478
H      -0.36629355      0.30059903      0.62156394
7
Frame 205  Energy = -245.1626843056 Hartree
C      -0.55712612     -0.76973134      0.69445266
N      -1.85086229     -0.97616352      0.00213589
O      -2.67310498     -1.74587231      0.47976322
O      -2.02522816     -0.33017392     -1.02013997
H       0.27430640     -1.20611939      0.15862085
H      -0.68037430     -1.09095612      1.73511627
H      -0.36462677      0.29953276      0.61569544
7
Frame 210  Energy = -245.1625150667 Hartree
C      -0.55805541     -0.77035360      0.69626378
N      -1.85620385     -0.97557292      0.00301181
O      -2.67234510     -1.74106791      0.48194513
O      -2.02121954     -0.33380251     -1.02174807
H       0.27686968     -1.20513808      0.15807978
H      -0.68477722     -1.09165674      1.73618855
H      -0.36392221      0.29806867      0.61036503
7
Frame 215  Energy = -245.1621443362 Hartree
C      -0.55907462     -0.77080264      0.69814905
N      -1.86165684     -0.97501855      0.00371018
O      -2.67148684     -1.73608678      0.48413944
O      -2.01725562     -0.33754796     -1.02339647
H       0.27845676     -1.20559329      0.15745968
H      -0.68857703     -1.09222695      1.73614277
H      -0.36355772      0.29625098      0.60561701
7
Frame 220  Energy = -245.1621131009 Hartree
C      -0.56009628     -0.77109140      0.70010604
N      -1.86713392     -0.97442334      0.00425660
O      -2.67062193     -1.73106170      0.48639363
O      -2.01332133     -0.34132742     -1.02506576
H       0.27915879     -1.20735168      0.15673982
H      -0.69139128     -1.09282851      1.73480175
H      -0.36332295      0.29448372      0.60151495
7
Frame 225  Energy = -245.1621451748 Hartree
C      -0.56112954     -0.77124283      0.70204926
N      -1.87256025     -0.97368555      0.00470201
O      -2.66978869     -1.72611852      0.48870342
O      -2.00949351     -0.34514395     -1.02674989
H       0.27839430     -1.21090997      0.15627768
H      -0.69366145     -1.09374451      1.73227054
H      -0.36316706      0.29272765      0.59849412
7
Frame 230  Energy = -245.1621274345 Hartree
C      -0.56220906     -0.77125994      0.70392471
N      -1.87771183     -0.97283831      0.00504676
O      -2.66905393     -1.72128358      0.49103222
O      -2.00572493     -0.34893883     -1.02850442
H       0.27601333     -1.21578719      0.15628305
H      -0.69525709     -1.09453698      1.72933261
H      -0.36351842      0.29079197      0.59635518
7
Frame 235  Energy = -245.1619861941 Hartree
C      -0.56338515     -0.77117309      0.70582516
N      -1.88260928     -0.97192694      0.00523091
O      -2.66846355     -1.71651149      0.49339625
O      -2.00206536     -0.35273283     -1.03028257
H       0.27221123     -1.22219139      0.15670905
H      -0.69596582     -1.09526484      1.72597893
H      -0.36448192      0.28872725      0.59498682
7
Frame 240  Energy = -245.1619331233 Hartree
C      -0.56463107     -0.77097136      0.70765701
N      -1.88719869     -0.97087091      0.00527333
O      -2.66803867     -1.71188691      0.49581175
O      -1.99845222     -0.35657230     -1.03206256
H       0.26690860     -1.22967325      0.15756443
H      -0.69583778     -1.09630121      1.72256832
H      -0.36569318      0.28670616      0.59448032
7
Frame 245  Energy = -245.1619619161 Hartree
C      -0.56589924     -0.77062393      0.70939733
N      -1.89137627     -0.96974421      0.00527034
O      -2.66783150     -1.70748530      0.49837348
O      -1.99493962     -0.36040567     -1.03397672
H       0.26029035     -1.23814819      0.15914189
H      -0.69542332     -1.09815266      1.71963616
H      -0.36715532      0.28526820      0.59531029
7
Frame 250  Energy = -245.1620043783 Hartree
C      -0.56709195     -0.77022870      0.71100170
N      -1.89514643     -0.96847781      0.00513282
O      -2.66794446     -1.70334804      0.50099469
O      -1.99153482     -0.36423325     -1.03611574
H       0.25249401     -1.24729874      0.16120527
H      -0.69437566     -1.10060381      1.71746774
H      -0.36894200      0.28453992      0.59708510
7
Frame 255  Energy = -245.1620271159 Hartree
C      -0.56838843     -0.76973455      0.71244251
N      -1.89836726     -0.96703775      0.00490141
O      -2.66842691     -1.69946823      0.50370153
O      -1.98822178     -0.36796929     -1.03847018
H       0.24342552     -1.25714469      0.16343222
H      -0.69240198     -1.10330675      1.71662871
H      -0.37084646      0.28430018      0.59998401
7
Frame 260  Energy = -245.1620285516 Hartree
C      -0.56968382     -0.76912233      0.71371163
N      -1.90093863     -0.96550168      0.00459213
O      -2.66938878     -1.69581375      0.50655268
O      -1.98505255     -0.37167236     -1.04088812
H       0.23321176     -1.26793046      0.16600268
H      -0.69024083     -1.10652456      1.71712169
H      -0.37285870      0.28481949      0.60407328
7
Frame 265  Energy = -245.1619438175 Hartree
C      -0.57098780     -0.76846179      0.71485858
N      -1.90282513     -0.96369614      0.00424468
O      -2.67076943     -1.69232205      0.50945867
O      -1.98203524     -0.37545932     -1.04333075
H       0.22153159     -1.27906093      0.16885859
H      -0.68764862     -1.11036979      1.71914492
H      -0.37489780      0.28615888      0.60903174
7
Frame 270  Energy = -245.1620675774 Hartree
C      -0.57230749     -0.76768818      0.71590882
N      -1.90405006     -0.96164784      0.00391877
O      -2.67244882     -1.68902788      0.51252169
O      -1.97909700     -0.37915497     -1.04592345
H       0.20878442     -1.29064446      0.17151618
H      -0.68507233     -1.11440355      1.72214906
H      -0.37681039      0.28809218      0.61462751
7
Frame 275  Energy = -245.1621923990 Hartree
C      -0.57368829     -0.76688264      0.71685811
N      -1.90465958     -0.95941310      0.00363719
O      -2.67447064     -1.68599387      0.51574768
O      -1.97629345     -0.38271892     -1.04865801
H       0.19540761     -1.30285953      0.17422638
H      -0.68254031     -1.11812583      1.72560496
H      -0.37847008      0.29055692      0.62078641
7
Frame 280  Energy = -245.1623621009 Hartree
C      -0.57520767     -0.76597734      0.71775208
N      -1.90465891     -0.95707034      0.00339889
O      -2.67682618     -1.68318384      0.51904753
O      -1.97360214     -0.38613346     -1.05149276
H       0.18182358     -1.31562031      0.17702397
H      -0.67995605     -1.12162595      1.72946139
H      -0.37961325      0.29353209      0.62766935
7
Frame 285  Energy = -245.1626316715 Hartree
C      -0.57680916     -0.76500227      0.71857134
N      -1.90404507     -0.95465411      0.00324455
O      -2.67946533     -1.68056455      0.52242171
O      -1.97102483     -0.38944087     -1.05443606
H       0.16823329     -1.32870657      0.17937833
H      -0.67725983     -1.12482568      1.73360260
H      -0.37991588      0.29657335      0.63495421
7
Frame 290  Energy = -245.1625574774 Hartree
C      -0.57845212     -0.76404653      0.71939621
N      -1.90285258     -0.95212903      0.00314985
O      -2.68229040     -1.67805907      0.52575367
O      -1.96852007     -0.39262662     -1.05753485
H       0.15502759     -1.34189997      0.18149315
H      -0.67453527     -1.12817604      1.73784396
H      -0.37989252      0.29927031      0.64282073
7
Frame 295  Energy = -245.1623494825 Hartree
C      -0.58016667     -0.76308502      0.72032039
N      -1.90113352     -0.94961446      0.00320663
O      -2.68538877     -1.67563960      0.52909074
O      -1.96609012     -0.39585315     -1.06086530
H       0.14235818     -1.35532766      0.18323859
H      -0.67180457     -1.13153075      1.74206919
H      -0.37944603      0.30152647      0.65127756
7
Frame 300  Energy = -245.1623765287 Hartree
C      -0.58205772     -0.76216654      0.72125891
N      -1.89891512     -0.94708689      0.00338786
O      -2.68884549     -1.67323073      0.53235840
O      -1.96377471     -0.39910491     -1.06436483
H       0.13019780     -1.36862626      0.18448247
H      -0.66937483     -1.13431492      1.74583782
H      -0.37822915      0.30320157      0.66007326
