7
Frame 5  Energy = -245.1636248355 Hartree
C      -0.52803226     -0.75582824      0.58865757
N      -1.83323392     -0.97044646     -0.01704533
O      -2.41379852     -2.05774076      0.21187592
O      -2.30589078     -0.07622497     -0.74712916
H       0.22502742     -1.11981061     -0.11233234
H      -0.48937895     -1.31274391      1.52312972
H      -0.39199687      0.30973951      0.75918308
7
Frame 10  Energy = -245.1635057582 Hartree
C      -0.53095807     -0.75671020      0.59030828
N      -1.83395465     -0.96793740     -0.01827492
O      -2.41446509     -2.05618992      0.21572526
O      -2.30257323     -0.07867276     -0.75004836
H       0.21554738     -1.12059837     -0.11719719
H      -0.49274338     -1.31649817      1.51877836
H      -0.37913490      0.30412731      0.75297224
7
Frame 15  Energy = -245.1635971461 Hartree
C      -0.53372452     -0.75767547      0.59193114
N      -1.83517317     -0.96561685     -0.01963250
O      -2.41495739     -2.05438991      0.21947697
O      -2.29904147     -0.08134103     -0.75275848
H       0.20572770     -1.12121595     -0.12170321
H      -0.49633048     -1.32000639      1.51449042
H      -0.36655725      0.29834306      0.74659489
7
Frame 20  Energy = -245.1637204498 Hartree
C      -0.53634931     -0.75862249      0.59357770
N      -1.83686016     -0.96349255     -0.02111464
O      -2.41527199     -2.05225802      0.22309633
O      -2.29538905     -0.08413307     -0.75532124
H       0.19572066     -1.12222399     -0.12549020
H      -0.49999482     -1.32379400      1.51025725
H      -0.35469034      0.29250611      0.74010073
7
Frame 25  Energy = -245.1636722689 Hartree
C      -0.53899356     -0.75954815      0.59524609
N      -1.83903085     -0.96149447     -0.02270165
O      -2.41543325     -2.04984379      0.22664005
O      -2.29167796     -0.08707818     -0.75774430
H       0.18584154     -1.12357786     -0.12894434
H      -0.50365507     -1.32778805      1.50586671
H      -0.34330173      0.28719075      0.73356584
7
Frame 30  Energy = -245.1637967360 Hartree
C      -0.54153997     -0.76046199      0.59684781
N      -1.84161888     -0.95972582     -0.02435559
O      -2.41546240     -2.04715529      0.23007861
O      -2.28790917     -0.09018166     -0.76008509
H       0.17640596     -1.12520151     -0.13210051
H      -0.50720898     -1.33163377      1.50176390
H      -0.33253823      0.28306931      0.72756482
7
Frame 35  Energy = -245.1637492926 Hartree
C      -0.54403188     -0.76130005      0.59833627
N      -1.84448968     -0.95822251     -0.02601521
O      -2.41532619     -2.04419043      0.23352374
O      -2.28407790     -0.09338780     -0.76234661
H       0.16713642     -1.12735676     -0.13493136
H      -0.51062214     -1.33584890      1.49857362
H      -0.32225213      0.28012697      0.72184226
7
Frame 40  Energy = -245.1637882552 Hartree
C      -0.54635417     -0.76207969      0.59964874
N      -1.84770140     -0.95701331     -0.02766981
O      -2.41514213     -2.04088980      0.23689761
O      -2.28020914     -0.09672317     -0.76452053
H       0.15837071     -1.13025832     -0.13727680
H      -0.51374029     -1.34054768      1.49629092
H      -0.31274867      0.27830405      0.71683307
7
Frame 45  Energy = -245.1635215170 Hartree
C      -0.54853071     -0.76286118      0.60093240
N      -1.85120450     -0.95601387     -0.02922513
O      -2.41495406     -2.03732659      0.24013616
O      -2.27625484     -0.10012972     -0.76672102
H       0.14996944     -1.13409735     -0.13940703
H      -0.51659555     -1.34595021      1.49487987
H      -0.30371487      0.27748413      0.71255378
7
Frame 50  Energy = -245.1635500019 Hartree
C      -0.55055347     -0.76358625      0.60219393
N      -1.85487967     -0.95530909     -0.03072854
O      -2.41471239     -2.03345765      0.24330983
O      -2.27232345     -0.10353532     -0.76893869
H       0.14178713     -1.13860397     -0.14146631
H      -0.51931595     -1.35158441      1.49421623
H      -0.29568376      0.27766069      0.70905415
7
Frame 55  Energy = -245.1634478355 Hartree
C      -0.55239203     -0.76425439      0.60342395
N      -1.85874135     -0.95493768     -0.03210552
O      -2.41432975     -2.02930406      0.24633645
O      -2.26838597     -0.10693459     -0.77119261
H       0.13424867     -1.14400366     -0.14314124
H      -0.52162178     -1.35725200      1.49441820
H      -0.28864119      0.27869402      0.70643471
7
Frame 60  Energy = -245.1633987870 Hartree
C      -0.55408021     -0.76490789      0.60463171
N      -1.86266569     -0.95476349     -0.03325093
O      -2.41381685     -2.02497494      0.24923931
O      -2.26438638     -0.11026046     -0.77352957
H       0.12762539     -1.14995605     -0.14452084
H      -0.52369656     -1.36335177      1.49542427
H      -0.28254704      0.28003543      0.70445611
7
Frame 65  Energy = -245.1634383595 Hartree
C      -0.55561584     -0.76553336      0.60570224
N      -1.86661156     -0.95484920     -0.03419376
O      -2.41328623     -2.02058229      0.25207231
O      -2.26044290     -0.11353430     -0.77599451
H       0.12150966     -1.15642671     -0.14543940
H      -0.52528601     -1.36922611      1.49677943
H      -0.27767177      0.28146331      0.70351160
7
Frame 70  Energy = -245.1635103315 Hartree
C      -0.55686908     -0.76611923      0.60660756
N      -1.87058642     -0.95530444     -0.03489270
O      -2.41271623     -2.01614680      0.25477904
O      -2.25656998     -0.11665202     -0.77861548
H       0.11620319     -1.16363291     -0.14598163
H      -0.52670430     -1.37441971      1.49847626
H      -0.27415640      0.28253212      0.70338581
7
Frame 75  Energy = -245.1634331196 Hartree
C      -0.55794377     -0.76663990      0.60745445
N      -1.87450858     -0.95605127     -0.03528175
O      -2.41217570     -2.01171045      0.25743346
O      -2.25288411     -0.11965735     -0.78152122
H       0.11169148     -1.17172282     -0.14604350
H      -0.52814397     -1.37895973      1.50028399
H      -0.27208062      0.28298614      0.70405878
7
Frame 80  Energy = -245.1633304594 Hartree
C      -0.55875907     -0.76714755      0.60821053
N      -1.87826922     -0.95712128     -0.03524787
O      -2.41176978     -2.00725485      0.26000402
O      -2.24930819     -0.12257173     -0.78460586
H       0.10791307     -1.18014071     -0.14586271
H      -0.52942445     -1.38285261      1.50217240
H      -0.27144319      0.28293557      0.70538290
7
Frame 85  Energy = -245.1632852411 Hartree
C      -0.55946771     -0.76776220      0.60890803
N      -1.88187799     -0.95842652     -0.03486835
O      -2.41141268     -2.00281899      0.26249111
O      -2.24586213     -0.12530572     -0.78787014
H       0.10495045     -1.18884924     -0.14569296
H      -0.53062461     -1.38594761      1.50399913
H      -0.27234794      0.28227412      0.70713603
7
Frame 90  Energy = -245.1634396373 Hartree
C      -0.56006258     -0.76850941      0.60961841
N      -1.88525368     -0.95981478     -0.03414237
O      -2.41118291     -1.99852702      0.26487836
O      -2.24262293     -0.12781745     -0.79145627
H       0.10254957     -1.19786873     -0.14495827
H      -0.53146067     -1.38794128      1.50558023
H      -0.27454845      0.28106257      0.70929685
7
Frame 95  Energy = -245.1635511734 Hartree
C      -0.56049014     -0.76933473      0.61023671
N      -1.88830226     -0.96131677     -0.03302322
O      -2.41125497     -1.99440626      0.26716033
O      -2.23966106     -0.13014741     -0.79531706
H       0.10064386     -1.20678012     -0.14332262
H      -0.53184511     -1.38866867      1.50706396
H      -0.27778931      0.27913265      0.71156582
7
Frame 100  Energy = -245.1634883861 Hartree
C      -0.56077118     -0.77017618      0.61080795
N      -1.89091501     -0.96288455     -0.03157372
O      -2.41156656     -1.99042561      0.26935504
O      -2.23694261     -0.13226786     -0.79940947
H       0.09909946     -1.21560167     -0.14115610
H      -0.53217549     -1.38844499      1.50811315
H      -0.28231484      0.27680388      0.71391384
7
Frame 105  Energy = -245.1634844133 Hartree
C      -0.56093883     -0.77109668      0.61131962
N      -1.89309625     -0.96439914     -0.02980659
O      -2.41217030     -1.98663944      0.27159749
O      -2.23443358     -0.13418302     -0.80376192
H       0.09798695     -1.22394096     -0.13781304
H      -0.53251505     -1.38738855      1.50866432
H      -0.28764426      0.27397348      0.71659335
7
Frame 110  Energy = -245.1634751768 Hartree
C      -0.56090186     -0.77195804      0.61180101
N      -1.89477235     -0.96577474     -0.02774095
O      -2.41307725     -1.98304304      0.27388107
O      -2.23211801     -0.13594066     -0.80829499
H       0.09727096     -1.23196484     -0.13357958
H      -0.53247946     -1.38552464      1.50902331
H      -0.29381080      0.27098241      0.71957310
7
Frame 115  Energy = -245.1635905179 Hartree
C      -0.56073328     -0.77289804      0.61228328
N      -1.89590900     -0.96694187     -0.02547447
O      -2.41426620     -1.97977803      0.27617881
O      -2.22993221     -0.13751250     -0.81306448
H       0.09725420     -1.23924325     -0.12858787
H      -0.53196313     -1.38265563      1.50967899
H      -0.30088851      0.26810833      0.72298437
7
Frame 120  Energy = -245.1635050557 Hartree
C      -0.56039832     -0.77397412      0.61268670
N      -1.89654454     -0.96779773     -0.02304195
O      -2.41578129     -1.97685150      0.27849806
O      -2.22784255     -0.13894284     -0.81802362
H       0.09793777     -1.24574679     -0.12319134
H      -0.53153492     -1.37908101      1.51032443
H      -0.30832055      0.26594082      0.72659173
7
Frame 125  Energy = -245.1635393344 Hartree
C      -0.55998588     -0.77520057      0.61299561
N      -1.89658276     -0.96839073     -0.02045716
O      -2.41770971     -1.97426961      0.28096694
O      -2.22592978     -0.14023218     -0.82313085
H       0.09956998     -1.25170122     -0.11713772
H      -0.53100019     -1.37502111      1.51103320
H      -0.31605692      0.26396101      0.72982786
7
Frame 130  Energy = -245.1635947199 Hartree
C      -0.55949751     -0.77655184      0.61328800
N      -1.89595523     -0.96867711     -0.01782100
O      -2.41993083     -1.97205023      0.28346365
O      -2.22416225     -0.14142565     -0.82835113
H       0.10193787     -1.25703366     -0.11029352
H      -0.53003630     -1.37074985      1.51197807
H      -0.32364700      0.26227407      0.73306124
7
Frame 135  Energy = -245.1637063866 Hartree
C      -0.55905356     -0.77806885      0.61360659
N      -1.89484770     -0.96859032     -0.01517160
O      -2.42248982     -1.97013872      0.28596816
O      -2.22250292     -0.14250509     -0.83357767
H       0.10498482     -1.26168310     -0.10288826
H      -0.52872456     -1.36631858      1.51371093
H      -0.33097575      0.26108420      0.73643437
7
Frame 140  Energy = -245.1635572050 Hartree
C      -0.55853838     -0.77965127      0.61375002
N      -1.89328379     -0.96810340     -0.01249821
O      -2.42539687     -1.96864737      0.28859284
O      -2.22096052     -0.14365670     -0.83881722
H       0.10880396     -1.26589167     -0.09504300
H      -0.52760107     -1.36160929      1.51608559
H      -0.33811890      0.26067896      0.73973058
7
Frame 145  Energy = -245.1635346289 Hartree
C      -0.55796774     -0.78130091      0.61381742
N      -1.89122226     -0.96726421     -0.00981503
O      -2.42867956     -1.96753431      0.29136908
O      -2.21968388     -0.14483226     -0.84415766
H       0.11264944     -1.26963684     -0.08704378
H      -0.52660022     -1.35657764      1.51944672
H      -0.34500473      0.26109434      0.74280430
7
Frame 150  Energy = -245.1635785274 Hartree
C      -0.55742226     -0.78303511      0.61382411
N      -1.88879390     -0.96605758     -0.00732950
O      -2.43224529     -1.96671503      0.29432492
O      -2.21852974     -0.14593211     -0.84944419
H       0.11691377     -1.27290140     -0.07922724
H      -0.52547822     -1.35133987      1.52375817
H      -0.35162924      0.26209964      0.74565080
7
Frame 155  Energy = -245.1635435880 Hartree
C      -0.55684369     -0.78481848      0.61380113
N      -1.88605234     -0.96452693     -0.00490829
O      -2.43609857     -1.96621105      0.29730073
O      -2.21737314     -0.14701909     -0.85473088
H       0.12191146     -1.27535479     -0.07167678
H      -0.52433930     -1.34587884      1.52901212
H      -0.35809043      0.26369249      0.74837183
7
Frame 160  Energy = -245.1635963607 Hartree
C      -0.55623463     -0.78659756      0.61380806
N      -1.88313666     -0.96277151     -0.00258478
O      -2.44024640     -1.96593706      0.30027363
O      -2.21616916     -0.14815148     -0.85994660
H       0.12753733     -1.27743286     -0.06457297
H      -0.52337629     -1.34030742      1.53513591
H      -0.36404146      0.26569958      0.75077846
7
Frame 165  Energy = -245.1636826495 Hartree
C      -0.55559944     -0.78834948      0.61391913
N      -1.88007542     -0.96072515     -0.00044335
O      -2.44459808     -1.96584693      0.30322749
O      -2.21493397     -0.14940018     -0.86505681
H       0.13414368     -1.27877950     -0.05797149
H      -0.52259912     -1.33496025      1.54205177
H      -0.36935420      0.26806448      0.75280258
7
Frame 170  Energy = -245.1636192826 Hartree
C      -0.55491002     -0.78996812      0.61406988
N      -1.87685234     -0.95849075      0.00150539
O      -2.44913891     -1.96588085      0.30616107
O      -2.21364353     -0.15069248     -0.87004223
H       0.14163767     -1.27942957     -0.05191039
H      -0.52225773     -1.32959878      1.54974825
H      -0.37414915      0.27032635      0.75430684
7
Frame 175  Energy = -245.1636951697 Hartree
C      -0.55431209     -0.79157524      0.61423035
N      -1.87358362     -0.95613165      0.00314888
O      -2.45382799     -1.96602381      0.30912204
O      -2.21224638     -0.15206418     -0.87488409
H       0.14914576     -1.27967560     -0.04622415
H      -0.52217999     -1.32386032      1.55776486
H      -0.37884293      0.27227537      0.75521562
7
Frame 180  Energy = -245.1636184261 Hartree
C      -0.55370265     -0.79303711      0.61446725
N      -1.87028449     -0.95371703      0.00453327
O      -2.45861658     -1.96620115      0.31204489
O      -2.21079250     -0.15350376     -0.87953702
H       0.15649175     -1.27958424     -0.04104564
H      -0.52246936     -1.31734404      1.56580939
H      -0.38309227      0.27392346      0.75521899
7
Frame 185  Energy = -245.1635226611 Hartree
C      -0.55299293     -0.79434996      0.61491022
N      -1.86703068     -0.95126787      0.00562717
O      -2.46350532     -1.96639959      0.31498716
O      -2.20925457     -0.15501365     -0.88402078
H       0.16397980     -1.27907425     -0.03649692
H      -0.52297897     -1.31054366      1.57381546
H      -0.38700531      0.27493719      0.75467593
7
Frame 190  Energy = -245.1634122034 Hartree
C      -0.55221141     -0.79546057      0.61568905
N      -1.86397869     -0.94880518      0.00645401
O      -2.46849879     -1.96650831      0.31795046
O      -2.20764078     -0.15668198     -0.88827217
H       0.17154764     -1.27776644     -0.03244404
H      -0.52407005     -1.30363903      1.58143302
H      -0.39016693      0.27532793      0.75339925
7
Frame 195  Energy = -245.1636116156 Hartree
C      -0.55133765     -0.79630391      0.61672330
N      -1.86115339     -0.94643524      0.00700891
O      -2.47353085     -1.96648460      0.32093656
O      -2.20595266     -0.15839330     -0.89229041
H       0.17900366     -1.27582346     -0.02892960
H      -0.52565823     -1.29635128      1.58828703
H      -0.39260431      0.27493149      0.75189689
7
Frame 200  Energy = -245.1637031867 Hartree
C      -0.55031693     -0.79695382      0.61791656
N      -1.85854904     -0.94436212      0.00726216
O      -2.47848597     -1.96629857      0.32394411
O      -2.20420385     -0.16026363     -0.89599999
H       0.18639639     -1.27297884     -0.02562646
H      -0.52793403     -1.28872853      1.59416297
H      -0.39434979      0.27380314      0.75018022
7
Frame 205  Energy = -245.1637203393 Hartree
C      -0.54922701     -0.79748884      0.61945636
N      -1.85623044     -0.94257816      0.00718461
O      -2.48328424     -1.96584251      0.32695790
O      -2.20238207     -0.16232128     -0.89939790
H       0.19377955     -1.26959519     -0.02277911
H      -0.53081510     -1.28091401      1.59930888
H      -0.39527731      0.27211980      0.74773146
7
Frame 210  Energy = -245.1635601277 Hartree
C      -0.54806587     -0.79789579      0.62123639
N      -1.85423653     -0.94111717      0.00679502
O      -2.48798968     -1.96505848      0.32994337
O      -2.20044413     -0.16452691     -0.90255418
H       0.20088986     -1.26541231     -0.02026409
H      -0.53448157     -1.27306381      1.60359873
H      -0.39516598      0.27015664      0.74465392
7
Frame 215  Energy = -245.1634241665 Hartree
C      -0.54679128     -0.79827815      0.62329992
N      -1.85260310     -0.93985950      0.00611936
O      -2.49261512     -1.96395153      0.33290630
O      -2.19841466     -0.16691836     -0.90546281
H       0.20739357     -1.26029951     -0.01812239
H      -0.53861702     -1.26507558      1.60699397
H      -0.39428527      0.26795033      0.74121609
7
Frame 220  Energy = -245.1635390591 Hartree
C      -0.54530584     -0.79848298      0.62553017
N      -1.85138429     -0.93885564      0.00521158
O      -2.49711580     -1.96255345      0.33575711
O      -2.19629810     -0.16942735     -0.90819119
H       0.21305327     -1.25467173     -0.01568286
H      -0.54260417     -1.25722601      1.60938740
H      -0.39252358      0.26570986      0.73734798
7
Frame 225  Energy = -245.1635430940 Hartree
C      -0.54373199     -0.79844224      0.62796333
N      -1.85060417     -0.93816390      0.00401445
O      -2.50143507     -1.96083314      0.33857954
O      -2.19399265     -0.17205060     -0.91059301
H       0.21795418     -1.24850490     -0.01313360
H      -0.54697465     -1.24964225      1.61116191
H      -0.39003125      0.26370592      0.73296968
7
Frame 230  Energy = -245.1636559750 Hartree
C      -0.54204793     -0.79820349      0.63048578
N      -1.85024847     -0.93780530      0.00254725
O      -2.50555168     -1.95878593      0.34137465
O      -2.19155323     -0.17480948     -0.91264864
H       0.22213150     -1.24219933     -0.01054342
H      -0.55160516     -1.24281710      1.61273030
H      -0.38689446      0.26211678      0.72852969
7
Frame 235  Energy = -245.1638418364 Hartree
C      -0.54023630     -0.79778326      0.63296299
N      -1.85034432     -0.93774503      0.00083727
O      -2.50940568     -1.95630577      0.34411588
O      -2.18901924     -0.17767704     -0.91454854
H       0.22565105     -1.23563296     -0.00763606
H      -0.55624329     -1.23680849      1.61371052
H      -0.38342324      0.26163993      0.72370291
7
Frame 240  Energy = -245.1639218220 Hartree
C      -0.53841587     -0.79721788      0.63544111
N      -1.85084980     -0.93815302     -0.00108437
O      -2.51301252     -1.95356027      0.34673812
O      -2.18632727     -0.18065632     -0.91621829
H       0.22860915     -1.22900943     -0.00439586
H      -0.56103064     -1.23168826      1.61464426
H      -0.37911114      0.26205647      0.71877792
7
Frame 245  Energy = -245.1639502260 Hartree
C      -0.53653824     -0.79655148      0.63784477
N      -1.85171726     -0.93903593     -0.00325279
O      -2.51642905     -1.95039224      0.34938575
O      -2.18352733     -0.18370833     -0.91769882
H       0.23081757     -1.22240987     -0.00128186
H      -0.56579409     -1.22769112      1.61622726
H      -0.37435506      0.26308235      0.71396813
7
Frame 250  Energy = -245.1638460833 Hartree
C      -0.53465625     -0.79569845      0.64030710
N      -1.85294878     -0.94030471     -0.00546111
O      -2.51960003     -1.94684885      0.35197674
O      -2.18067985     -0.18686309     -0.91899976
H       0.23266815     -1.21637388      0.00144122
H      -0.57085354     -1.22491827      1.61870231
H      -0.36907969      0.26484116      0.70911056
7
Frame 255  Energy = -245.1638788555 Hartree
C      -0.53272804     -0.79470936      0.64281638
N      -1.85451424     -0.94193735     -0.00773808
O      -2.52257328     -1.94288756      0.35444187
O      -2.17778383     -0.19010009     -0.92017131
H       0.23434076     -1.21090395      0.00407749
H      -0.57636159     -1.22326735      1.62169006
H      -0.36313211      0.26738217      0.70397552
7
Frame 260  Energy = -245.1637280412 Hartree
C      -0.53084055     -0.79348016      0.64527396
N      -1.85638236     -0.94388385     -0.00997021
O      -2.52539808     -1.93854159      0.35683027
O      -2.17476440     -0.19340877     -0.92121524
H       0.23552300     -1.20603769      0.00661131
H      -0.58204422     -1.22250719      1.62500561
H      -0.35701271      0.27077003      0.69940571
7
Frame 265  Energy = -245.1637882405 Hartree
C      -0.52909856     -0.79204797      0.64775965
N      -1.85841715     -0.94616685     -0.01226674
O      -2.52812787     -1.93384286      0.35913578
O      -2.17162313     -0.19681973     -0.92205025
H       0.23676534     -1.20188804      0.00911408
H      -0.58764558     -1.22217001      1.62868532
H      -0.35076348      0.27458469      0.69493766
7
Frame 270  Energy = -245.1636458476 Hartree
C      -0.52743413     -0.79036512      0.65033371
N      -1.86058129     -0.94876211     -0.01460225
O      -2.53077626     -1.92883745      0.36134796
O      -2.16845529     -0.20012802     -0.92275254
H       0.23771027     -1.19843883      0.01136259
H      -0.59303225     -1.22234288      1.63275567
H      -0.34466518      0.27828801      0.69085645
7
Frame 275  Energy = -245.1634286160 Hartree
C      -0.52589333     -0.78853650      0.65288475
N      -1.86289635     -0.95170651     -0.01694355
O      -2.53336984     -1.92345897      0.36352926
O      -2.16523670     -0.20338193     -0.92340577
H       0.23858103     -1.19585471      0.01361016
H      -0.59803859     -1.22289852      1.63701224
H      -0.33876018      0.28194682      0.68738134
7
Frame 280  Energy = -245.1631739883 Hartree
C      -0.52437654     -0.78649962      0.65538300
N      -1.86527839     -0.95492232     -0.01932244
O      -2.53595872     -1.91771399      0.36560039
O      -2.16197932     -0.20664832     -0.92401248
H       0.23979030     -1.19453829      0.01584057
H      -0.60236228     -1.22377861      1.64138194
H      -0.33298105      0.28529911      0.68415191
7
Frame 285  Energy = -245.1632715164 Hartree
C      -0.52306818     -0.78420553      0.65777389
N      -1.86769391     -0.95838961     -0.02160624
O      -2.53851445     -1.91170831      0.36753050
O      -2.15872389     -0.20989109     -0.92458294
H       0.24071584     -1.19408759      0.01757716
H      -0.60591320     -1.22497377      1.64529504
H      -0.32736621      0.28813034      0.68127018
7
Frame 290  Energy = -245.1634159320 Hartree
C      -0.52193648     -0.78172548      0.66009524
N      -1.87002544     -0.96202667     -0.02380488
O      -2.54094484     -1.90554412      0.36936913
O      -2.15551232     -0.21308237     -0.92513322
H       0.24159551     -1.19498771      0.01924948
H      -0.60895751     -1.22623463      1.64855905
H      -0.32249872      0.29025082      0.67905476
7
Frame 295  Energy = -245.1632465944 Hartree
C      -0.52090893     -0.77903493      0.66237883
N      -1.87218391     -0.96587980     -0.02592814
O      -2.54343610     -1.89930315      0.37117895
O      -2.15232528     -0.21628157     -0.92569981
H       0.24252403     -1.19710798      0.02062477
H      -0.61145296     -1.22718761      1.65105832
H      -0.31830508      0.29155545      0.67705336
7
Frame 300  Energy = -245.1632215835 Hartree
C      -0.51998194     -0.77626412      0.66466347
N      -1.87420832     -0.96994428     -0.02790557
O      -2.54595652     -1.89298159      0.37299826
O      -2.14926871     -0.21936202     -0.92630672
H       0.24312590     -1.20020578      0.02225929
H      -0.61304456     -1.22793445      1.65244915
H      -0.31483812      0.29260296      0.67535072
