23
Frame 5  Energy = -425.5064140709 Hartree
C      -0.00962578      1.11064077      0.13222329
C      -0.30118557      1.21809705      1.63679141
C       0.83268983      0.68247654      2.53005883
C       0.58072913      0.92308439      4.03445533
C       1.84839962      0.68671343      4.86496358
C       1.66347725      1.04902038      6.33015782
O       0.77632042      1.73959860      6.77390171
O       2.62065770      0.53084542      7.15654148
C       2.46660444      0.87171056      8.51621393
H      -0.81430870      1.47093816     -0.47614988
H       0.87559089      1.67785831     -0.07764712
H       0.15481274      0.03174367     -0.15413975
H      -1.21603259      0.66834352      1.90404295
H      -0.60706552      2.24030931      1.82959654
H       0.96405471     -0.42487435      2.34902163
H       1.82615287      1.08251666      2.19938887
H       0.30403259      1.95934614      4.09667472
H      -0.14912334      0.21251315      4.46667567
H       2.10024444     -0.41034887      4.85876819
H       2.73054878      1.28395029      4.55349145
H       3.36217681      0.47532317      8.97208162
H       1.51978374      0.51028742      8.91835992
H       2.46882235      1.99484868      8.73148150
23
Frame 10  Energy = -425.5062878257 Hartree
C      -0.00918322      1.10928158      0.13312618
C      -0.30271249      1.21684565      1.63812993
C       0.83115734      0.68061247      2.52882463
C       0.58208327      0.92176430      4.03533986
C       1.84739259      0.68512723      4.86131730
C       1.66392371      1.05234862      6.33350980
O       0.77652026      1.73916484      6.77453735
O       2.62049647      0.53244428      7.15577941
C       2.46497057      0.87366613      8.51814075
H      -0.81431136      1.47591586     -0.47116404
H       0.87569376      1.67463925     -0.07490654
H       0.16002233      0.03637944     -0.14728496
H      -1.21237739      0.66411907      1.89733319
H      -0.60591131      2.23776303      1.83398005
H       0.96837849     -0.43034526      2.34075765
H       1.82010946      1.09102586      2.21610294
H       0.30316571      1.94925328      4.10264823
H      -0.14106127      0.21151911      4.47362996
H       2.09355896     -0.40908854      4.85035438
H       2.72515857      1.28530144      4.55346907
H       3.36333461      0.47159838      8.97423777
H       1.52276100      0.50762975      8.91769292
H       2.47056075      1.99648699      8.72564014
23
Frame 15  Energy = -425.5060142250 Hartree
C      -0.00872956      1.10759222      0.13417244
C      -0.30431231      1.21550604      1.63936334
C       0.82970520      0.67843340      2.52756574
C       0.58369967      0.92021151      4.03620051
C       1.84655280      0.68336332      4.85792032
C       1.66441736      1.05561914      6.33704670
O       0.77664389      1.73877065      6.77507261
O       2.62024852      0.53407521      7.15480163
C       2.46342542      0.87598243      8.52027219
H      -0.81584026      1.48199738     -0.46685708
H       0.87751221      1.67210162     -0.07278687
H       0.16555878      0.04299094     -0.14018124
H      -1.20920236      0.65950329      1.89056875
H      -0.60396441      2.23712822      1.83964210
H       0.97179985     -0.43347495      2.33297184
H       1.81294623      1.10010789      2.23368254
H       0.30075055      1.94058438      4.11016756
H      -0.13413104      0.21208219      4.47916090
H       2.08700143     -0.40558814      4.84133019
H       2.71909627      1.28557059      4.55271798
H       3.36399171      0.46679474      8.97753769
H       1.52576364      0.50435212      8.91748544
H       2.47227326      1.99554518      8.71790841
23
Frame 20  Energy = -425.5056423660 Hartree
C      -0.00829522      1.10563111      0.13532744
C      -0.30587391      1.21401167      1.64054435
C       0.82822812      0.67604565      2.52629370
C       0.58559894      0.91835342      4.03683957
C       1.84577768      0.68146093      4.85479473
C       1.66494633      1.05889255      6.34059416
O       0.77665530      1.73842365      6.77559717
O       2.61990793      0.53577800      7.15363763
C       2.46201048      0.87856663      8.52242095
H      -0.81874951      1.48882259     -0.46355278
H       0.88152634      1.67052640     -0.07163856
H       0.17122204      0.05126637     -0.13262575
H      -1.20657251      0.65415518      1.88339930
H      -0.60082594      2.23844087      1.84616941
H       0.97404817     -0.43404198      2.32530362
H       1.80506956      1.10979179      2.25178852
H       0.29677882      1.93436882      4.11936588
H      -0.12848968      0.21371007      4.48355466
H       2.08112073     -0.40058609      4.83168001
H       2.71277657      1.28485601      4.55110568
H       3.36415406      0.46117583      8.98227954
H       1.52847848      0.50036169      8.91755821
H       2.47390600      1.99211118      8.70903414
23
Frame 25  Energy = -425.5055391833 Hartree
C      -0.00789140      1.10343084      0.13672658
C      -0.30739227      1.21238542      1.64162470
C       0.82681666      0.67334591      2.52509019
C       0.58773844      0.91625637      4.03725922
C       1.84508183      0.67946546      4.85196465
C       1.66559595      1.06206437      6.34410929
O       0.77656000      1.73810175      6.77617903
O       2.61948446      0.53759355      7.15235292
C       2.46083442      0.88142276      8.52458353
H      -0.82263646      1.49637065     -0.46101142
H       0.88723825      1.66945869     -0.07149154
H       0.17696417      0.06025615     -0.12523058
H      -1.20469117      0.64791284      1.87620526
H      -0.59663020      2.24114633      1.85351904
H       0.97556722     -0.43201924      2.31791422
H       1.79667408      1.12013509      2.27001939
H       0.29106325      1.93075898      4.12979385
H      -0.12432172      0.21685671      4.48686358
H       2.07624826     -0.39451816      4.82142530
H       2.70617681      1.28337700      4.54869109
H       3.36301411      0.45518604      8.98777704
H       1.53061692      0.49572688      8.91833858
H       2.47564528      1.98632580      8.69900122
23
Frame 30  Energy = -425.5058423290 Hartree
C      -0.00745748      1.10116802      0.13836715
C      -0.30891139      1.21055777      1.64259855
C       0.82548537      0.67045969      2.52399117
C       0.59012311      0.91398377      4.03751045
C       1.84447915      0.67748340      4.84942048
C       1.66621009      1.06494903      6.34742505
O       0.77640656      1.73795510      6.77686769
O       2.61900165      0.53936746      7.15095752
C       2.45995391      0.88437799      8.52664722
H      -0.82724735      1.50400573     -0.45898552
H       0.89407544      1.66886254     -0.07245620
H       0.18294479      0.06928673     -0.11824781
H      -1.20341968      0.64064390      1.86887844
H      -0.59124618      2.24501086      1.86194070
H       0.97670021     -0.42764856      2.31110361
H       1.78808695      1.13116475      2.28771156
H       0.28372333      1.92984429      4.14172662
H      -0.12159412      0.22084946      4.48929174
H       2.07270088     -0.38805990      4.81092471
H       2.69980021      1.28132071      4.54536556
H       3.36067177      0.44943443      8.99355727
H       1.53225867      0.49077095      8.91981298
H       2.47726196      1.97855063      8.68818513
23
Frame 35  Energy = -425.5054914512 Hartree
C      -0.00703379      1.09893962      0.14010510
C      -0.31034809      1.20873343      1.64345592
C       0.82421949      0.66738659      2.52309916
C       0.59268866      0.91151199      4.03764772
C       1.84391238      0.67556746      4.84707053
C       1.66676495      1.06757187      6.35052834
O       0.77613117      1.73806161      6.77768118
O       2.61847217      0.54112703      7.14948587
C       2.45923840      0.88733971      8.52872834
H      -0.83215205      1.51116130     -0.45752499
H       0.90151687      1.66862943     -0.07432073
H       0.18907515      0.07714804     -0.11207267
H      -1.20278317      0.63228107      1.86142316
H      -0.58491686      2.24959908      1.87133364
H       0.97716835     -0.42115049      2.30478894
H       1.77981012      1.14279362      2.30493577
H       0.27491116      1.93084666      4.15472406
H      -0.12050610      0.22547411      4.49098711
H       2.07035901     -0.38198078      4.80009072
H       2.69441559      1.27915749      4.54087094
H       3.35707430      0.44412195      8.99966842
H       1.53345907      0.48549431      8.92192897
H       2.47838119      1.96954386      8.67722441
23
Frame 40  Energy = -425.5052351448 Hartree
C      -0.00668187      1.09685255      0.14197596
C      -0.31171296      1.20691317      1.64425384
C       0.82288592      0.66418105      2.52228483
C       0.59543867      0.90881416      4.03769526
C       1.84330172      0.67374677      4.84513628
C       1.66737371      1.06986454      6.35346551
O       0.77580141      1.73833548      6.77856208
O       2.61796518      0.54284697      7.14792723
C       2.45872514      0.89012977      8.53080922
H      -0.83692131      1.51772621     -0.45597346
H       0.90858852      1.66836538     -0.07702752
H       0.19523804      0.08332548     -0.10666740
H      -1.20319149      0.62299326      1.85427937
H      -0.57784235      2.25397501      1.88133341
H       0.97716941     -0.41287399      2.29899419
H       1.77177984      1.15543703      2.32122668
H       0.26507775      1.93342155      4.16840382
H      -0.12121211      0.23040123      4.49188888
H       2.06914213     -0.37692131      4.78928701
H       2.68991678      1.27695760      4.53511350
H       3.35197976      0.43889131      9.00603568
H       1.53389418      0.48001274      8.92458572
H       2.47907110      1.96054982      8.66615147
23
Frame 45  Energy = -425.5050130158 Hartree
C      -0.00632201      1.09507487      0.14399715
C      -0.31299045      1.20510645      1.64497155
C       0.82148134      0.66099570      2.52152649
C       0.59835452      0.90597751      4.03773372
C       1.84271631      0.67211182      4.84357061
C       1.66809789      1.07191034      6.35611941
O       0.77525801      1.73879992      6.77949551
O       2.61750955      0.54450260      7.14632823
C       2.45839615      0.89265721      8.53300800
H      -0.84068891      1.52334076     -0.45395066
H       0.91495828      1.66773784     -0.07986664
H       0.20157350      0.08704125     -0.10218803
H      -1.20459399      0.61325672      1.84747482
H      -0.56996275      2.25759043      1.89159403
H       0.97690420     -0.40375854      2.29351885
H       1.76447962      1.16874975      2.33597657
H       0.25468209      1.93672824      4.18264859
H      -0.12390936      0.23566325      4.49197123
H       2.06954025     -0.37331109      4.77840744
H       2.68629761      1.27427836      4.52776775
H       3.34530384      0.43428144      9.01256053
H       1.53392504      0.47458061      8.92729710
H       2.47940539      1.95272288      8.65518244
23
Frame 50  Energy = -425.5045524090 Hartree
C      -0.00595719      1.09367007      0.14609481
C      -0.31427426      1.20324309      1.64565686
C       0.82003983      0.65792673      2.52091185
C       0.60133490      0.90321822      4.03761769
C       1.84225397      0.67067590      4.84253719
C       1.66897640      1.07358457      6.35846131
O       0.77450240      1.73949406      6.78052726
O       2.61704053      0.54622306      7.14465695
C       2.45829140      0.89489791      8.53517776
H      -0.84356729      1.52788846     -0.45138459
H       0.92051487      1.66660483     -0.08271504
H       0.20799807      0.08749698     -0.09881260
H      -1.20668661      0.60367104      1.84133670
H      -0.56123457      2.26017671      1.90208634
H       0.97672555     -0.39403891      2.28837109
H       1.75758838      1.18284073      2.34871794
H       0.24410905      1.94007064      4.19723191
H      -0.12824253      0.24088275      4.49135076
H       2.07184358     -0.37121073      4.76740216
H       2.68406019      1.27167696      4.51905652
H       3.33756725      0.43010722      9.01873426
H       1.53434424      0.46920681      8.93032795
H       2.47979052      1.94662629      8.64440932
23
Frame 55  Energy = -425.5043176578 Hartree
C      -0.00553237      1.09265585      0.14832664
C      -0.31547223      1.20130960      1.64632014
C       0.81850647      0.65499008      2.52056468
C       0.60419711      0.90053602      4.03738622
C       1.84192217      0.66946022      4.84203778
C       1.66988671      1.07498854      6.36038846
O       0.77355662      1.74036767      6.78167760
O       2.61653330      0.54800554      7.14295770
C       2.45841508      0.89681306      8.53723172
H      -0.84532517      1.53116365     -0.44853189
H       0.92505143      1.66483961     -0.08559485
H       0.21456638      0.08431628     -0.09720873
H      -1.20936524      0.59427499      1.83609224
H      -0.55159136      2.26167640      1.91247340
H       0.97636714     -0.38484782      2.28330213
H       1.75119731      1.19757000      2.35984438
H       0.23362002      1.94260776      4.21171885
H      -0.13419570      0.24586630      4.49013471
H       2.07586779     -0.37090287      4.75684229
H       2.68279978      1.26919150      4.50918324
H       3.32874079      0.42660790      9.02466090
H       1.53484854      0.46397674      8.93388356
H       2.48031446      1.94342620      8.63436488
23
Frame 60  Energy = -425.5043337035 Hartree
C      -0.00503792      1.09215165      0.15055626
C      -0.31676838      1.19938390      1.64691138
C       0.81684972      0.65225894      2.52033698
C       0.60684605      0.89795475      4.03712346
C       1.84171025      0.66849796      4.84182481
C       1.67088508      1.07599556      6.36196055
O       0.77236050      1.74145779      6.78296459
O       2.61601014      0.54984830      7.14132318
C       2.45869156      0.89838644      8.53915079
H      -0.84563647      1.53295825     -0.44539623
H       0.92822555      1.66240272     -0.08855030
H       0.22078935      0.07799420     -0.09729558
H      -1.21238255      0.58521849      1.83142370
H      -0.54137071      2.26146261      1.92292673
H       0.97653364     -0.37730198      2.27794879
H       1.74509363      1.21220931      2.36879943
H       0.22342458      1.94359086      4.22582988
H      -0.14133345      0.25044334      4.48839886
H       2.08158794     -0.37239499      4.74683001
H       2.68197098      1.26693217      4.49808506
H       3.31911569      0.42361698      9.03037896
H       1.53540948      0.45941189      8.93765799
H       2.48073184      1.94373167      8.62518821
23
Frame 65  Energy = -425.5043386655 Hartree
C      -0.00453439      1.09204208      0.15279217
C      -0.31820795      1.19744878      1.64743319
C       0.81522818      0.64992104      2.52022147
C       0.60919064      0.89553517      4.03690746
C       1.84162865      0.66771818      4.84200710
C       1.67200255      1.07666516      6.36305420
O       0.77094883      1.74264178      6.78432956
O       2.61552324      0.55171233      7.13974971
C       2.45905007      0.89951395      8.54096732
H      -0.84454639      1.53342621     -0.44141061
H       0.92966345      1.65970065     -0.09142283
H       0.22649738      0.06969874     -0.09850623
H      -1.21540143      0.57702136      1.82713832
H      -0.53094126      2.25922970      1.93314429
H       0.97762503     -0.37206397      2.27237110
H       1.73917113      1.22650435      2.37590360
H       0.21413904      1.94235716      4.23876494
H      -0.14979497      0.25474272      4.48624974
H       2.08863405     -0.37553387      4.73765816
H       2.68186786      1.26463354      4.48653214
H       3.30911499      0.42112201      9.03640314
H       1.53619756      0.45528016      8.94105851
H       2.48122763      1.94788765      8.61718433
23
Frame 70  Energy = -425.5042879428 Hartree
C      -0.00392497      1.09225544      0.15502788
C      -0.31975057      1.19549391      1.64791724
C       0.81356813      0.64803773      2.52035724
C       0.61123379      0.89328916      4.03673068
C       1.84163985      0.66705212      4.84260197
C       1.67314565      1.07700047      6.36372229
O       0.76935374      1.74398398      6.78569371
O       2.61511567      0.55359250      7.13830235
C       2.45940158      0.90008067      8.54271841
H      -0.84167365      1.53214058     -0.43664384
H       0.92909661      1.65686607     -0.09428285
H       0.23142769      0.06024894     -0.10074157
H      -1.21849327      0.56990111      1.82323394
H      -0.52043385      2.25519058      1.94297687
H       0.97951058     -0.36952397      2.26688073
H       1.73334575      1.24057027      2.38105607
H       0.20605159      1.93873689      4.25075698
H      -0.15923592      0.25844064      4.48308286
H       2.09727296     -0.38012842      4.72928279
H       2.68243319      1.26200368      4.47454425
H       3.29920527      0.41913563      9.04268063
H       1.53730347      0.45201289      8.94390751
H       2.48168994      1.95549036      8.61017231
23
Frame 75  Energy = -425.5042563498 Hartree
C      -0.00320578      1.09266605      0.15719284
C      -0.32126143      1.19350171      1.64842886
C       0.81181949      0.64655552      2.52080154
C       0.61285315      0.89123746      4.03658646
C       1.84168040      0.66655371      4.84350817
C       1.67424957      1.07714022      6.36398453
O       0.76763047      1.74551799      6.78700599
O       2.61478579      0.55542337      7.13695343
C       2.45967829      0.90021997      8.54437213
H      -0.83739858      1.52907067     -0.43214441
H       0.92699763      1.65419580     -0.09661293
H       0.23516449      0.05008680     -0.10396422
H      -1.22148336      0.56422076      1.81992953
H      -0.51025919      2.24925333      1.95210747
H       0.98208967     -0.36989660      2.26146095
H       1.72761853      1.25388733      2.38444250
H       0.19957317      1.93269711      4.26162949
H      -0.16969752      0.26191278      4.47904464
H       2.10739902     -0.38576499      4.72189609
H       2.68350407      1.25905179      4.46235913
H       3.28993020      0.41790686      9.04839146
H       1.53844458      0.45014514      8.94616886
H       2.48181598      1.96572551      8.60465483
23
Frame 80  Energy = -425.5044216708 Hartree
C      -0.00235559      1.09322150      0.15929876
C      -0.32278293      1.19145860      1.64905306
C       0.81010435      0.64552101      2.52139715
C       0.61407191      0.88941943      4.03659279
C       1.84185873      0.66615967      4.84481110
C       1.67531695      1.07710411      6.36380668
O       0.76581780      1.74718631      6.78827850
O       2.61460591      0.55724666      7.13572256
C       2.45991338      0.90001410      8.54590516
H      -0.83176049      1.52425077     -0.42793727
H       0.92407606      1.65136714     -0.09832061
H       0.23773318      0.04018862     -0.10759505
H      -1.22421663      0.56014768      1.81728706
H      -0.50067411      2.24175538      1.96067609
H       0.98566239     -0.37305368      2.25585178
H       1.72211962      1.26587703      2.38588558
H       0.19500646      1.92396338      4.27104101
H      -0.18059599      0.26461627      4.47404441
H       2.11890593     -0.39220692      4.71575698
H       2.68453284      1.25612820      4.44995189
H       3.28177621      0.41683640      9.05386883
H       1.53982641      0.44948470      8.94795718
H       2.48189615      1.97788685      8.60046283
23
Frame 85  Energy = -425.5041844992 Hartree
C      -0.00136206      1.09378239      0.16132548
C      -0.32423621      1.18933545      1.64976160
C       0.80834265      0.64488560      2.52223312
C       0.61468449      0.88771919      4.03661356
C       1.84218957      0.66580401      4.84636638
C       1.67622614      1.07686825      6.36322045
O       0.76392852      1.74885988      6.78959007
O       2.61445029      0.55903647      7.13466887
C       2.46026387      0.89961034      8.54732749
H      -0.82506618      1.51857682     -0.42402375
H       0.92033267      1.64793515     -0.09962008
H       0.23893656      0.03137146     -0.11149980
H      -1.22651648      0.55763964      1.81530559
H      -0.49190646      2.23289998      1.96881926
H       0.99036636     -0.37816196      2.25034648
H       1.71683318      1.27650621      2.38506746
H       0.19212547      1.91337821      4.27885159
H      -0.19113934      0.26654883      4.46796954
H       2.13114834     -0.39913367      4.71109098
H       2.68558929      1.25326426      4.43766035
H       3.27523912      0.41599043      9.05942471
H       1.54143657      0.45014708      8.94916252
H       2.48208995      1.99062598      8.59747470
23
Frame 90  Energy = -425.5040808107 Hartree
C      -0.00021927      1.09423972      0.16326642
C      -0.32569212      1.18709720      1.65057807
C       0.80663864      0.64468203      2.52329868
C       0.61465863      0.88608805      4.03674446
C       1.84278988      0.66552114      4.84804132
C       1.67690296      1.07646432      6.36235163
O       0.76203903      1.75064031      6.79089476
O       2.61428064      0.56087263      7.13370175
C       2.46059048      0.89911527      8.54864185
H      -0.81800296      1.51204343     -0.42061966
H       0.91574346      1.64455618     -0.10080659
H       0.23907435      0.02434944     -0.11533499
H      -1.22830148      0.55649028      1.81427955
H      -0.48417150      2.22341905      1.97644283
H       0.99618029     -0.38519051      2.24498915
H       1.71105363      1.28551585      2.38210509
H       0.19076127      1.90140091      4.28496481
H      -0.20131876      0.26783659      4.46092441
H       2.14387550     -0.40539726      4.70816519
H       2.68622001      1.25062886      4.42565517
H       3.27043514      0.41508370      9.06534139
H       1.54324987      0.45228869      8.94970723
H       2.48198738      2.00306875      8.59581324
23
Frame 95  Energy = -425.5041302243 Hartree
C       0.00112281      1.09464596      0.16518333
C      -0.32718789      1.18475257      1.65147215
C       0.80507079      0.64492235      2.52460115
C       0.61407379      0.88451832      4.03697827
C       1.84358988      0.66515150      4.84990789
C       1.67744366      1.07605363      6.36108321
O       0.76015564      1.75241390      6.79217376
O       2.61413583      0.56272248      7.13279615
C       2.46086266      0.89858756      8.54972583
H      -0.81130094      1.50483436     -0.41794207
H       0.91107814      1.64186099     -0.10158306
H       0.23750693      0.01929166     -0.11871879
H      -1.22937194      0.55750587      1.81406644
H      -0.47752024      2.21395222      1.98324712
H       1.00296828     -0.39331755      2.24053842
H       1.70481620      1.29279208      2.37725000
H       0.19068625      1.88833080      4.28950992
H      -0.21073102      0.26801339      4.45313972
H       2.15695206     -0.41011120      4.70700883
H       2.68651718      1.24786855      4.41446133
H       3.26738412      0.41440893      9.07134611
H       1.54488783      0.45563293      8.94994754
H       2.48172266      2.01447803      8.59554740
23
Frame 100  Energy = -425.5040642552 Hartree
C       0.00257962      1.09483441      0.16710943
C      -0.32875683      1.18231597      1.65231984
C       0.80367250      0.64557353      2.52606422
C       0.61308782      0.88295231      4.03729018
C       1.84460750      0.66467911      4.85198553
C       1.67774950      1.07565640      6.35945883
O       0.75835557      1.75409454      6.79331552
O       2.61410553      0.56457638      7.13206448
C       2.46121852      0.89813680      8.55045491
H      -0.80505607      1.49756211     -0.41645285
H       0.90693079      1.63999508     -0.10183183
H       0.23419982      0.01665246     -0.12173201
H      -1.22981027      0.56011573      1.81444305
H      -0.47198470      2.20483699      1.98933468
H       1.01070422     -0.40181372      2.23724832
H       1.69800451      1.29849978      2.37042893
H       0.19207439      1.87488432      4.29221508
H      -0.21938240      0.26734918      4.44470986
H       2.16978281     -0.41240496      4.70769877
H       2.68619993      1.24487129      4.40422816
H       3.26610612      0.41398012      9.07724713
H       1.54578511      0.45977944      8.95000789
H       2.48114043      2.02374474      8.59644858
23
Frame 105  Energy = -425.5042840596 Hartree
C       0.00414025      1.09480879      0.16913795
C      -0.33020187      1.17979473      1.65322522
C       0.80241405      0.64645638      2.52770862
C       0.61169921      0.88131718      4.03771687
C       1.84593339      0.66406258      4.85413187
C       1.67784342      1.07517450      6.35766797
O       0.75661957      1.75574280      6.79439654
O       2.61415407      0.56641576      7.13154607
C       2.46155664      0.89769934      8.55095060
H      -0.79980870      1.48992880     -0.41682033
H       0.90313742      1.63877190     -0.10193466
H       0.22932379      0.01671205     -0.12410410
H      -1.22979457      0.56405792      1.81540665
H      -0.46782412      2.19659896      1.99488427
H       1.01921860     -0.40993191      2.23533542
H       1.69090609      1.30198419      2.36184480
H       0.19469274      1.86161905      4.29346562
H      -0.22683967      0.26616072      4.43574541
H       2.18225564     -0.41232865      4.70986547
H       2.68493684      1.24147423      4.39540032
H       3.26663217      0.41381438      9.08271870
H       1.54613150      0.46484392      8.94971593
H       2.48068790      2.02989375      8.59833931
23
Frame 110  Energy = -425.5043271369 Hartree
C       0.00582130      1.09451892      0.17120792
C      -0.33151366      1.17705095      1.65411931
C       0.80134341      0.64756644      2.52945897
C       0.60986222      0.87964651      4.03825082
C       1.84749083      0.66330209      4.85636248
C       1.67755766      1.07472705      6.35565740
O       0.75500688      1.75725788      6.79528141
O       2.61424600      0.56824571      7.13112061
C       2.46192891      0.89747887      8.55113793
H      -0.79595658      1.48252429     -0.41886687
H       0.90011763      1.63830643     -0.10174794
H       0.22297828      0.01949860     -0.12601521
H      -1.22992433      0.56921140      1.81687705
H      -0.46518780      2.18980950      1.99972238
H       1.02832686     -0.41650936      2.23461223
H       1.68331366      1.30354557      2.35154388
H       0.19835468      1.84959023      4.29347593
H      -0.23306927      0.26471734      4.42630573
H       2.19427742     -0.40997266      4.71342209
H       2.68283727      1.23790117      4.38839534
H       3.26871574      0.41414572      9.08783008
H       1.54575085      0.47093617      8.94928478
H       2.48020470      2.03270880      8.60152800
23
Frame 115  Energy = -425.5044370550 Hartree
C       0.00758942      1.09393519      0.17333872
C      -0.33272800      1.17415142      1.65491288
C       0.80052888      0.64883645      2.53124842
C       0.60752639      0.87783118      4.03882275
C       1.84929864      0.66244136      4.85862349
C       1.67690234      1.07438742      6.35354284
O       0.75357182      1.75870590      6.79596892
O       2.61437307      0.56999788      7.13076953
C       2.46245262      0.89749408      8.55112090
H      -0.79348236      1.47555328     -0.42243996
H       0.89809945      1.63866989     -0.10109055
H       0.21541671      0.02491968     -0.12723460
H      -1.23073911      0.57519609      1.81891144
H      -0.46435752      2.18464864      2.00422132
H       1.03760297     -0.42117872      2.23540808
H       1.67572035      1.30342368      2.33959042
H       0.20279894      1.83926376      4.29237416
H      -0.23812821      0.26289464      4.41660139
H       2.20523318     -0.40548040      4.71844866
H       2.67998583      1.23427793      4.38262820
H       3.27232624      0.41519649      9.09268676
H       1.54441264      0.47760534      8.94853035
H       2.47951997      2.03202924      8.60569183
23
Frame 120  Energy = -425.5045024837 Hartree
C       0.00939953      1.09298896      0.17551298
C      -0.33382563      1.17105930      1.65575472
C       0.79987205      0.65009655      2.53315974
C       0.60481419      0.87587772      4.03933050
C       1.85132947      0.66146377      4.86087859
C       1.67593456      1.07413934      6.35125911
O       0.75228990      1.76003479      6.79651844
O       2.61458855      0.57156726      7.13059960
C       2.46312177      0.89776013      8.55086165
H      -0.79281410      1.46923429     -0.42758000
H       0.89725279      1.64006073     -0.10018278
H       0.20696729      0.03266001     -0.12774231
H      -1.23243064      0.58142519      1.82143334
H      -0.46524257      2.18147447      2.00860044
H       1.04698637     -0.42336250      2.23786737
H       1.66858371      1.30164714      2.32618335
H       0.20738926      1.83190350      4.29061693
H      -0.24165404      0.26012028      4.40670689
H       2.21528006     -0.39902576      4.72514250
H       2.67624878      1.23078288      4.37846723
H       3.27685377      0.41668251      9.09730651
H       1.54230780      0.48488047      8.94737457
H       2.47888418      2.02787278      8.61113516
23
Frame 125  Energy = -425.5042977539 Hartree
C       0.01129405      1.09166145      0.17768652
C      -0.33471981      1.16777969      1.65663946
C       0.79937834      0.65131547      2.53511068
C       0.60171644      0.87373813      4.03986073
C       1.85353908      0.66038419      4.86313592
C       1.67463894      1.07405144      6.34886598
O       0.75117200      1.76126006      6.79688757
O       2.61489065      0.57302098      7.13066538
C       2.46384151      0.89825608      8.55039971
H      -0.79380049      1.46353657     -0.43357462
H       0.89791479      1.64279027     -0.09899922
H       0.19773245      0.04191372     -0.12802677
H      -1.23483883      0.58794151      1.82446441
H      -0.46813818      2.18045979      2.01228984
H       1.05642845     -0.42279071      2.24148965
H       1.66190458      1.29868472      2.31133707
H       0.21164481      1.82823356      4.28829431
H      -0.24449119      0.25668955      4.39674297
H       2.22436412     -0.39047206      4.73336182
H       2.67179634      1.22763328      4.37540196
H       3.28235259      0.41866072      9.10139325
H       1.53911414      0.49255466      8.94607225
H       2.47833308      2.02054622      8.61764459
23
Frame 130  Energy = -425.5042023947 Hartree
C       0.01321228      1.09014287      0.17979278
C      -0.33541975      1.16436288      1.65751503
C       0.79893785      0.65242125      2.53708946
C       0.59838360      0.87131284      4.04038013
C       1.85589334      0.65920904      4.86541857
C       1.67304749      1.07419046      6.34637997
O       0.75026442      1.76235084      6.79708431
O       2.61530503      0.57439899      7.13097295
C       2.46472634      0.89891923      8.54976452
H      -0.79596493      1.45845634     -0.44007139
H       0.90029252      1.64668473     -0.09797192
H       0.18781470      0.05205719     -0.12806248
H      -1.23851568      0.59453107      1.82814495
H      -0.47262915      2.18109839      2.01556419
H       1.06543289     -0.41946145      2.24629584
H       1.65604798      1.29432448      2.29551185
H       0.21544854      1.82810789      4.28533474
H      -0.24653554      0.25240494      4.38693164
H       2.23261285     -0.38047382      4.74303860
H       2.66705033      1.22483099      4.37379742
H       3.28831749      0.42160928      9.10454648
H       1.53473809      0.50079913      8.94444182
H       2.47804572      2.01040829      8.62476058
23
Frame 135  Energy = -425.5040711930 Hartree
C       0.01504071      1.08865578      0.18184718
C      -0.33601902      1.16086602      1.65843161
C       0.79873160      0.65347375      2.53913701
C       0.59493621      0.86860416      4.04081621
C       1.85831405      0.65798463      4.86774385
C       1.67115918      1.07451275      6.34383235
O       0.74955434      1.76329470      6.79705752
O       2.61581778      0.57564014      7.13147565
C       2.46564658      0.89967785      8.54898759
H      -0.79910354      1.45410568     -0.44714511
H       0.90361128      1.65162874     -0.09706097
H       0.17748641      0.06213617     -0.12773799
H      -1.24326053      0.60079279      1.83250359
H      -0.47855033      2.18275117      2.01785753
H       1.07388455     -0.41347498      2.25252762
H       1.65153149      1.28922507      2.27880585
H       0.21901978      1.83171671      4.28189074
H      -0.24772066      0.24705577      4.37737327
H       2.24026585     -0.36960414      4.75437906
H       2.66232445      1.22256405      4.37373418
H       3.29395565      0.42541469      9.10625102
H       1.52988697      0.50925705      8.94256049
H       2.47791934      1.99839843      8.63266226
23
Frame 140  Energy = -425.5040143662 Hartree
C       0.01675799      1.08737101      0.18390363
C      -0.33654270      1.15733632      1.65937940
C       0.79864106      0.65447381      2.54125959
C       0.59145735      0.86574146      4.04129474
C       1.86066583      0.65671318      4.87001373
C       1.66889856      1.07511817      6.34129363
O       0.74911830      1.76409447      6.79688393
O       2.61637920      0.57687460      7.13213708
C       2.46672086      0.90048370      8.54806144
H      -0.80232779      1.45010060     -0.45475915
H       0.90717254      1.65706080     -0.09604909
H       0.16736782      0.07067047     -0.12714165
H      -1.24916562      0.60629825      1.83734719
H      -0.48568345      2.18479320      2.01889849
H       1.08194270     -0.40508932      2.26026368
H       1.64834111      1.28354503      2.26125092
H       0.22201774      1.83867635      4.27821579
H      -0.24805368      0.24090245      4.36822035
H       2.24727416     -0.35887674      4.76736127
H       2.65762518      1.22151526      4.37518736
H       3.29901383      0.42994428      9.10629800
H       1.52499393      0.51775550      8.94066005
H       2.47824397      1.98547075      8.64139433
23
Frame 145  Energy = -425.5035506764 Hartree
C       0.01840859      1.08621051      0.18583257
C      -0.33699247      1.15381763      1.66042934
C       0.79868015      0.65539891      2.54335520
C       0.58780213      0.86271725      4.04185693
C       1.86291808      0.65542788      4.87227248
C       1.66636016      1.07590045      6.33884407
O       0.74891876      1.76481006      6.79654207
O       2.61704327      0.57808224      7.13288202
C       2.46786781      0.90132448      8.54698928
H      -0.80525339      1.44631184     -0.46214529
H       0.91084173      1.66244424     -0.09463973
H       0.15798871      0.07708698     -0.12661217
H      -1.25613132      0.61090104      1.84262617
H      -0.49383848      2.18711924      2.01873835
H       1.08916479     -0.39479234      2.26957724
H       1.64627396      1.27733532      2.24306295
H       0.22443018      1.84873553      4.27390120
H      -0.24796053      0.23377225      4.35936097
H       2.25409891     -0.34916884      4.78158899
H       2.65325824      1.22171602      4.37764102
H       3.30370700      0.43526418      9.10470313
H       1.52034822      0.52606472      8.93853126
H       2.47877709      1.97277424      8.65071282
23
Frame 150  Energy = -425.5036105240 Hartree
C       0.01990258      1.08519854      0.18769033
C      -0.33743237      1.15039662      1.66156462
C       0.79884137      0.65625274      2.54543649
C       0.58410529      0.85951656      4.04237323
C       1.86501153      0.65412551      4.87453494
C       1.66351782      1.07678705      6.33641627
O       0.74888769      1.76549213      6.79597896
O       2.61775634      0.57923425      7.13368071
C       2.46912408      0.90205517      8.54580145
H      -0.80790718      1.44286393     -0.46849341
H       0.91435162      1.66739598     -0.09244651
H       0.14926225      0.08098303     -0.12620553
H      -1.26383104      0.61463720      1.84787126
H      -0.50257883      2.18921511      2.01742562
H       1.09552930     -0.38297734      2.28009025
H       1.64503316      1.27099223      2.22472357
H       0.22698030      1.86060395      4.26913754
H      -0.24725528      0.22595073      4.35102127
H       2.26037894     -0.34111674      4.79660292
H       2.64937378      1.22303880      4.38114378
H       3.30801801      0.44132748      9.10170319
H       1.51548255      0.53420596      8.93614577
H       2.47948703      1.96130990      8.66081323
23
Frame 155  Energy = -425.5040097093 Hartree
C       0.02116327      1.08454915      0.18942565
C      -0.33786615      1.14713611      1.66272343
C       0.79910983      0.65710967      2.54731605
C       0.58053346      0.85618258      4.04285541
C       1.86684969      0.65282793      4.87681958
C       1.66049477      1.07778886      6.33408079
O       0.74902680      1.76603040      6.79527141
O       2.61859833      0.58033080      7.13456868
C       2.47040875      0.90263079      8.54455645
H      -0.80909715      1.43974275     -0.47361128
H       0.91758240      1.67187816     -0.08985683
H       0.14150359      0.08130533     -0.12629858
H      -1.27184135      0.61777662      1.85293856
H      -0.51175498      2.19095135      2.01445303
H       1.10114729     -0.37098358      2.29166287
H       1.64488333      1.26482969      2.20692380
H       0.22963898      1.87329954      4.26420384
H      -0.24616871      0.21722177      4.34336912
H       2.26625975     -0.33505910      4.81223521
H       2.64639698      1.22612601      4.38556585
H       3.31141000      0.44758302      9.09752664
H       1.51079927      0.54208989      8.93365295
H       2.48018067      1.95248855      8.67159948
23
Frame 160  Energy = -425.5037942119 Hartree
C       0.02208923      1.08417040      0.19097548
C      -0.33833725      1.14409309      1.66393756
C       0.79955038      0.65799998      2.54913198
C       0.57711205      0.85284591      4.04338969
C       1.86842146      0.65155321      4.87920445
C       1.65731061      1.07892602      6.33193629
O       0.74931743      1.76644779      6.79442955
O       2.61945541      0.58139585      7.13553587
C       2.47176562      0.90292963      8.54327402
H      -0.80896274      1.43686423     -0.47744180
H       0.92040287      1.67596227     -0.08662646
H       0.13504175      0.07804410     -0.12680807
H      -1.28024056      0.62020962      1.85804407
H      -0.52115668      2.19188225      2.00970798
H       1.10598457     -0.35941578      2.30367955
H       1.64549236      1.25910247      2.18976345
H       0.23260587      1.88579477      4.25866290
H      -0.24524404      0.20773457      4.33650338
H       2.27195180     -0.33187784      4.82883486
H       2.64430966      1.23089155      4.39064043
H       3.31422806      0.45393873      9.09206015
H       1.50671212      0.54960637      8.93085809
H       2.48117703      1.94666357      8.68286718
23
Frame 165  Energy = -425.5034405264 Hartree
C       0.02277166      1.08396598      0.19232313
C      -0.33887737      1.14125126      1.66527971
C       0.80008926      0.65898308      2.55088883
C       0.57388286      0.84953929      4.04389831
C       1.86977281      0.65039739      4.88160099
C       1.65393007      1.08015818      6.33002482
O       0.74976521      1.76671922      6.79338343
O       2.62028878      0.58246921      7.13647858
C       2.47322882      0.90301750      8.54197156
H      -0.80769415      1.43446105     -0.47953869
H       0.92223270      1.67926222     -0.08260401
H       0.12998668      0.07174502     -0.12767184
H      -1.28884651      0.62215101      1.86317194
H      -0.53052473      2.19163270      2.00366628
H       1.11042282     -0.34895587      2.31577293
H       1.64652958      1.25377077      2.17282619
H       0.23603588      1.89712084      4.25247572
H      -0.24469448      0.19725114      4.33029595
H       2.27725295     -0.33168821      4.84627839
H       2.64346596      1.23717627      4.39651163
H       3.31665474      0.46028213      9.08541489
H       1.50304654      0.55662914      8.92743535
H       2.48259208      1.94463557      8.69427499
23
Frame 170  Energy = -425.5034382560 Hartree
C       0.02325689      1.08393293      0.19349519
C      -0.33959250      1.13854133      1.66664352
C       0.80063668      0.66006977      2.55250225
C       0.57080376      0.84642975      4.04445798
C       1.87093349      0.64941632      4.88398801
C       1.65047747      1.08144306      6.32834532
O       0.75039861      1.76689157      6.79220896
O       2.62104622      0.58351287      7.13741429
C       2.47464629      0.90283869      8.54067488
H      -0.80506143      1.43252943     -0.47993937
H       0.92273359      1.68177716     -0.07785701
H       0.12659662      0.06276477     -0.12906503
H      -1.29734687      0.62354691      1.86819295
H      -0.53977014      2.19019703      1.99654880
H       1.11436861     -0.34040599      2.32751534
H       1.64809260      1.24828945      2.15734478
H       0.23934014      1.90665831      4.24571402
H      -0.24429844      0.18606233      4.32527139
H       2.28246248     -0.33458178      4.86422439
H       2.64352456      1.24527913      4.40292621
H       3.31870542      0.46644384      9.07785178
H       1.50014131      0.56296707      8.92335180
H       2.48399041      1.94649593      8.70599055
23
Frame 175  Energy = -425.5033377466 Hartree
C       0.02356855      1.08409860      0.19444860
C      -0.34037599      1.13598557      1.66802168
C       0.80125257      0.66130805      2.55395653
C       0.56785858      0.84356240      4.04507263
C       1.87185309      0.64860150      4.88636559
C       1.64709752      1.08272240      6.32694900
O       0.75113380      1.76701539      6.79084781
O       2.62179231      0.58463207      7.13834464
C       2.47580002      0.90255321      8.53934755
H      -0.80134220      1.43106946     -0.47833832
H       0.92263040      1.68311945     -0.07250380
H       0.12455414      0.05188357     -0.13057996
H      -1.30526823      0.62437034      1.87314386
H      -0.54959334      2.18756077      1.98841955
H       1.11779382     -0.33466386      2.33916648
H       1.65041353      1.24284288      2.14337181
H       0.24308623      1.91397212      4.23864212
H      -0.24436293      0.17450295      4.32119256
H       2.28748319     -0.34040175      4.88247367
H       2.64439734      1.25488189      4.40980092
H       3.32016671      0.47198315      9.06961305
H       1.49825038      0.56843296      8.91936324
H       2.48566900      1.95178302      8.71734337
23
Frame 180  Energy = -425.5034057506 Hartree
C       0.02367670      1.08442647      0.19519203
C      -0.34121911      1.13364437      1.66947883
C       0.80198905      0.66287471      2.55527678
C       0.56515515      0.84099439      4.04574298
C       1.87249658      0.64794498      4.88868933
C       1.64375926      1.08394362      6.32584866
O       0.75192194      1.76712417      6.78938532
O       2.62257037      0.58576426      7.13930628
C       2.47682356      0.90215131      8.53798043
H      -0.79642805      1.43015487     -0.47526075
H       0.92173875      1.68320905     -0.06660851
H       0.12377946      0.03993121     -0.13192936
H      -1.31220446      0.62498543      1.87787658
H      -0.55950689      2.18398640      1.97929553
H       1.12074252     -0.33203177      2.35013726
H       1.65298456      1.23757571      2.13131746
H       0.24702897      1.91836875      4.23107886
H      -0.24455671      0.16283410      4.31831893
H       2.29257628     -0.34832106      4.90074087
H       2.64597998      1.26578672      4.41698868
H       3.32184423      0.47610852      9.06130027
H       1.49710027      0.57299162      8.91519027
H       2.48744030      1.95952583      8.72838403
23
Frame 185  Energy = -425.5034461894 Hartree
C       0.02353116      1.08476661      0.19562149
C      -0.34223809      1.13140362      1.67109126
C       0.80279698      0.66472759      2.55639765
C       0.56267590      0.83865647      4.04641961
C       1.87285036      0.64745707      4.89103335
C       1.64052160      1.08520131      6.32499205
O       0.75267903      1.76713707      6.78785997
O       2.62324286      0.58695733      7.14028671
C       2.47757533      0.90173904      8.53643018
H      -0.79107819      1.42972594     -0.47070692
H       0.92015767      1.68189814     -0.06028222
H       0.12436653      0.02851347     -0.13251410
H      -1.31775015      0.62531325      1.88239256
H      -0.56917691      2.17963966      1.96920735
H       1.12328247     -0.33254930      2.36025997
H       1.65589822      1.23276129      2.12153072
H       0.25100904      1.91941983      4.22342539
H      -0.24498303      0.15140838      4.31647537
H       2.29756640     -0.35774436      4.91901440
H       2.64769229      1.27713487      4.42480872
H       3.32364014      0.47917228      9.05314968
H       1.49671225      0.57684380      8.91106365
H       2.48949098      1.96938845      8.73899326
23
Frame 190  Energy = -425.5034712388 Hartree
C       0.02309132      1.08497919      0.19586932
C      -0.34352972      1.12935467      1.67279916
C       0.80370833      0.66678160      2.55737870
C       0.56029897      0.83655642      4.04710830
C       1.87286028      0.64707478      4.89338137
C       1.63746391      1.08641133      6.32431726
O       0.75346295      1.76712335      6.78623387
O       2.62388879      0.58822340      7.14128316
C       2.47814996      0.90142211      8.53478670
H      -0.78552431      1.42969209     -0.46514107
H       0.91814903      1.67948246     -0.05361433
H       0.12671566      0.01818668     -0.13228386
H      -1.32145498      0.62529435      1.88628613
H      -0.57858434      2.17455442      1.95864766
H       1.12543365     -0.33657777      2.36977736
H       1.65860349      1.22850812      2.11420897
H       0.25491436      1.91686645      4.21605719
H      -0.24563287      0.14075517      4.31584016
H       2.30211508     -0.36809284      4.93681962
H       2.64938356      1.28864701      4.43291613
H       3.32580213      0.48089268      9.04561723
H       1.49735538      0.57932934      8.90685537
H       2.49160576      1.98005742      8.74872358
23
Frame 195  Energy = -425.5034075134 Hartree
C       0.02243862      1.08500054      0.19589456
C      -0.34508949      1.12742802      1.67445460
C       0.80474435      0.66896586      2.55818652
C       0.55807920      0.83468998      4.04777775
C       1.87266951      0.64670549      4.89565997
C       1.63463844      1.08754182      6.32387989
O       0.75428039      1.76707257      6.78451725
O       2.62453006      0.58954362      7.14226033
C       2.47864058      0.90130725      8.53308085
H      -0.78048826      1.43072596     -0.45842696
H       0.91576837      1.67629703     -0.04643248
H       0.13021518      0.00946719     -0.13126018
H      -1.32313933      0.62472266      1.88962009
H      -0.58758216      2.16906882      1.94788069
H       1.12722885     -0.34351563      2.37879247
H       1.66151998      1.22448816      2.10950061
H       0.25884420      1.91080767      4.20901788
H      -0.24616105      0.13105830      4.31637730
H       2.30569994     -0.37823405      4.95387284
H       2.65072213      1.30015734      4.44164177
H       3.32838753      0.48107547      9.03871824
H       1.49881167      0.58055736      8.90288508
H       2.49351980      1.99038043      8.75692376
23
Frame 200  Energy = -425.5037585994 Hartree
C       0.02170874      1.08477990      0.19577197
C      -0.34685269      1.12569966      1.67614070
C       0.80586949      0.67118448      2.55884932
C       0.55607139      0.83311546      4.04858972
C       1.87227927      0.64634975      4.89784003
C       1.63204449      1.08858485      6.32366751
O       0.75507998      1.76703245      6.78275472
O       2.62519159      0.59089677      7.14325305
C       2.47910378      0.90133190      8.53131324
H      -0.77610807      1.43260690     -0.45136027
H       0.91338754      1.67218963     -0.03885114
H       0.13495532      0.00325428     -0.12933393
H      -1.32275370      0.62368290      1.89255586
H      -0.59621300      2.16337453      1.93695661
H       1.12799445     -0.35269608      2.38706032
H       1.66453429      1.22078586      2.10758138
H       0.26202124      1.90200120      4.20251691
H      -0.24617738      0.12242501      4.31783363
H       2.30799567     -0.38723915      4.96981239
H       2.65161851      1.31121998      4.45105095
H       3.33158273      0.47978497      9.03252359
H       1.50092833      0.58055351      8.89894603
H       2.49537577      2.00009119      8.76376418
23
Frame 205  Energy = -425.5038425615 Hartree
C       0.02093033      1.08425378      0.19554736
C      -0.34880289      1.12405803      1.67789996
C       0.80718411      0.67336303      2.55933836
C       0.55434477      0.83177862      4.04948235
C       1.87177920      0.64601151      4.89984874
C       1.62957793      1.08952599      6.32366460
O       0.75570733      1.76703793      6.78092178
O       2.62578773      0.59235759      7.14420159
C       2.47948221      0.90167175      8.52963248
H      -0.77273114      1.43541322     -0.44433508
H       0.91170200      1.66760257     -0.03099015
H       0.14122328      0.00011740     -0.12653626
H      -1.32064238      0.62229626      1.89468962
H      -0.60402017      2.15805880      1.92631672
H       1.12763063     -0.36304270      2.39447476
H       1.66720134      1.21753629      2.10813166
H       0.26474475      1.89083392      4.19660080
H      -0.24550179      0.11534973      4.31985212
H       2.30913997     -0.39434470      4.98428519
H       2.65220663      1.32117454      4.46131037
H       3.33535526      0.47754734      9.02711007
H       1.50354096      0.57921697      8.89503405
H       2.49750325      2.00797219      8.76887587
23
Frame 210  Energy = -425.5038370717 Hartree
C       0.02011210      1.08329444      0.19536013
C      -0.35088185      1.12256505      1.67957949
C       0.80857328      0.67539317      2.55975889
C       0.55288426      0.83052929      4.05036615
C       1.87123568      0.64572335      4.90171145
C       1.62734734      1.09034285      6.32385184
O       0.75613591      1.76709806      6.77899141
O       2.62635268      0.59398459      7.14501335
C       2.47978275      0.90245131      8.52792925
H      -0.77057863      1.43959294     -0.43770531
H       0.91076150      1.66317203     -0.02296936
H       0.14827923     -0.00021049     -0.12306006
H      -1.31718962      0.62028918      1.89638597
H      -0.61147974      2.15353507      1.91583058
H       1.12628742     -0.37394667      2.40131891
H       1.66979745      1.21491614      2.11122204
H       0.26688891      1.87817086      4.19141827
H      -0.24413560      0.10990222      4.32256131
H       2.30888039     -0.39890433      4.99752502
H       2.65177436      1.32985675      4.47219879
H       3.33930498      0.47424660      9.02199816
H       1.50626817      0.57660759      8.89151858
H       2.49981733      2.01372544      8.77232388
23
Frame 215  Energy = -425.5037840789 Hartree
C       0.01916436      1.08186800      0.19523179
C      -0.35308169      1.12115410      1.68117514
C       0.80996968      0.67726533      2.56005687
C       0.55169206      0.82920728      4.05131944
C       1.87054192      0.64542213      4.90338264
C       1.62543673      1.09102861      6.32417692
O       0.75639923      1.76727975      6.77700075
O       2.62690196      0.59568391      7.14575183
C       2.48006401      0.90356496      8.52621496
H      -0.77019079      1.44503711     -0.43207165
H       0.91049125      1.65850633     -0.01473369
H       0.15606052      0.00248687     -0.11895328
H      -1.31211559      0.61748400      1.89771596
H      -0.61823931      2.15000238      1.90590478
H       1.12351889     -0.38448977      2.40783943
H       1.67205201      1.21278566      2.11692634
H       0.26770839      1.86498490      4.18716385
H      -0.24209023      0.10592063      4.32591882
H       2.30696008     -0.40061905      5.00907939
H       2.65037355      1.33713673      4.48385261
H       3.34322800      0.46959298      9.01769511
H       1.50923604      0.57260446      8.88872574
H       2.50248670      2.01679580      8.77423282
23
Frame 220  Energy = -425.5037605643 Hartree
C       0.01805977      1.08008033      0.19514830
C      -0.35546217      1.11975194      1.68275306
C       0.81145648      0.67887197      2.56024984
C       0.55082232      0.82784217      4.05236855
C       1.86972218      0.64510899      4.90498037
C       1.62398453      1.09158091      6.32479640
O       0.75658850      1.76754976      6.77504341
O       2.62746570      0.59742069      7.14638242
C       2.48023344      0.90498182      8.52445100
H      -0.77138291      1.45165712     -0.42739974
H       0.91122096      1.65384240     -0.00640952
H       0.16454710      0.00789255     -0.11411737
H      -1.30587808      0.61389093      1.89832779
H      -0.62393933      2.14797612      1.89649608
H       1.11947165     -0.39420011      2.41363370
H       1.67398249      1.21145256      2.12479096
H       0.26718705      1.85249629      4.18444163
H      -0.23969267      0.10352739      4.32978485
H       2.30341466     -0.39958782      5.01889027
H       2.64791468      1.34259139      4.49617934
H       3.34701157      0.46377475      9.01363445
H       1.51241993      0.56757822      8.88693712
H       2.50539904      2.01700955      8.77411169
23
Frame 225  Energy = -425.5036570175 Hartree
C       0.01684598      1.07800256      0.19512299
C      -0.35793711      1.11843719      1.68439201
C       0.81302308      0.68021708      2.56031791
C       0.55040439      0.82640647      4.05340486
C       1.86883652      0.64475802      4.90649650
C       1.62294678      1.09189624      6.32563326
O       0.75653540      1.76790282      6.77310624
O       2.62811059      0.59919335      7.14690612
C       2.48032009      0.90666295      8.52284014
H      -0.77401358      1.45899957     -0.42346158
H       0.91312849      1.64915636      0.00187845
H       0.17352259      0.01525871     -0.10888115
H      -1.29878525      0.60890053      1.89853757
H      -0.62881457      2.14747322      1.88778958
H       1.11400280     -0.40264126      2.41864216
H       1.67605881      1.21066590      2.13477738
H       0.26518915      1.84145113      4.18320204
H      -0.23659840      0.10265549      4.33425395
H       2.29849958     -0.39577704      5.02688455
H       2.64458103      1.34635122      4.50915682
H       3.35026467      0.45709296      9.00982499
H       1.51543765      0.56164845      8.88591893
H       2.50827517      2.01483075      8.77191562
23
Frame 230  Energy = -425.5040388868 Hartree
C       0.01553007      1.07567968      0.19522437
C      -0.36046002      1.11720241      1.68587654
C       0.81461119      0.68118859      2.56027801
C       0.55036268      0.82474621      4.05424865
C       1.86776238      0.64434984      4.90801994
C       1.62240523      1.09197336      6.32663672
O       0.75626989      1.76845730      6.77128956
O       2.62870939      0.60097290      7.14736729
C       2.48044625      0.90862632      8.52146601
H      -0.77801055      1.46687708     -0.41993994
H       0.91617124      1.64464372      0.00983009
H       0.18280866      0.02441986     -0.10333272
H      -1.29156937      0.60233956      1.89842069
H      -0.63360824      2.14864079      1.87997296
H       1.10704654     -0.40910966      2.42322561
H       1.67842987      1.21076956      2.14619367
H       0.26098386      1.83243764      4.18371582
H      -0.23270374      0.10287668      4.33897124
H       2.29237256     -0.38967342      5.03290986
H       2.64044219      1.34842120      4.52245308
H       3.35285303      0.44983513      9.00635248
H       1.51842587      0.55493813      8.88557850
H       2.51116952      2.01015077      8.76812198
23
Frame 235  Energy = -425.5041732477 Hartree
C       0.01410042      1.07313659      0.19545496
C      -0.36288033      1.11606579      1.68722347
C       0.81622049      0.68181616      2.56024293
C       0.55070878      0.82285697      4.05500982
C       1.86645249      0.64394213      4.90955671
C       1.62239200      1.09183753      6.32774891
O       0.75571895      1.76915704      6.76945589
O       2.62920553      0.60280617      7.14775426
C       2.48061514      0.91078012      8.52027063
H      -0.78273312      1.47541745     -0.41729287
H       0.92013115      1.64069593      0.01731681
H       0.19218738      0.03437488     -0.09812688
H      -1.28506662      0.59429843      1.89854586
H      -0.63780024      2.15152192      1.87320472
H       1.09893300     -0.41323669      2.42719305
H       1.68136257      1.21196517      2.15902545
H       0.25455530      1.82617191      4.18627891
H      -0.22877837      0.10430633      4.34449080
H       2.28546238     -0.38179090      5.03680536
H       2.63569914      1.34901525      4.53552792
H       3.35461318      0.44204021      9.00312249
H       1.52158251      0.54763902      8.88531477
H       2.51435781      2.00354661      8.76307954
23
Frame 240  Energy = -425.5040853859 Hartree
C       0.01263031      1.07047772      0.19581275
C      -0.36521268      1.11498988      1.68841006
C       0.81789142      0.68206296      2.56014642
C       0.55148735      0.82083060      4.05569140
C       1.86492721      0.64355684      4.91113412
C       1.62272383      1.09146659      6.32898621
O       0.75498466      1.76996334      6.76760185
O       2.62965453      0.60466611      7.14801472
C       2.48087252      0.91301918      8.51913404
H      -0.78772467      1.48440319     -0.41526455
H       0.92447088      1.63729257      0.02466727
H       0.20175559      0.04442942     -0.09339826
H      -1.27935514      0.58468853      1.89870420
H      -0.64162123      2.15529249      1.86745927
H       1.08966093     -0.41471457      2.43035981
H       1.68499348      1.21436167      2.17282020
H       0.24578013      1.82294072      4.19074085
H      -0.22469577      0.10639194      4.35094922
H       2.27775956     -0.37256274      5.03889738
H       2.63092401      1.34870851      4.54811801
H       3.35525017      0.43395427      8.99980361
H       1.52451093      0.53998968      8.88536105
H       2.51731710      1.99548681      8.75662590
23
Frame 245  Energy = -425.5042292286 Hartree
C       0.01097127      1.06776699      0.19634247
C      -0.36750694      1.11410363      1.68949644
C       0.81940256      0.68197600      2.55998710
C       0.55276153      0.81879794      4.05636097
C       1.86319585      0.64310930      4.91260796
C       1.62341540      1.09078474      6.33034225
O       0.75399584      1.77085347      6.76579714
O       2.62999713      0.60663581      7.14813781
C       2.48126173      0.91517266      8.51811551
H      -0.79301571      1.49351520     -0.41371444
H       0.92939622      1.63440393      0.03192177
H       0.21163459      0.05340036     -0.08976506
H      -1.27445312      0.57336232      1.89876669
H      -0.64496269      2.15962003      1.86262848
H       1.07942433     -0.41376347      2.43274795
H       1.68935081      1.21775478      2.18766858
H       0.23492942      1.82277634      4.19720954
H      -0.22048325      0.10927716      4.35791603
H       2.26978720     -0.36293272      5.03905717
H       2.62637153      1.34750412      4.56000374
H       3.35458132      0.42636694      8.99646589
H       1.52745679      0.53196552      8.88582494
H       2.52021555      1.98654010      8.74895552
23
Frame 250  Energy = -425.5041052160 Hartree
C       0.00919530      1.06520317      0.19697361
C      -0.36967119      1.11337733      1.69048292
C       0.82076085      0.68150564      2.55982133
C       0.55437811      0.81674973      4.05705023
C       1.86111869      0.64281189      4.91412617
C       1.62450750      1.08977133      6.33186424
O       0.75286819      1.77186576      6.76407821
O       2.63030465      0.60857308      7.14812722
C       2.48176763      0.91722137      8.51729267
H      -0.79795789      1.50247805     -0.41223288
H       0.93442153      1.63213577      0.03920561
H       0.22177120      0.06061185     -0.08712050
H      -1.27063859      0.56037325      1.89914004
H      -0.64806457      2.16442184      1.85880429
H       1.06855485     -0.41054723      2.43381977
H       1.69475915      1.22210709      2.20341178
H       0.22254129      1.82500613      4.20532757
H      -0.21612422      0.11257960      4.36544521
H       2.26169684     -0.35360558      5.03697218
H       2.62223899      1.34536113      4.57088991
H       3.35235977      0.41956841      8.99312578
H       1.53019262      0.52359194      8.88700539
H       2.52306056      1.97757250      8.74048906
23
Frame 255  Energy = -425.5042768811 Hartree
C       0.00736358      1.06275393      0.19762954
C      -0.37171913      1.11273460      1.69132775
C       0.82201561      0.68076955      2.55966673
C       0.55637654      0.81463632      4.05776984
C       1.85874818      0.64271949      4.91568660
C       1.62599908      1.08850993      6.33358772
O       0.75160131      1.77307817      6.76249416
O       2.63055562      0.61056063      7.14792211
C       2.48242377      0.91912908      8.51654190
H      -0.80230303      1.51081780     -0.41081306
H       0.93920057      1.63031720      0.04604614
H       0.23202020      0.06578894     -0.08594726
H      -1.26768318      0.54600044      1.89993727
H      -0.65030990      2.16923397      1.85608948
H       1.05710474     -0.40568411      2.43385467
H       1.70105529      1.22696892      2.21981901
H       0.20910529      1.82908344      4.21470706
H      -0.21176695      0.11569814      4.37337317
H       2.25397608     -0.34514440      5.03304698
H       2.61856136      1.34266344      4.58070270
H       3.34864658      0.41345306      8.98972731
H       1.53314424      0.51505173      8.88876997
H       2.52560345      1.96943696      8.73159931
23
Frame 260  Energy = -425.5042756241 Hartree
C       0.00548526      1.06043197      0.19841068
C      -0.37363951      1.11216863      1.69204258
C       0.82306785      0.67974843      2.55954420
C       0.55867268      0.81270347      4.05851380
C       1.85618561      0.64276843      4.91725613
C       1.62772401      1.08701930      6.33546177
O       0.75025553      1.77434657      6.76100997
O       2.63070758      0.61260493      7.14756129
C       2.48318484      0.92067396      8.51591495
H      -0.80579923      1.51795889     -0.40902151
H       0.94298851      1.62900411      0.05267921
H       0.24203569      0.06839452     -0.08641265
H      -1.26564777      0.53019809      1.90143375
H      -0.65184951      2.17371079      1.85452090
H       1.04517927     -0.39973981      2.43304488
H       1.70761732      1.23252049      2.23662787
H       0.19492460      1.83405905      4.22526551
H      -0.20821426      0.11902992      4.38158964
H       2.24700313     -0.33857474      5.02697043
H       2.61585166      1.33961339      4.58930216
H       3.34363322      0.40786999      8.98663757
H       1.53657471      0.50692958      8.89107725
H       2.52813109      1.96345974      8.72272184
23
Frame 265  Energy = -425.5045079404 Hartree
C       0.00350723      1.05833832      0.19936401
C      -0.37533129      1.11175289      1.69259425
C       0.82399282      0.67860787      2.55954878
C       0.56123794      0.81098404      4.05922762
C       1.85329330      0.64308652      4.91889559
C       1.62969063      1.08541550      6.33737030
O       0.74885258      1.77573537      6.75961067
O       2.63086541      0.61469001      7.14703457
C       2.48402003      0.92185420      8.51551686
H      -0.80771133      1.52416054     -0.40708508
H       0.94609413      1.62771423      0.05926999
H       0.25200127      0.06786642     -0.08866111
H      -1.26420293      0.51358563      1.90295209
H      -0.65268861      2.17740211      1.85436619
H       1.03356489     -0.39315880      2.43093254
H       1.71491063      1.23871127      2.25380904
H       0.18041388      1.83857801      4.23667050
H      -0.20576875      0.12198718      4.39007532
H       2.24142889     -0.33493494      5.01941529
H       2.61442120      1.33617868      4.59645757
H       3.33746226      0.40267940      8.98357048
H       1.54033397      0.49916362      8.89389244
H       2.53044947      1.96000359      8.71392983
23
Frame 270  Energy = -425.5043895136 Hartree
C       0.00144436      1.05647960      0.20052152
C      -0.37682598      1.11150763      1.69293333
C       0.82478125      0.67739969      2.55959372
C       0.56387439      0.80954552      4.05994704
C       1.84999940      0.64372847      4.92056105
C       1.63182236      1.08371991      6.33932810
O       0.74735405      1.77724361      6.75824529
O       2.63097027      0.61686733      7.14627191
C       2.48490118      0.92267441      8.51521528
H      -0.80786688      1.52898222     -0.40513503
H       0.94826300      1.62608699      0.06576717
H       0.26145990      0.06447840     -0.09260527
H      -1.26304812      0.49665131      1.90442865
H      -0.65303297      2.17972795      1.85544374
H       1.02219578     -0.38654905      2.42728101
H       1.72205039      1.24511710      2.27107138
H       0.16602871      1.84207868      4.24853568
H      -0.20405313      0.12431280      4.39914048
H       2.23741817     -0.33479791      5.01065592
H       2.61475199      1.33297424      4.60170991
H       3.33057864      0.39817021      8.98078365
H       1.54463628      0.49221007      8.89702586
H       2.53267033      1.95968372      8.70505908
23
Frame 275  Energy = -425.5045129131 Hartree
C      -0.00054946      1.05482833      0.20179557
C      -0.37818177      1.11151707      1.69316842
C       0.82542199      0.67613081      2.55974320
C       0.56673429      0.80840712      4.06072508
C       1.84632918      0.64464086      4.92224869
C       1.63412425      1.08189129      6.34142627
O       0.74576097      1.77879362      6.75699048
O       2.63096325      0.61910718      7.14531090
C       2.48586217      0.92302612      8.51503752
H      -0.80665524      1.53257826     -0.40323096
H       0.94909809      1.62442099      0.07215695
H       0.27042297      0.05868166     -0.09780423
H      -1.26140133      0.47977194      1.90611139
H      -0.65302700      2.18082609      1.85775632
H       1.01158372     -0.38048453      2.42216278
H       1.72876944      1.25125890      2.28833373
H       0.15232529      1.84399851      4.26066684
H      -0.20305707      0.12558310      4.40809857
H       2.23453830     -0.33791651      5.00049990
H       2.61686184      1.33011602      4.60529470
H       3.32316415      0.39428332      8.97833327
H       1.54973408      0.48625895      8.90034313
H       2.53475825      1.96254572      8.69708886
23
Frame 280  Energy = -425.5044320773 Hartree
C      -0.00246876      1.05333538      0.20320475
C      -0.37938898      1.11170390      1.69322747
C       0.82586385      0.67485933      2.56007382
C       0.56972722      0.80772450      4.06155635
C       1.84234863      0.64569514      4.92390013
C       1.63654582      1.08002652      6.34368690
O       0.74408023      1.78046549      6.75586054
O       2.63092183      0.62134100      7.14421814
C       2.48681137      0.92308466      8.51495507
H      -0.80369425      1.53468998     -0.40097736
H       0.94850495      1.62306030      0.07823056
H       0.27838250      0.05107550     -0.10392267
H      -1.25900116      0.46335773      1.90764058
H      -0.65233485      2.18074427      1.86104871
H       1.00204259     -0.37539869      2.41573118
H       1.73529244      1.25682683      2.30538235
H       0.13935489      1.84373692      4.27257546
H      -0.20228329      0.12574472      4.41682002
H       2.23275710     -0.34391857      4.98907543
H       2.62037216      1.32755440      4.60736445
H       3.31596205      0.39086225      8.97607599
H       1.55514528      0.48139431      8.90367351
H       2.53688111      1.96838228      8.68994063
23
Frame 285  Energy = -425.5043438526 Hartree
C      -0.00429295      1.05191582      0.20478754
C      -0.38055344      1.11188887      1.69312981
C       0.82612172      0.67369684      2.56054264
C       0.57270659      0.80742860      4.06244500
C       1.83816085      0.64682327      4.92558525
C       1.63895075      1.07816974      6.34606098
O       0.74232883      1.78210683      6.75474303
O       2.63077208      0.62356036      7.14300958
C       2.48767928      0.92288846      8.51495012
H      -0.79940261      1.53498964     -0.39841227
H       0.94607544      1.62186561      0.08389954
H       0.28495531      0.04216755     -0.11097363
H      -1.25542506      0.44806716      1.90919046
H      -0.65137802      2.17935004      1.86549429
H       0.99380061     -0.37214942      2.40788099
H       1.74156835      1.26177994      2.32191430
H       0.12796263      1.84076735      4.28405587
H      -0.20166285      0.12526169      4.42533177
H       2.23199530     -0.35265263      4.97643720
H       2.62508889      1.32510403      4.60772808
H       3.30957847      0.38804966      8.97434082
H       1.56084375      0.47786191      8.90716156
H       2.53912469      1.97691176      8.68328135
23
Frame 290  Energy = -425.5045952965 Hartree
C      -0.00592801      1.05065971      0.20644154
C      -0.38176908      1.11201428      1.69288113
C       0.82618034      0.67268916      2.56113613
C       0.57564984      0.80752150      4.06345430
C       1.83376968      0.64806178      4.92720621
C       1.64119717      1.07632612      6.34862074
O       0.74056717      1.78359936      6.75358441
O       2.63047907      0.62570252      7.14163979
C       2.48852166      0.92256150      8.51502210
H      -0.79422363      1.53383715     -0.39599038
H       0.94218914      1.62096076      0.08935867
H       0.29013238      0.03285510     -0.11861566
H      -1.25052672      0.43405531      1.91063405
H      -0.65051100      2.17650004      1.87110549
H       0.98653248     -0.37104996      2.39838357
H       1.74678218      1.26607391      2.33794236
H       0.11849414      1.83479534      4.29487188
H      -0.20063601      0.12411456      4.43297946
H       2.23210856     -0.36305639      4.96315603
H       2.63063977      1.32279161      4.60689601
H       3.30430469      0.38554916      8.97354396
H       1.56655018      0.47549341      8.91079113
H       2.54151871      1.98739140      8.67700738
23
Frame 295  Energy = -425.5045021722 Hartree
C      -0.00739568      1.04946029      0.20813077
C      -0.38291962      1.11216240      1.69252784
C       0.82597826      0.67194920      2.56191891
C       0.57842672      0.80791630      4.06466317
C       1.82937577      0.64938970      4.92882236
C       1.64335341      1.07447209      6.35124399
O       0.73880473      1.78504340      6.75244843
O       2.63009473      0.62778179      7.14013078
C       2.48929082      0.92200399      8.51503296
H      -0.78850246      1.53142887     -0.39413053
H       0.93718373      1.62056766      0.09458760
H       0.29372365      0.02417385     -0.12625993
H      -1.24427741      0.42204822      1.91192781
H      -0.64970193      2.17236926      1.87783390
H       0.98077975     -0.37212912      2.38748601
H       1.75059941      1.26943416      2.35313046
H       0.11100761      1.82604599      4.30486555
H      -0.19944557      0.12274768      4.43972368
H       2.23232204     -0.37394098      4.94934791
H       2.63672087      1.32033047      4.60547725
H       3.29993821      0.38294231      8.97376291
H       1.57229822      0.47399507      8.91485445
H       2.54365336      1.99908029      8.67066869
23
Frame 300  Energy = -425.5042979875 Hartree
C      -0.00860380      1.04829839      0.20984422
C      -0.38401676      1.11214049      1.69217193
C       0.82566350      0.67155405      2.56292210
C       0.58097912      0.80866333      4.06603640
C       1.82512633      0.65077459      4.93047116
C       1.64518954      1.07267589      6.35391476
O       0.73704485      1.78645150      6.75131622
O       2.62964593      0.62992300      7.13843190
C       2.48997077      0.92139150      8.51512836
H      -0.78209623      1.52792558     -0.39284543
H       0.93138060      1.62051225      0.09930574
H       0.29553529      0.01680716     -0.13342196
H      -1.23675540      0.41198929      1.91280513
H      -0.64909264      2.16723192      1.88560880
H       0.97647044     -0.37534738      2.37539081
H       1.75295736      1.27141975      2.36762571
H       0.10537091      1.81432524      4.31373417
H      -0.19809507      0.12119231      4.44542866
H       2.23244677     -0.38461032      4.93479111
H       2.64292062      1.31749705      4.60306141
H       3.29670171      0.38051549      8.97480171
H       1.57776882      0.47345653      8.91908136
H       2.54567160      2.01097692      8.66440947
