23
Frame 5  Energy = -425.5013047722 Hartree
C       0.03936971      1.06445614      0.14468467
C      -0.16050231      1.43416591      1.60241647
C       0.92420344      0.82086133      2.49174562
C       0.71761479      1.19812961      3.96209742
C       1.78273131      0.60457663      4.87696582
C       1.59811818      0.97294183      6.32829523
O       0.68975511      1.66694105      6.77226279
O       2.60939280      0.41721473      7.06639930
C       2.58270374      0.70478279      8.46290310
H      -0.74464121      1.51392945     -0.48778074
H       1.01666057      1.41520353     -0.22767821
H       0.00972586     -0.01415918      0.01962949
H      -1.14378251      1.07168963      1.93901951
H      -0.14674533      2.53042280      1.70054720
H       0.90533629     -0.25628413      2.38688968
H       1.90635216      1.17279939      2.14399918
H       0.72472699      2.30082602      4.05851883
H      -0.27786859      0.88881458      4.29429438
H       1.79473958     -0.48353210      4.76476064
H       2.76711500      0.98607235      4.57741360
H       3.43278556      0.21137892      8.94351836
H       1.65719007      0.32680979      8.89027709
H       2.65532130      1.76985228      8.58993920
23
Frame 10  Energy = -425.5012553876 Hartree
C       0.03874403      1.06495881      0.14630249
C      -0.16102914      1.43230978      1.60080337
C       0.92440796      0.81799782      2.49146513
C       0.72026020      1.19431803      3.96232079
C       1.78037188      0.60424801      4.87786011
C       1.60110365      0.97804450      6.32472831
O       0.68780417      1.66772737      6.77255357
O       2.60963948      0.41643941      7.06971712
C       2.58242964      0.70748407      8.46078976
H      -0.74884415      1.52139503     -0.49129231
H       1.02087099      1.41825596     -0.23516224
H       0.01816940     -0.00626289      0.01890743
H      -1.13960872      1.05482324      1.94753377
H      -0.14357859      2.53360389      1.69935023
H       0.89803059     -0.24806997      2.39567077
H       1.90366409      1.17244201      2.12791650
H       0.69857184      2.30570432      4.06208663
H      -0.27385774      0.89034692      4.29979961
H       1.80214005     -0.48018149      4.75419854
H       2.76612122      0.98810472      4.58085347
H       3.43151323      0.20869268      8.94920287
H       1.66696343      0.32000452      8.90093855
H       2.65828839      1.76218703      8.58559550
23
Frame 15  Energy = -425.5014038490 Hartree
C       0.03807189      1.06553786      0.14770411
C      -0.16154640      1.43050470      1.59933568
C       0.92462498      0.81544494      2.49105735
C       0.72269057      1.19076076      3.96262365
C       1.77795478      0.60402360      4.87865742
C       1.60393439      0.98320911      6.32134740
O       0.68619549      1.66833387      6.77273339
O       2.60976605      0.41566763      7.07306460
C       2.58214920      0.70994641      8.45859528
H      -0.75260481      1.52791364     -0.49446366
H       1.02392984      1.42144035     -0.24212671
H       0.02628905      0.00029159      0.01770151
H      -1.13516672      1.03864841      1.95606402
H      -0.14090677      2.53577031      1.69851818
H       0.89109197     -0.24275006      2.40392507
H       1.90103913      1.17197853      2.11221808
H       0.67301523      2.30891833      4.06545227
H      -0.27015353      0.89124640      4.30535724
H       1.80979380     -0.47720423      4.74414675
H       2.76526388      0.98986122      4.58433241
H       3.43021032      0.20616822      8.95357861
H       1.67622486      0.31360516      8.91195830
H       2.66092987      1.75680588      8.58234678
23
Frame 20  Energy = -425.5016303947 Hartree
C       0.03728567      1.06632392      0.14895651
C      -0.16189643      1.42865489      1.59798878
C       0.92484203      0.81330559      2.49069244
C       0.72487445      1.18752540      3.96286106
C       1.77564242      0.60392528      4.87936837
C       1.60658803      0.98845293      6.31816437
O       0.68497020      1.66875235      6.77276990
O       2.60984553      0.41503110      7.07627172
C       2.58182817      0.71213711      8.45648062
H      -0.75546192      1.53308655     -0.49687934
H       1.02560655      1.42436572     -0.24839943
H       0.03431198      0.00465564      0.01615677
H      -1.13001537      1.02379452      1.96407041
H      -0.13887449      2.53663882      1.69814405
H       0.88441069     -0.24079517      2.41156899
H       1.89848175      1.17094451      2.09728330
H       0.64818785      2.31011260      4.06847037
H      -0.26706134      0.89115340      4.31094882
H       1.81766882     -0.47528116      4.73468864
H       2.76435662      0.99132433      4.58792578
H       3.42910621      0.20419446      8.95677717
H       1.68454155      0.30763218      8.92324174
H       2.66333724      1.75467936      8.58011951
23
Frame 25  Energy = -425.5019724278 Hartree
C       0.03651384      1.06739125      0.14996358
C      -0.16217071      1.42680778      1.59675689
C       0.92509232      0.81160368      2.49035670
C       0.72687597      1.18462978      3.96309061
C       1.77338576      0.60388996      4.87999123
C       1.60900015      0.99373894      6.31529345
O       0.68406625      1.66890103      6.77266469
O       2.60975356      0.41459690      7.07930026
C       2.58154117      0.71397994      8.45443271
H      -0.75688622      1.53657730     -0.49837536
H       1.02566807      1.42685186     -0.25405439
H       0.04176082      0.00651477      0.01418899
H      -1.12465288      1.01040324      1.97131233
H      -0.13766484      2.53572290      1.69775298
H       0.87803460     -0.24248944      2.41862521
H       1.89595412      1.16938309      2.08357930
H       0.62443560      2.30935499      4.07106506
H      -0.26428134      0.88967844      4.31631907
H       1.82561515     -0.47440315      4.72612632
H       2.76370740      0.99269679      4.59128959
H       3.42780721      0.20285625      8.95863648
H       1.69176136      0.30238482      8.93450812
H       2.66557097      1.75596654      8.57929190
23
Frame 30  Energy = -425.5020824469 Hartree
C       0.03582891      1.06872020      0.15063709
C      -0.16244108      1.42497408      1.59559646
C       0.92536745      0.81033768      2.49009379
C       0.72869543      1.18208123      3.96328371
C       1.77141930      0.60397570      4.88043566
C       1.61120738      0.99895360      6.31280740
O       0.68348152      1.66887244      6.77247382
O       2.60955136      0.41424492      7.08216974
C       2.58127810      0.71551555      8.45254153
H      -0.75682207      1.53834719     -0.49867628
H       1.02363867      1.42872311     -0.25857894
H       0.04888743      0.00571494      0.01191660
H      -1.11912593      0.99863986      1.97789696
H      -0.13729620      2.53359757      1.69742349
H       0.87183734     -0.24788339      2.42491100
H       1.89384397      1.16716836      2.07124112
H       0.60231120      2.30632332      4.07332401
H      -0.26209558      0.88669246      4.32159794
H       1.83380503     -0.47447738      4.71873045
H       2.76320216      0.99369506      4.59451573
H       3.42625689      0.20227657      8.95859861
H       1.69789262      0.29806710      8.94566781
H       2.66761494      1.76081574      8.57978141
23
Frame 35  Energy = -425.5021406171 Hartree
C       0.03513609      1.07029852      0.15098833
C      -0.16271667      1.42318431      1.59463445
C       0.92553020      0.80942608      2.48983704
C       0.73029442      1.17987489      3.96351951
C       1.76974764      0.60417389      4.88067491
C       1.61315246      1.00411752      6.31075825
O       0.68316824      1.66875621      6.77229500
O       2.60912704      0.41392425      7.08478135
C       2.58099919      0.71681118      8.45086696
H      -0.75523997      1.53889262     -0.49746006
H       1.01937357      1.43024434     -0.26191467
H       0.05557710      0.00281434      0.00887634
H      -1.11314747      0.98873964      1.98363387
H      -0.13779068      2.53036502      1.69772500
H       0.86623403     -0.25662854      2.43041102
H       1.89159982      1.16443345      2.06074102
H       0.58185418      2.30060849      4.07554176
H      -0.26026222      0.88199904      4.32659216
H       1.84235396     -0.47509124      4.71246746
H       2.76291891      0.99451300      4.59759333
H       3.42437324      0.20246370      8.95682457
H       1.70282417      0.29480478      8.95657477
H       2.66943856      1.76886439      8.58145248
23
Frame 40  Energy = -425.5020200744 Hartree
C       0.03448423      1.07201030      0.15099725
C      -0.16306898      1.42137179      1.59392413
C       0.92560405      0.80887715      2.48955357
C       0.73163909      1.17805620      3.96365446
C       1.76831678      0.60440145      4.88074805
C       1.61486176      1.00919737      6.30901889
O       0.68316391      1.66853989      6.77205451
O       2.60854776      0.41360338      7.08718484
C       2.58076271      0.71780366      8.44951804
H      -0.75216396      1.53802133     -0.49491683
H       1.01287448      1.43149466     -0.26378765
H       0.06171546     -0.00186240      0.00533672
H      -1.10701478      0.98050608      1.98848068
H      -0.13946512      2.52607125      1.69851700
H       0.86122213     -0.26775022      2.43514284
H       1.88902550      1.16103129      2.05195372
H       0.56348284      2.29241392      4.07794779
H      -0.25878336      0.87542042      4.33102890
H       1.85111786     -0.47611320      4.70740001
H       2.76271289      0.99498867      4.60020970
H       3.42254226      0.20340651      8.95326417
H       1.70665563      0.29265815      8.96702290
H       2.67105366      1.77949598      8.58385635
23
Frame 45  Energy = -425.5020482264 Hartree
C       0.03395353      1.07387657      0.15068777
C      -0.16343832      1.41956658      1.59339644
C       0.92559597      0.80849766      2.48927360
C       0.73262091      1.17657992      3.96372699
C       1.76716562      0.60476755      4.88054387
C       1.61633952      1.01422278      6.30762939
O       0.68339524      1.66819931      6.77172338
O       2.60778465      0.41341772      7.08932989
C       2.58049747      0.71860691      8.44841692
H      -0.74808486      1.53565989     -0.49130776
H       1.00463671      1.43272855     -0.26417671
H       0.06716753     -0.00746273      0.00122577
H      -1.10101935      0.97382295      1.99227644
H      -0.14205654      2.52067448      1.69950846
H       0.85646018     -0.28052454      2.43897969
H       1.88570368      1.15700285      2.04493359
H       0.54756114      2.28238790      4.08018762
H      -0.25742492      0.86711914      4.33485749
H       1.85983828     -0.47761656      4.70383064
H       2.76217040      0.99538526      4.60290046
H       3.42108336      0.20518590      8.94828136
H       1.70979099      0.29179395      8.97623836
H       2.67246022      1.79199602      8.58723929
23
Frame 50  Energy = -425.5019068219 Hartree
C       0.03338243      1.07573763      0.15005642
C      -0.16384264      1.41763915      1.59292313
C       0.92546923      0.80818880      2.48895603
C       0.73326113      1.17543429      3.96371555
C       1.76638224      0.60514358      4.88018466
C       1.61761339      1.01913651      6.30664507
O       0.68386508      1.66775360      6.77124495
O       2.60691528      0.41328891      7.09121688
C       2.58016382      0.71926435      8.44765991
H      -0.74351907      1.53201568     -0.48701978
H       0.99522940      1.43384199     -0.26355767
H       0.07160158     -0.01333764     -0.00325739
H      -1.09542350      0.96890492      1.99452188
H      -0.14580099      2.51455210      1.70125487
H       0.85209888     -0.29432597      2.44185247
H       1.88227273      1.15219870      2.03984308
H       0.53418648      2.27082673      4.08243409
H      -0.25635937      0.85737200      4.33799331
H       1.86825331     -0.47918624      4.70139343
H       2.76157246      0.99566460      4.60523261
H       3.42001287      0.20762392      8.94194775
H       1.71229513      0.29247422      8.98376977
H       2.67333622      1.80534091      8.59162495
23
Frame 55  Energy = -425.5018477893 Hartree
C       0.03284401      1.07754019      0.14924995
C      -0.16429333      1.41562428      1.59265840
C       0.92530820      0.80793267      2.48855773
C       0.73361974      1.17450031      3.96365685
C       1.76594991      0.60561534      4.87969131
C       1.61861744      1.02381891      6.30599960
O       0.68460976      1.66726614      6.77065180
O       2.60590482      0.41326143      7.09287495
C       2.57989473      0.71980905      8.44728068
H      -0.73909670      1.52726683     -0.48218941
H       0.98555775      1.43535502     -0.26212027
H       0.07554886     -0.01913500     -0.00807451
H      -1.09065407      0.96598892      1.99590796
H      -0.15049463      2.50808255      1.70340087
H       0.84834182     -0.30817472      2.44360798
H       1.87896326      1.14636646      2.03626865
H       0.52343832      2.25805161      4.08489902
H      -0.25495783      0.84594895      4.34013789
H       1.87602358     -0.48042634      4.70025000
H       2.76060475      0.99578801      4.60714950
H       3.41965946      0.21111533      8.93437765
H       1.71465731      0.29492515      8.98996530
H       2.67362720      1.81812899      8.59675139
23
Frame 60  Energy = -425.5020065694 Hartree
C       0.03233981      1.07921413      0.14826738
C      -0.16469040      1.41363715      1.59254066
C       0.92506735      0.80773119      2.48812449
C       0.73361029      1.17370910      3.96359495
C       1.76595662      0.60608724      4.87918041
C       1.61947534      1.02828510      6.30580566
O       0.68562644      1.66673754      6.76995805
O       2.60471524      0.41339865      7.09420066
C       2.57954681      0.72043462      8.44727894
H      -0.73517068      1.52174462     -0.47768586
H       0.97632304      1.43757717     -0.26007732
H       0.07876202     -0.02390121     -0.01308611
H      -1.08657490      0.96440882      1.99618134
H      -0.15577798      2.50131005      1.70632037
H       0.84525184     -0.32055963      2.44450904
H       1.87570284      1.13961700      2.03410322
H       0.51533020      2.24468333      4.08754402
H      -0.25315692      0.83310486      4.34110370
H       1.88287560     -0.48095882      4.70069441
H       2.75963241      0.99587705      4.60884457
H       3.42022992      0.21507193      8.92618680
H       1.71674362      0.29908447      8.99474336
H       2.67332278      1.82941733      8.60248544
23
Frame 65  Energy = -425.5020549050 Hartree
C       0.03191910      1.08065929      0.14706015
C      -0.16508523      1.41157850      1.59260793
C       0.92479730      0.80748358      2.48769497
C       0.73327310      1.17310300      3.96348066
C       1.76625998      0.60666843      4.87858160
C       1.62006194      1.03256749      6.30598539
O       0.68691161      1.66618247      6.76909854
O       2.60332971      0.41371237      7.09513920
C       2.57916746      0.72119155      8.44761767
H      -0.73225012      1.51574399     -0.47385090
H       0.96789074      1.44050100     -0.25795978
H       0.08133275     -0.02704993     -0.01789327
H      -1.08318293      0.96413743      1.99541906
H      -0.16188718      2.49502350      1.71000177
H       0.84303425     -0.33028143      2.44498490
H       1.87295511      1.13203480      2.03332227
H       0.50970406      2.23196871      4.09021798
H      -0.25096830      0.81891539      4.34096895
H       1.88898891     -0.48086058      4.70225042
H       2.75887085      0.99598604      4.61035058
H       3.42181302      0.21927185      8.91711225
H       1.71854372      0.30445890      8.99790645
H       2.67237140      1.83852927      8.60874929
23
Frame 70  Energy = -425.5021338103 Hartree
C       0.03149564      1.08183821      0.14565344
C      -0.16539450      1.40934817      1.59285871
C       0.92444140      0.80702505      2.48724825
C       0.73255660      1.17247756      3.96330992
C       1.76689017      0.60739668      4.87798613
C       1.62042388      1.03654920      6.30656206
O       0.68853389      1.66556439      6.76808544
O       2.60169628      0.41419111      7.09580485
C       2.57878141      0.72214516      8.44833081
H      -0.73113388      1.50942474     -0.47092165
H       0.96123643      1.44438529     -0.25594629
H       0.08285450     -0.02839905     -0.02240868
H      -1.08066285      0.96500091      1.99365571
H      -0.16823721      2.48932521      1.71414402
H       0.84205342     -0.33705626      2.44479372
H       1.87102052      1.12355964      2.03436037
H       0.50643662      2.22058226      4.09289501
H      -0.24841487      0.80372340      4.33991079
H       1.89440263     -0.48015440      4.70532506
H       2.75844351      0.99591441      4.61156488
H       3.42447659      0.22322463      8.90717098
H       1.71958116      0.31088033      8.99941105
H       2.67102095      1.84506114      8.61488185
23
Frame 75  Energy = -425.5020604045 Hartree
C       0.03113002      1.08269765      0.14410177
C      -0.16573201      1.40693499      1.59329228
C       0.92394722      0.80622848      2.48677984
C       0.73142531      1.17179502      3.96316378
C       1.76780467      0.60821308      4.87733165
C       1.62067999      1.04011596      6.30745696
O       0.69040246      1.66490397      6.76701248
O       2.59985167      0.41472476      7.09623536
C       2.57832587      0.72339169      8.44943402
H      -0.73234751      1.50308037     -0.46908842
H       0.95679799      1.44950138     -0.25425532
H       0.08357181     -0.02763122     -0.02665768
H      -1.07970765      0.96697728      1.99112913
H      -0.17510337      2.48425288      1.71883816
H       0.84263124     -0.34034316      2.44412711
H       1.87021268      1.11469076      2.03662594
H       0.50512157      2.21133761      4.09578986
H      -0.24511679      0.78755017      4.33779484
H       1.89948052     -0.47867088      4.70989879
H       2.75826047      0.99583112      4.61195152
H       3.42876530      0.22686375      8.89739471
H       1.71956209      0.31864063      8.99991975
H       2.66927925      1.84870005      8.62058777
23
Frame 80  Energy = -425.5022359073 Hartree
C       0.03076202      1.08318814      0.14256617
C      -0.16600380      1.40426608      1.59387944
C       0.92329667      0.80510928      2.48621827
C       0.72995670      1.17094279      3.96294492
C       1.76900400      0.60921779      4.87660778
C       1.62087501      1.04325811      6.30872971
O       0.69248235      1.66429485      6.76594823
O       2.59788525      0.41533384      7.09645636
C       2.57780558      0.72495678      8.45089908
H      -0.73593053      1.49738556     -0.46895873
H       0.95445982      1.45592869     -0.25263609
H       0.08353071     -0.02487083     -0.03067806
H      -1.08037444      0.96984246      1.98796595
H      -0.18288486      2.48038293      1.72402665
H       0.84451359     -0.34046978      2.44277913
H       1.87057364      1.10569685      2.03989713
H       0.50557514      2.20457874      4.09911060
H      -0.24146201      0.77094817      4.33470822
H       1.90406914     -0.47660675      4.71594887
H       2.75860249      0.99571355      4.61151452
H       3.43436537      0.23071538      8.88753844
H       1.71890109      0.32719456      8.99975166
H       2.66680050      1.84907148      8.62571567
23
Frame 85  Energy = -425.5024547966 Hartree
C       0.03043398      1.08336318      0.14107773
C      -0.16614565      1.40146147      1.59469379
C       0.92246011      0.80376421      2.48557705
C       0.72810170      1.16980972      3.96258315
C       1.77056527      0.61036279      4.87592726
C       1.62097821      1.04593344      6.31034055
O       0.69459922      1.66374131      6.76498702
O       2.59576051      0.41615267      7.09641834
C       2.57728956      0.72679213      8.45260799
H      -0.74182107      1.49239442     -0.47044792
H       0.95429390      1.46327039     -0.25130648
H       0.08243467     -0.02030088     -0.03411965
H      -1.08303870      0.97311309      1.98432551
H      -0.19104785      2.47784235      1.73010553
H       0.84702143     -0.33716127      2.44067185
H       1.87206553      1.09693768      2.04458688
H       0.50781281      2.20056498      4.10281566
H      -0.23726268      0.75363387      4.33059571
H       1.90764413     -0.47380539      4.72321274
H       2.75968442      0.99596105      4.61037791
H       3.44124571      0.23454445      8.87758874
H       1.71746097      0.33607909      8.99887921
H       2.66395575      1.84598407      8.63026586
23
Frame 90  Energy = -425.5022295721 Hartree
C       0.03013708      1.08319964      0.13964082
C      -0.16628616      1.39854761      1.59574020
C       0.92142247      0.80223823      2.48491852
C       0.72584590      1.16834877      3.96211271
C       1.77250279      0.61149569      4.87525528
C       1.62110481      1.04812092      6.31213942
O       0.69679945      1.66327952      6.76410489
O       2.59345535      0.41715979      7.09602770
C       2.57681215      0.72887151      8.45464776
H      -0.74942093      1.48817647     -0.47316366
H       0.95594443      1.47158032     -0.24981730
H       0.08073269     -0.01415067     -0.03737832
H      -1.08743955      0.97658218      1.98028394
H      -0.19981281      2.47649081      1.73703006
H       0.84995276     -0.33073328      2.43818774
H       1.87479794      1.08813879      2.05045685
H       0.51156810      2.19966192      4.10677814
H      -0.23255334      0.73572861      4.32571273
H       1.90983162     -0.47073000      4.73183840
H       2.76131739      0.99628766      4.60849059
H       3.44947648      0.23849940      8.86806289
H       1.71496533      0.34495134      8.99738624
H       2.66058731      1.84000316      8.63464115
23
Frame 95  Energy = -425.5025561473 Hartree
C       0.02993330      1.08270263      0.13816948
C      -0.16644379      1.39556131      1.59690727
C       0.92019784      0.80051791      2.48431576
C       0.72328995      1.16656783      3.96157179
C       1.77476069      0.61273749      4.87440699
C       1.62128538      1.04977948      6.31406445
O       0.69906033      1.66286991      6.76327110
O       2.59098569      0.41829170      7.09526278
C       2.57630812      0.73113008      8.45697256
H      -0.75850659      1.48460862     -0.47726476
H       0.95951438      1.48085025     -0.24862312
H       0.07854287     -0.00701700     -0.04044802
H      -1.09329164      0.97997276      1.97577311
H      -0.20894338      2.47597459      1.74423781
H       0.85374058     -0.32192853      2.43542060
H       1.87867368      1.07935782      2.05700524
H       0.51673774      2.20177385      4.11123766
H      -0.22746924      0.71752381      4.31985323
H       1.91096348     -0.46761678      4.74147404
H       2.76371868      0.99686747      4.60608566
H       3.45860712      0.24259606      8.85932111
H       1.71157094      0.35355072      8.99531565
H       2.65658774      1.83171305      8.63872403
23
Frame 100  Energy = -425.5025067999 Hartree
C       0.02970025      1.08206563      0.13671189
C      -0.16667463      1.39256329      1.59815588
C       0.91881324      0.79865631      2.48369941
C       0.72050895      1.16456629      3.96111474
C       1.77731985      0.61408625      4.87347683
C       1.62161055      1.05084750      6.31602094
O       0.70125347      1.66251919      6.76252605
O       2.58833332      0.41955831      7.09417768
C       2.57588368      0.73354546      8.45940546
H      -0.76885843      1.48128300     -0.48208185
H       0.96467042      1.49072380     -0.24748640
H       0.07583910      0.00045486     -0.04324440
H      -1.10067038      0.98306940      1.97132347
H      -0.21813088      2.47610658      1.75160401
H       0.85797008     -0.31110772      2.43252203
H       1.88344763      1.07084929      2.06466030
H       0.52329166      2.20635913      4.11604117
H      -0.22215573      0.69889958      4.31307476
H       1.91130795     -0.46469188      4.75173158
H       2.76654306      0.99765034      4.60328214
H       3.46825708      0.24627901      8.85130731
H       1.70686844      0.36176598      8.99294199
H       2.65209345      1.82172095      8.64244933
23
Frame 105  Energy = -425.5023823246 Hartree
C       0.02949845      1.08145012      0.13523478
C      -0.16674098      1.38961950      1.59948051
C       0.91734674      0.79671955      2.48306920
C       0.71750361      1.16228443      3.96065618
C       1.78028666      0.61558557      4.87255582
C       1.62202471      1.05139457      6.31795856
O       0.70332293      1.66230645      6.76190040
O       2.58546186      0.42091004      7.09285100
C       2.57552114      0.73600948      8.46200403
H      -0.77973625      1.47836295     -0.48756363
H       0.97017220      1.50115727     -0.24602566
H       0.07299051      0.00795190     -0.04580156
H      -1.10949018      0.98584509      1.96707319
H      -0.22717654      2.47666330      1.75881609
H       0.86252306     -0.29924550      2.42921222
H       1.88956242      1.06281159      2.07310700
H       0.53095840      2.21319843      4.12095745
H      -0.21660435      0.68044416      4.30586864
H       1.91082666     -0.46212398      4.76288440
H       2.76961134      0.99856098      4.59976208
H       3.47807323      0.24993207      8.84348700
H       1.70131837      0.36966044      8.99026699
H       2.64739709      1.81115242      8.64580531
23
Frame 110  Energy = -425.5027426953 Hartree
C       0.02930331      1.08086588      0.13361565
C      -0.16675584      1.38674146      1.60087035
C       0.91578487      0.79470576      2.48260081
C       0.71430471      1.15988012      3.96014323
C       1.78357601      0.61720321      4.87168069
C       1.62268815      1.05131324      6.31995138
O       0.70531148      1.66232226      6.76143511
O       2.58242869      0.42251611      7.09130291
C       2.57516680      0.73849457      8.46467867
H      -0.79004688      1.47578518     -0.49310870
H       0.97525343      1.51167340     -0.24412147
H       0.07016586      0.01455380     -0.04797842
H      -1.11920675      0.98839933      1.96241684
H      -0.23611538      2.47724649      1.76586236
H       0.86734115     -0.28782902      2.42533977
H       1.89689891      1.05552110      2.08225487
H       0.53936552      2.22144848      4.12612613
H      -0.21128080      0.66273698      4.29848549
H       1.90968486     -0.45994800      4.77494219
H       2.77300108      0.99993507      4.59587708
H       3.48757641      0.25377229      8.83609416
H       1.69504823      0.37683852      8.98771347
H       2.64243287      1.80090084      8.64889426
23
Frame 115  Energy = -425.5028151472 Hartree
C       0.02909029      1.08038758      0.13178749
C      -0.16681923      1.38404472      1.60230290
C       0.91410595      0.79276769      2.48219958
C       0.71087628      1.15728873      3.95975184
C       1.78720247      0.61890876      4.87080628
C       1.62363960      1.05067870      6.32194056
O       0.70718151      1.66252534      6.76113385
O       2.57928675      0.42426253      7.08959841
C       2.57490446      0.74092296      8.46741852
H      -0.79941261      1.47312282     -0.49808002
H       0.97949694      1.52203209     -0.24168014
H       0.06738558      0.02006947     -0.05029667
H      -1.12953669      0.99073097      1.95745286
H      -0.24478349      2.47724587      1.77308138
H       0.87228503     -0.27803663      2.42148793
H       1.90513598      1.04932700      2.09157100
H       0.54803410      2.23011770      4.13136663
H      -0.20647119      0.64626229      4.29074562
H       1.90798635     -0.45850305      4.78758458
H       2.77664072      1.00160398      4.59155053
H       3.49605300      0.25786164      8.82926511
H       1.68800433      0.38338997      8.98537146
H       2.63752067      1.79181277      8.65165405
23
Frame 120  Energy = -425.5027996704 Hartree
C       0.02886467      1.08010904      0.12980297
C      -0.16695154      1.38149576      1.60372766
C       0.91240543      0.79097249      2.48188060
C       0.70725738      1.15455600      3.95942963
C       1.79101944      0.62072756      4.86992537
C       1.62482446      1.04950136      6.32384755
O       0.70895194      1.66296201      6.76101544
O       2.57601149      0.42611543      7.08776591
C       2.57476746      0.74316619      8.47014226
H      -0.80753593      1.47017277     -0.50241924
H       0.98262196      1.53184822     -0.23916333
H       0.06474545      0.02401680     -0.05259096
H      -1.14025082      0.99270573      1.95228839
H      -0.25297739      2.47646400      1.77971571
H       0.87714362     -0.27078080      2.41723373
H       1.91389973      1.04415054      2.10104095
H       0.55728995      2.23859703      4.13678518
H      -0.20191138      0.63088580      4.28266936
H       1.90577191     -0.45765779      4.80082206
H       2.78015070      1.00368771      4.58662665
H       3.50330977      0.26236536      8.82254518
H       1.68041904      0.38940215      8.98320628
H       2.63288832      1.78486379      8.65401319
23
Frame 125  Energy = -425.5027176488 Hartree
C       0.02862276      1.08017763      0.12769835
C      -0.16720879      1.37908259      1.60516178
C       0.91070599      0.78939373      2.48173454
C       0.70356310      1.15177567      3.95913202
C       1.79504070      0.62266191      4.86914335
C       1.62627302      1.04781319      6.32573659
O       0.71060840      1.66358030      6.76103891
O       2.57270672      0.42815138      7.08586918
C       2.57470487      0.74510254      8.47277231
H      -0.81451379      1.46688086     -0.50543753
H       0.98444527      1.54085123     -0.23622847
H       0.06269505      0.02603820     -0.05501835
H      -1.15058619      0.99437505      1.94672797
H      -0.26056401      2.47485923      1.78600681
H       0.88154478     -0.26669803      2.41281879
H       1.92286308      1.03996394      2.11111307
H       0.56678797      2.24624245      4.14203554
H      -0.19788343      0.61675896      4.27456242
H       1.90340689     -0.45768870      4.81450094
H       2.78366923      1.00618923      4.58090227
H       3.50923945      0.26717621      8.81650321
H       1.67280903      0.39453752      8.98101001
H       2.62845857      1.78117529      8.65601982
23
Frame 130  Energy = -425.5027368508 Hartree
C       0.02829127      1.08061542      0.12539892
C      -0.16767107      1.37684716      1.60668458
C       0.90916167      0.78805356      2.48176708
C       0.69988283      1.14900073      3.95886800
C       1.79923250      0.62484159      4.86839488
C       1.62785920      1.04554757      6.32746249
O       0.71205752      1.66437074      6.76114485
O       2.56942268      0.43040524      7.08390516
C       2.57477234      0.74660069      8.47527979
H      -0.81985521      1.46314316     -0.50714036
H       0.98478107      1.54914227     -0.23310613
H       0.06134646      0.02585356     -0.05766058
H      -1.15997760      0.99569883      1.94071012
H      -0.26722646      2.47235318      1.79192152
H       0.88609483     -0.26634943      2.40829659
H       1.93129563      1.03675370      2.12175821
H       0.57638687      2.25218702      4.14667367
H      -0.19472286      0.60359443      4.26656226
H       1.90055709     -0.45860821      4.82858238
H       2.78699747      1.00907992      4.57485528
H       3.51377417      0.27224269      8.81150315
H       1.66526952      0.39888375      8.97895934
H       2.62449026      1.78147665      8.65761025
23
Frame 135  Energy = -425.5028707694 Hartree
C       0.02785604      1.08137096      0.12291391
C      -0.16833179      1.37475180      1.60817270
C       0.90778710      0.78697999      2.48193986
C       0.69621427      1.14634950      3.95858823
C       1.80363001      0.62718308      4.86769810
C       1.62945613      1.04268084      6.32912551
O       0.71335868      1.66548724      6.76139011
O       2.56610515      0.43276735      7.08189278
C       2.57485796      0.74775890      8.47762790
H      -0.82333210      1.45914624     -0.50775612
H       0.98359363      1.55644834     -0.22952860
H       0.06069653      0.02322343     -0.06069893
H      -1.16839618      0.99675339      1.93414600
H      -0.27289265      2.46868654      1.79716097
H       0.89060637     -0.27030890      2.40366210
H       1.93884020      1.03404543      2.13263307
H       0.58575185      2.25561454      4.15013721
H      -0.19285128      0.59171419      4.25899394
H       1.89724238     -0.46010585      4.84277618
H       2.79073595      1.01209590      4.56835532
H       3.51660031      0.27758914      8.80743950
H       1.65816647      0.40256416      8.97709858
H       2.62118348      1.78594301      8.65911799
23
Frame 140  Energy = -425.5030412892 Hartree
C       0.02746575      1.08248098      0.12033905
C      -0.16920469      1.37276540      1.60964087
C       0.90663789      0.78614740      2.48227775
C       0.69265509      1.14381264      3.95835245
C       1.80829928      0.62969029      4.86697547
C       1.63116567      1.03938741      6.33064491
O       0.71451266      1.66676486      6.76167737
O       2.56284896      0.43517737      7.07991920
C       2.57495804      0.74866979      8.47990916
H      -0.82474886      1.45532177     -0.50697736
H       0.98038976      1.56246184     -0.22569851
H       0.06051728      0.01846021     -0.06383353
H      -1.17534156      0.99784424      1.92709989
H      -0.27764742      2.46424606      1.80161723
H       0.89493926     -0.27789755      2.39896281
H       1.94513853      1.03195201      2.14376191
H       0.59450044      2.25608966      4.15270255
H      -0.19241950      0.58128168      4.25165506
H       1.89353384     -0.46237936      4.85652323
H       2.79453385      1.01493095      4.56145480
H       3.51764167      0.28258441      8.80453026
H       1.65190898      0.40530976      8.97504470
H       2.61836220      1.79386161      8.66046633
23
Frame 145  Energy = -425.5026948033 Hartree
C       0.02710809      1.08388840      0.11775993
C      -0.17026538      1.37104602      1.61103999
C       0.90566166      0.78544617      2.48278426
C       0.68928876      1.14135567      3.95819373
C       1.81315243      0.63236311      4.86630110
C       1.63289106      1.03571005      6.33192112
O       0.71555322      1.66813021      6.76201027
O       2.55967231      0.43759632      7.07796544
C       2.57510812      0.74940798      8.48222895
H      -0.82466853      1.45139184     -0.50488133
H       0.97520139      1.56721253     -0.22183391
H       0.06105758      0.01201577     -0.06703420
H      -1.18051705      0.99891572      1.92016467
H      -0.28151514      2.45917307      1.80530084
H       0.89873988     -0.28854453      2.39399422
H       1.94969116      1.03081741      2.15517986
H       0.60262158      2.25342536      4.15473580
H      -0.19343208      0.57212643      4.24479853
H       1.88992028     -0.46489195      4.87007918
H       2.79841795      1.01767147      4.55433527
H       3.51731156      0.28746889      8.80263845
H       1.64668391      0.40718212      8.97252492
H       2.61597142      1.80498466      8.66149062
23
Frame 150  Energy = -425.5027045861 Hartree
C       0.02653991      1.08537824      0.11515238
C      -0.17158349      1.36943539      1.61232678
C       0.90494158      0.78479830      2.48330693
C       0.68612630      1.13889426      3.95807039
C       1.81818542      0.63502381      4.86569177
C       1.63462378      1.03171672      6.33301149
O       0.71646483      1.66963842      6.76240416
O       2.55657539      0.43996708      7.07608496
C       2.57518764      0.75007122      8.48450072
H      -0.82320830      1.44773257     -0.50145147
H       0.96794678      1.57086413     -0.21796542
H       0.06214379      0.00496276     -0.07036116
H      -1.18418426      0.99975657      1.91318324
H      -0.28433904      2.45336217      1.80871502
H       0.90186939     -0.30104769      2.38885137
H       1.95267942      1.03099868      2.16700258
H       0.60990290      2.24788775      4.15602782
H      -0.19598849      0.56469429      4.23871924
H       1.88634226     -0.46757410      4.88315178
H       2.80215676      1.02081153      4.54662787
H       3.51571056      0.29218549      8.80125490
H       1.64284187      0.40820135      8.96957668
H       2.61390393      1.81806947      8.66250815
23
Frame 155  Energy = -425.5029386355 Hartree
C       0.02585522      1.08685795      0.11249941
C      -0.17330220      1.36779748      1.61351356
C       0.90439774      0.78406566      2.48379981
C       0.68322331      1.13650791      3.95809541
C       1.82319387      0.63769533      4.86519318
C       1.63621861      1.02761761      6.33383538
O       0.71728348      1.67123941      6.76285189
O       2.55368554      0.44228231      7.07429434
C       2.57514202      0.75070549      8.48665579
H      -0.82076009      1.44467840     -0.49702063
H       0.95961733      1.57357994     -0.21434298
H       0.06407817     -0.00177753     -0.07319235
H      -1.18625397      1.00006630      1.90600065
H      -0.28632170      2.44702657      1.81207975
H       0.90455233     -0.31449378      2.38379388
H       1.95362515      1.03236417      2.17894495
H       0.61608925      2.23983854      4.15614900
H      -0.19997324      0.55893275      4.23359721
H       1.88296735     -0.46978116      4.89560424
H       2.80540193      1.02379088      4.53858844
H       3.51290702      0.29644207      8.80068584
H       1.64024816      0.40845702      8.96637316
H       2.61216993      1.83185379      8.66310660
23
Frame 160  Energy = -425.5029430946 Hartree
C       0.02504461      1.08829448      0.10974688
C      -0.17527881      1.36621084      1.61463429
C       0.90393007      0.78323576      2.48430120
C       0.68057083      1.13408853      3.95825017
C       1.82819894      0.64037526      4.86482459
C       1.63770823      1.02340275      6.33438754
O       0.71808290      1.67291019      6.76333550
O       2.55103738      0.44460428      7.07267589
C       2.57493872      0.75134028      8.48860900
H      -0.81768923      1.44229775     -0.49209073
H       0.95091517      1.57545408     -0.21123931
H       0.06693558     -0.00745009     -0.07584378
H      -1.18694082      0.99991657      1.89897014
H      -0.28736574      2.44086612      1.81499626
H       0.90656646     -0.32786181      2.37910271
H       1.95255039      1.03511002      2.19096563
H       0.62084677      2.22947820      4.15521540
H      -0.20567897      0.55487135      4.22950355
H       1.88001652     -0.47143090      4.90681777
H       2.80836901      1.02680453      4.53052956
H       3.50936569      0.30001154      8.80141046
H       1.63904246      0.40808900      8.96286635
H       2.61081389      1.84546725      8.66301015
23
Frame 165  Energy = -425.5023352471 Hartree
C       0.02408831      1.08962182      0.10708056
C      -0.17746918      1.36469565      1.61569311
C       0.90357720      0.78230047      2.48493332
C       0.67809340      1.13153988      3.95851022
C       1.83314350      0.64304284      4.86453240
C       1.63901383      1.01910865      6.33479875
O       0.71885328      1.67467741      6.76392471
O       2.54850319      0.44696566      7.07121911
C       2.57452423      0.75209932      8.49044059
H      -0.81399764      1.44042814     -0.48712728
H       0.94227638      1.57695233     -0.20889416
H       0.07066776     -0.01214911     -0.07827083
H      -1.18605086      0.99924084      1.89216896
H      -0.28768408      2.43535855      1.81741644
H       0.90838034     -0.33987578      2.37481847
H       1.94964677      1.03871885      2.20217503
H       0.62465189      2.21754203      4.15360311
H      -0.21276354      0.55307329      4.22633561
H       1.87748288     -0.47196655      4.91699215
H       2.81097683      1.02991122      4.52263299
H       3.50543312      0.30272265      8.80346880
H       1.63892941      0.40698534      8.95918401
H       2.60954653      1.85816885      8.66195071
23
Frame 170  Energy = -425.5023965777 Hartree
C       0.02304095      1.09074835      0.10456037
C      -0.17989951      1.36330526      1.61657526
C       0.90330491      0.78110700      2.48569248
C       0.67585758      1.12885272      3.95887018
C       1.83810348      0.64562158      4.86429746
C       1.64013893      1.01496255      6.33504748
O       0.71975394      1.67650969      6.76452123
O       2.54615932      0.44933031      7.07001617
C       2.57390774      0.75316561      8.49203427
H      -0.81063389      1.43960007     -0.48234325
H       0.93409493      1.57856377     -0.20785837
H       0.07501851     -0.01542475     -0.08072257
H      -1.18401877      0.99751301      1.88590053
H      -0.28726952      2.43018416      1.81933524
H       0.90970592     -0.34967797      2.37075849
H       1.94501808      1.04322292      2.21236287
H       0.62668953      2.20446301      4.15130395
H      -0.22028540      0.55304712      4.22451483
H       1.87554048     -0.47129453      4.92595175
H       2.81310223      1.03243577      4.51471833
H       3.50082471      0.30461624      8.80681995
H       1.63987959      0.40509153      8.95552497
H       2.60816113      1.86921793      8.66014292
23
Frame 175  Energy = -425.5024546650 Hartree
C       0.02210369      1.09159654      0.10226016
C      -0.18244841      1.36195384      1.61723809
C       0.90307691      0.77962058      2.48652685
C       0.67385969      1.12585838      3.95929147
C       1.84301349      0.64806349      4.86411234
C       1.64090554      1.01104269      6.33501565
O       0.72069051      1.67839818      6.76525596
O       2.54409262      0.45158694      7.06902747
C       2.57302459      0.75448784      8.49345215
H      -0.80807584      1.43967639     -0.47800310
H       0.92696949      1.58050432     -0.20789420
H       0.08007798     -0.01684500     -0.08254416
H      -1.18095734      0.99463543      1.88029648
H      -0.28641400      2.42565291      1.82094352
H       0.91022304     -0.35710845      2.36742863
H       1.93905165      1.04855630      2.22133102
H       0.62688139      2.19134265      4.14864974
H      -0.22815047      0.55469920      4.22409069
H       1.87453015     -0.46915406      4.93360195
H       2.81491865      1.03474086      4.50727383
H       3.49646429      0.30559363      8.81150621
H       1.64215434      0.40238198      8.95173159
H       2.60666100      1.87761840      8.65770783
23
Frame 180  Energy = -425.5023062982 Hartree
C       0.02120684      1.09220411      0.10019031
C      -0.18519730      1.36058673      1.61754611
C       0.90285460      0.77780180      2.48741909
C       0.67211410      1.12253253      3.95974262
C       1.84778544      0.65046302      4.86396546
C       1.64124027      1.00734537      6.33470205
O       0.72169661      1.68032224      6.76594622
O       2.54233959      0.45371202      7.06833123
C       2.57199454      0.75610455      8.49472822
H      -0.80692787      1.44113373     -0.47448985
H       0.92157718      1.58279384     -0.20913240
H       0.08576665     -0.01608972     -0.08379878
H      -1.17771845      0.99009239      1.87527570
H      -0.28486632      2.42217943      1.82259359
H       0.91036116     -0.36160462      2.36503865
H       1.93224535      1.05470549      2.22903088
H       0.62529362      2.17871495      4.14571927
H      -0.23648099      0.55795123      4.22508161
H       1.87428627     -0.46549050      4.94037160
H       2.81626025      1.03674059      4.50014990
H       3.49269864      0.30570359      8.81753907
H       1.64519696      0.39898692      8.94821456
H       2.60514800      1.88291540      8.65448209
23
Frame 185  Energy = -425.5022937435 Hartree
C       0.02018702      1.09251078      0.09848341
C      -0.18808878      1.35915220      1.61757627
C       0.90264361      0.77567468      2.48842838
C       0.67061364      1.11884751      3.96019922
C       1.85237143      0.65274641      4.86391383
C       1.64119923      1.00402477      6.33411032
O       0.72280591      1.68220031      6.76663055
O       2.54091156      0.45573982      7.06794999
C       2.57084895      0.75818113      8.49590840
H      -0.80734286      1.44368515     -0.47212268
H       0.91814226      1.58547972     -0.21157807
H       0.09149525     -0.01342692     -0.08483121
H      -1.17464108      0.98404346      1.87119963
H      -0.28278445      2.41973240      1.82379877
H       0.91014281     -0.36339373      2.36331702
H       1.92516180      1.06199272      2.23576572
H       0.62195490      2.16808792      4.14261468
H      -0.24485065      0.56311835      4.22750872
H       1.87495637     -0.46026452      4.94579693
H       2.81708505      1.03837779      4.49342103
H       3.48923188      0.30485368      8.82447277
H       1.64890764      0.39499155      8.94514575
H       2.60381527      1.88499667      8.65029203
23
Frame 190  Energy = -425.5024308904 Hartree
C       0.01907924      1.09252720      0.09710515
C      -0.19099790      1.35776309      1.61726878
C       0.90251012      0.77320041      2.48946904
C       0.66940988      1.11472498      3.96072280
C       1.85665252      0.65480540      4.86387024
C       1.64068923      1.00109466      6.33327049
O       0.72401816      1.68404178      6.76730936
O       2.53988727      0.45762880      7.06786423
C       2.56964024      0.76076144      8.49694658
H      -0.80958921      1.44743346     -0.47134069
H       0.91663610      1.58898323     -0.21524135
H       0.09715537     -0.00888926     -0.08566894
H      -1.17174475      0.97686309      1.86809161
H      -0.28002124      2.41873629      1.82453384
H       0.90966598     -0.36226981      2.36249689
H       1.91773079      1.07073265      2.24106071
H       0.61681741      2.16021545      4.13964051
H      -0.25313551      0.57004090      4.23099458
H       1.87680443     -0.45390021      4.94945833
H       2.81723139      1.03942185      4.48702810
H       3.48580720      0.30348469      8.83256986
H       1.65322192      0.39018838      8.94290432
H       2.60261459      1.88406932      8.64549638
23
Frame 195  Energy = -425.5024850859 Hartree
C       0.01798650      1.09231998      0.09608614
C      -0.19375734      1.35645677      1.61670695
C       0.90233730      0.77028489      2.49057993
C       0.66838661      1.11017705      3.96133006
C       1.86074433      0.65662190      4.86380617
C       1.63971400      0.99855574      6.33217250
O       0.72529270      1.68581442      6.76805734
O       2.53925249      0.45935834      7.06814516
C       2.56838098      0.76368488      8.49773850
H      -0.81352207      1.45199295     -0.47228896
H       0.91707850      1.59256597     -0.21959031
H       0.10300289     -0.00257702     -0.08603488
H      -1.16946382      0.96865105      1.86620097
H      -0.27644628      2.41938963      1.82503215
H       0.90913052     -0.35810594      2.36203764
H       1.91047957      1.08023010      2.24474231
H       0.61026062      2.15559914      4.13690537
H      -0.26101726      0.57852316      4.23586633
H       1.87950915     -0.44667961      4.95146619
H       2.81739999      1.04041356      4.48094999
H       3.48266120      0.30091629      8.84182090
H       1.65789964      0.38478030      8.94187098
H       2.60129855      1.88045022      8.64010184
23
Frame 200  Energy = -425.5028633495 Hartree
C       0.01690133      1.09194485      0.09539198
C      -0.19634416      1.35517699      1.61599116
C       0.90210644      0.76702454      2.49178540
C       0.66751790      1.10528442      3.96200829
C       1.86456125      0.65821227      4.86382497
C       1.63824739      0.99650814      6.33093581
O       0.72663963      1.68766658      6.76883171
O       2.53911932      0.46100323      7.06869966
C       2.56710430      0.76688803      8.49825325
H      -0.81886509      1.45731268     -0.47432862
H       0.91942221      1.59611116     -0.22466001
H       0.10920256      0.00477948     -0.08624966
H      -1.16843364      0.95906714      1.86553818
H      -0.27239318      2.42114219      1.82503892
H       0.90845608     -0.35163263      2.36163085
H       1.90380994      1.09045334      2.24719169
H       0.60252953      2.15385512      4.13433423
H      -0.26830713      0.58850779      4.24185302
H       1.88348722     -0.43911500      4.95188710
H       2.81720143      1.04104101      4.47530469
H       3.47980186      0.29773302      8.85178467
H       1.66238109      0.37873886      8.94179385
H       2.59965713      1.87426645      8.63424135
23
Frame 205  Energy = -425.5027702939 Hartree
C       0.01579855      1.09143435      0.09504584
C      -0.19876173      1.35390977      1.61512855
C       0.90171190      0.76356391      2.49313048
C       0.66686904      1.10003444      3.96275707
C       1.86802191      0.65961074      4.86396630
C       1.63630556      0.99489570      6.32955270
O       0.72806396      1.68947168      6.76965143
O       2.53933544      0.46249224      7.06952181
C       2.56571754      0.77025446      8.49849734
H      -0.82512738      1.46333237     -0.47761339
H       0.92286109      1.59972945     -0.23031164
H       0.11545492      0.01262669     -0.08619371
H      -1.16834040      0.94867430      1.86581901
H      -0.26832821      2.42403372      1.82446324
H       0.90760563     -0.34386802      2.36099323
H       1.89790954      1.10156842      2.24810802
H       0.59326743      2.15460650      4.13170249
H      -0.27488934      0.59947040      4.24870906
H       1.88872785     -0.43162960      4.95047771
H       2.81698101      1.04143203      4.46998474
H       3.47698859      0.29419207      8.86215363
H       1.66669859      0.37215538      8.94253298
H       2.59796567      1.86610386      8.62833794
23
Frame 210  Energy = -425.5025003002 Hartree
C       0.01467488      1.09085107      0.09502223
C      -0.20104659      1.35268515      1.61407140
C       0.90126465      0.75987127      2.49464333
C       0.66643788      1.09443822      3.96360587
C       1.87109939      0.66085802      4.86418730
C       1.63382526      0.99372774      6.32810214
O       0.72955620      1.69117044      6.77039036
O       2.53992729      0.46382414      7.07057929
C       2.56433876      0.77373961      8.49840796
H      -0.83201665      1.46964803     -0.48165370
H       0.92635072      1.60332510     -0.23644494
H       0.12132270      0.02083533     -0.08607130
H      -1.16943850      0.93752877      1.86757992
H      -0.26420500      2.42770547      1.82376782
H       0.90699864     -0.33499534      2.36069354
H       1.89285981      1.11332931      2.24732512
H       0.58275451      2.15753461      4.12888104
H      -0.28086254      0.61136225      4.25674256
H       1.89520700     -0.42480746      4.94715412
H       2.81675454      1.04161152      4.46484989
H       3.47413314      0.29063163      8.87301366
H       1.67049475      0.36519456      8.94395596
H       2.59637389      1.85711611      8.62249499
23
Frame 215  Energy = -425.5025218837 Hartree
C       0.01355588      1.09039879      0.09532996
C      -0.20322670      1.35147853      1.61286597
C       0.90067880      0.75599645      2.49630975
C       0.66613029      1.08859907      3.96462599
C       1.87373359      0.66202019      4.86450561
C       1.63099014      0.99307893      6.32649109
O       0.73110121      1.69280728      6.77103945
O       2.54087907      0.46491143      7.07194550
C       2.56299868      0.77723686      8.49796040
H      -0.83900378      1.47579788     -0.48638958
H       0.92950147      1.60644383     -0.24308578
H       0.12708679      0.02910970     -0.08626264
H      -1.17142314      0.92609858      1.87067493
H      -0.26037000      2.43176017      1.82298419
H       0.90681157     -0.32588450      2.36052023
H       1.88849572      1.12574932      2.24518168
H       0.57178078      2.16201578      4.12607720
H      -0.28593942      0.62377601      4.26564430
H       1.90265414     -0.41909574      4.94238327
H       2.81634898      1.04182286      4.46011533
H       3.47104547      0.28733616      8.88416870
H       1.67372747      0.35827529      8.94634142
H       2.59488738      1.84799127      8.61689326
23
Frame 220  Energy = -425.5029350801 Hartree
C       0.01241400      1.09012636      0.09581017
C      -0.20528779      1.35023266      1.61152742
C       0.90000987      0.75216354      2.49805748
C       0.66594874      1.08284766      3.96573024
C       1.87590055      0.66310887      4.86484794
C       1.62785853      0.99291447      6.32473161
O       0.73262762      1.69443105      6.77164495
O       2.54217743      0.46583036      7.07360921
C       2.56173360      0.78058216      8.49726247
H      -0.84522621      1.48140183     -0.49096534
H       0.93211965      1.60905958     -0.24996755
H       0.13295367      0.03654491     -0.08674305
H      -1.17385488      0.91489444      1.87440661
H      -0.25657860      2.43550677      1.82175923
H       0.90683711     -0.31780817      2.36022939
H       1.88490884      1.13874828      2.24176609
H       0.56053095      2.16724250      4.12293447
H      -0.29028451      0.63655390      4.27540731
H       1.91115934     -0.41449178      4.93643645
H       2.81582856      1.04208444      4.45589750
H       3.46729755      0.28441977      8.89480844
H       1.67588704      0.35183415      8.94957076
H       2.59346211      1.83999800      8.61178817
23
Frame 225  Energy = -425.5030667668 Hartree
C       0.01126006      1.09021369      0.09640915
C      -0.20726305      1.34899822      1.61009024
C       0.89912545      0.74847319      2.49989651
C       0.66591068      1.07718199      3.96696561
C       1.87755595      0.66408227      4.86525415
C       1.62446299      0.99317170      6.32292751
O       0.73410141      1.69599846      6.77223034
O       2.54379006      0.46654534      7.07557059
C       2.56060488      0.78360448      8.49638530
H      -0.85009566      1.48653150     -0.49523581
H       0.93365832      1.61115246     -0.25679682
H       0.13892749      0.04232272     -0.08778360
H      -1.17637261      0.90362845      1.87861240
H      -0.25289761      2.43855837      1.81987734
H       0.90725089     -0.31167702      2.36002324
H       1.88218183      1.15197451      2.23723528
H       0.54901272      2.17249881      4.11890701
H      -0.29397456      0.64920110      4.28555918
H       1.92042480     -0.41156798      4.92909974
H       2.81562841      1.04242469      4.45236957
H       3.46275250      0.28214729      8.90450226
H       1.67731395      0.34545630      8.95385591
H       2.59167393      1.83408123      8.60728805
23
Frame 230  Energy = -425.5032263787 Hartree
C       0.01022292      1.09068465      0.09707447
C      -0.20913519      1.34779553      1.60864319
C       0.89810677      0.74500462      2.50183641
C       0.66601381      1.07167688      3.96832223
C       1.87879015      0.66503335      4.86574108
C       1.62071697      0.99380987      6.32098359
O       0.73561749      1.69752137      6.77273799
O       2.54568174      0.46704320      7.07776346
C       2.55951894      0.78613751      8.49532594
H      -0.85351661      1.49059213     -0.49884318
H       0.93390692      1.61257991     -0.26308548
H       0.14455398      0.04631824     -0.08962297
H      -1.17868869      0.89302621      1.88317820
H      -0.24958896      2.44047837      1.81749794
H       0.90786162     -0.30827485      2.35953865
H       1.87978385      1.16519640      2.23197068
H       0.53745342      2.17675265      4.11434928
H      -0.29738626      0.66162212      4.29619528
H       1.93024601     -0.41088108      4.92059829
H       2.81572027      1.04274570      4.44963433
H       3.45711803      0.28112042      8.91318912
H       1.67798866      0.33959185      8.95893197
H       2.58972171      1.83095716      8.60338626
23
Frame 235  Energy = -425.5033865178 Hartree
C       0.00919335      1.09159929      0.09779554
C      -0.21085319      1.34665511      1.60713249
C       0.89707058      0.74184837      2.50381286
C       0.66616391      1.06649423      3.96977604
C       1.87952897      0.66593584      4.86626706
C       1.61678316      0.99489314      6.31891639
O       0.73716770      1.69892023      6.77320665
O       2.54785356      0.46748231      7.08016062
C       2.55850578      0.78814873      8.49414999
H      -0.85511249      1.49326944     -0.50112498
H       0.93273619      1.61309818     -0.26914469
H       0.14978163      0.04814235     -0.09218424
H      -1.18058069      0.88309791      1.88805545
H      -0.24724744      2.44114937      1.81529835
H       0.90896935     -0.30837178      2.35877263
H       1.87737646      1.17770858      2.22589539
H       0.52590576      2.17921337      4.10962004
H      -0.30028764      0.67324869      4.30728532
H       1.94082632     -0.41198935      4.91081298
H       2.81607878      1.04362958      4.44745158
H       3.45041641      0.28135669      8.92090070
H       1.67840269      0.33442339      8.96430928
H       2.58768025      1.83134308      8.60066825
23
Frame 240  Energy = -425.5035622777 Hartree
C       0.00813463      1.09296269      0.09855474
C      -0.21245302      1.34551369      1.60546937
C       0.89596196      0.73910232      2.50575547
C       0.66642450      1.06173142      3.97133520
C       1.87984406      0.66680657      4.86675453
C       1.61291289      0.99628297      6.31683842
O       0.73873579      1.70030972      6.77360195
O       2.55028658      0.46781920      7.08267140
C       2.55744074      0.78963473      8.49288622
H      -0.85469065      1.49490732     -0.50228290
H       0.93015105      1.61268623     -0.27448033
H       0.15462929      0.04778801     -0.09546704
H      -1.18186203      0.87414613      1.89287133
H      -0.24549233      2.44052219      1.81279157
H       0.91081111     -0.31195163      2.35808333
H       1.87495355      1.18903112      2.21931038
H       0.51498382      2.17931757      4.10435896
H      -0.30251783      0.68378036      4.31918448
H       1.95223460     -0.41485742      4.89969588
H       2.81649009      1.04464855      4.44576945
H       3.44267837      0.28295997      8.92772582
H       1.67865052      0.32965991      8.96979093
H       2.58560925      1.83527155      8.59910973
23
Frame 245  Energy = -425.5036603536 Hartree
C       0.00712229      1.09468647      0.09935643
C      -0.21396122      1.34426844      1.60375960
C       0.89479790      0.73659320      2.50762206
C       0.66670480      1.05737418      3.97302798
C       1.87980308      0.66760684      4.86719652
C       1.60914246      0.99791226      6.31487035
O       0.74021184      1.70161907      6.77390215
O       2.55291552      0.46805382      7.08522361
C       2.55618364      0.79058967      8.49158256
H      -0.85276013      1.49539139     -0.50278412
H       0.92611457      1.61164165     -0.27892008
H       0.15930437      0.04536879     -0.09910353
H      -1.18241236      0.86619628      1.89764692
H      -0.24467791      2.43842619      1.81007677
H       0.91341270     -0.31882922      2.35654648
H       1.87180630      1.19921028      2.21235294
H       0.50484215      2.17698843      4.09861767
H      -0.30405416      0.69296951      4.33171036
H       1.96418600     -0.41913496      4.88791414
H       2.81708965      1.04645876      4.44494789
H       3.43402295      0.28596425      8.93359752
H       1.67884537      0.32590776      8.97481311
H       2.58373335      1.84283057      8.59850444
23
Frame 250  Energy = -425.5036000596 Hartree
C       0.00611019      1.09670715      0.10016173
C      -0.21542446      1.34295533      1.60198757
C       0.89362034      0.73428933      2.50931123
C       0.66706898      1.05339286      3.97481223
C       1.87941707      0.66825611      4.86755271
C       1.60554623      0.99979694      6.31307788
O       0.74164443      1.70287621      6.77418279
O       2.55566359      0.46816236      7.08789447
C       2.55488487      0.79117369      8.49023807
H      -0.84942853      1.49447584     -0.50209450
H       0.92070624      1.61002416     -0.28276440
H       0.16382773      0.04136047     -0.10315585
H      -1.18221461      0.85995694      1.90216220
H      -0.24461963      2.43510912      1.80681521
H       0.91666434     -0.32797668      2.35443525
H       1.86712869      1.20804018      2.20546358
H       0.49578835      2.17222828      4.09209473
H      -0.30496888      0.70092741      4.34476318
H       1.97672896     -0.42423594      4.87573394
H       2.81807822      1.04900156      4.44537836
H       3.42508950      0.28982444      8.93844467
H       1.67879481      0.32342431      8.97920963
H       2.58190527      1.85364341      8.59879386
23
Frame 255  Energy = -425.5035833434 Hartree
C       0.00503433      1.09891181      0.10093384
C      -0.21685628      1.34160185      1.60039053
C       0.89238437      0.73226322      2.51097166
C       0.66750120      1.04976142      3.97672703
C       1.87871200      0.66868602      4.86782771
C       1.60216865      1.00192378      6.31144684
O       0.74305129      1.70412674      6.77445764
O       2.55843673      0.46813051      7.09067036
C       2.55355584      0.79151105      8.48875574
H      -0.84491423      1.49226030     -0.50014512
H       0.91428982      1.60818331     -0.28585300
H       0.16781247      0.03663758     -0.10756426
H      -1.18085241      0.85534804      1.90608369
H      -0.24573695      2.43043912      1.80332251
H       0.92054029     -0.33889302      2.35157121
H       1.86105926      1.21531939      2.19873437
H       0.48804634      2.16518032      4.08490897
H      -0.30487869      0.70686527      4.35813180
H       1.98969576     -0.42988602      4.86326369
H       2.81899805      1.05182758      4.44698717
H       3.41660453      0.29452082      8.94219734
H       1.67901564      0.32222252      8.98260019
H       2.58018826      1.86623534      8.60014442
23
Frame 260  Energy = -425.5036066592 Hartree
C       0.00396391      1.10125632      0.10169278
C      -0.21820157      1.34020378      1.59892681
C       0.89114324      0.73050292      2.51255036
C       0.66802670      1.04640905      3.97875859
C       1.87762534      0.66890217      4.86800415
C       1.59906754      1.00414344      6.30997388
O       0.74432630      1.70539652      6.77468413
O       2.56119156      0.46795104      7.09349916
C       2.55215205      0.79171650      8.48729882
H      -0.83974415      1.48911830     -0.49715513
H       0.90712138      1.60610919     -0.28803460
H       0.17122387      0.03135428     -0.11243387
H      -1.17835209      0.85228192      1.90924781
H      -0.24786357      2.42450468      1.79963691
H       0.92529768     -0.35068244      2.34854706
H       1.85380895      1.22097260      2.19247167
H       0.48185855      2.15621061      4.07724434
H      -0.30428437      0.71076197      4.37178563
H       2.00289858     -0.43535007      4.85041728
H       2.81936611      1.05514011      4.44943155
H       3.40890674      0.29996839      8.94514684
H       1.67939155      0.32244135      8.98538661
H       2.57834986      1.87954541      8.60227176
23
Frame 265  Energy = -425.5035850767 Hartree
C       0.00293402      1.10348079      0.10236202
C      -0.21944612      1.33869678      1.59760865
C       0.88993379      0.72893651      2.51402498
C       0.66858030      1.04349543      3.98085722
C       1.87611812      0.66887796      4.86791756
C       1.59624332      1.00634141      6.30863732
O       0.74544567      1.70667820      6.77489507
O       2.56402210      0.46771380      7.09636241
C       2.55063938      0.79188982      8.48595088
H      -0.83416667      1.48533343     -0.49356692
H       0.89948220      1.60403348     -0.28933284
H       0.17381933      0.02644015     -0.11717074
H      -1.17474868      0.85058286      1.91173959
H      -0.25066856      2.41803096      1.79587303
H       0.93095978     -0.36288896      2.34498898
H       1.84548870      1.22467416      2.18675030
H       0.47747241      2.14557449      4.06955329
H      -0.30321842      0.71244264      4.38576293
H       2.01587676     -0.44008930      4.83735255
H       2.81913083      1.05886842      4.45310160
H       3.40232008      0.30583000      8.94727438
H       1.67986477      0.32382848      8.98729437
H       2.57620150      1.89255108      8.60533117
23
Frame 270  Energy = -425.5032979405 Hartree
C       0.00194397      1.10562743      0.10292124
C      -0.22064952      1.33687763      1.59645945
C       0.88869404      0.72747308      2.51535758
C       0.66913308      1.04087882      3.98302043
C       1.87428071      0.66848063      4.86771261
C       1.59375826      1.00854116      6.30749383
O       0.74640931      1.70797374      6.77507524
O       2.56690582      0.46752399      7.09924374
C       2.54894083      0.79199257      8.48482821
H      -0.82908655      1.48111953     -0.48982401
H       0.89209726      1.60210909     -0.28991569
H       0.17541703      0.02264429     -0.12187927
H      -1.16984579      0.85012649      1.91345399
H      -0.25420485      2.41137434      1.79217031
H       0.93769881     -0.37446125      2.34084600
H       1.83619199      1.22625016      2.18170778
H       0.47436999      2.13402861      4.06137959
H      -0.30142337      0.71200547      4.39971303
H       2.02869132     -0.44337429      4.82416882
H       2.81853215      1.06340960      4.45786389
H       3.39696831      0.31200448      8.94870322
H       1.68023286      0.32659520      8.98820621
H       2.57384641      1.90412257      8.60897214
23
Frame 275  Energy = -425.5031010636 Hartree
C       0.00112080      1.10764171      0.10338412
C      -0.22179418      1.33484377      1.59546985
C       0.88742769      0.72616432      2.51637665
C       0.66949440      1.03848417      3.98528422
C       1.87217257      0.66778541      4.86730952
C       1.59159870      1.01073994      6.30656644
O       0.74722691      1.70936329      6.77530838
O       2.56979804      0.46733991      7.10210164
C       2.54707023      0.79218513      8.48383404
H      -0.82490348      1.47653410     -0.48636317
H       0.88522163      1.60075671     -0.28968670
H       0.17636289      0.02042721     -0.12621304
H      -1.16440891      0.85095391      1.91477567
H      -0.25850626      2.40494713      1.78844287
H       0.94509950     -0.38452165      2.33661211
H       1.82625774      1.22624253      2.17737458
H       0.47254441      2.12158430      4.05291514
H      -0.29857188      0.70959816      4.41323154
H       2.04106925     -0.44502177      4.81110027
H       2.81741181      1.06878690      4.46338388
H       3.39290957      0.31826874      8.94969467
H       1.68017020      0.33092771      8.98800694
H       2.57179485      1.91351659      8.61303145
23
Frame 280  Energy = -425.5030040813 Hartree
C       0.00038299      1.10944065      0.10383094
C      -0.22285174      1.33263025      1.59470808
C       0.88609859      0.72490827      2.51720714
C       0.66962086      1.03627983      3.98761509
C       1.86987661      0.66678082      4.86672051
C       1.58990497      1.01295070      6.30576492
O       0.74774820      1.71095219      6.77554193
O       2.57265775      0.46710010      7.10489170
C       2.54502567      0.79261908      8.48286539
H      -0.82190213      1.47188881     -0.48387804
H       0.87922625      1.60022596     -0.28903054
H       0.17622643      0.02008020     -0.13008980
H      -1.15913223      0.85286891      1.91549457
H      -0.26316276      2.39930080      1.78527402
H       0.95336474     -0.39279305      2.33251794
H       1.81640309      1.22471083      2.17395160
H       0.47184307      2.10938589      4.04463545
H      -0.29466681      0.70531041      4.42591250
H       2.05271005     -0.44468968      4.79822312
H       2.81561473      1.07526073      4.46962619
H       3.39064032      0.32426745      8.95000268
H       1.67951917      0.33673657      8.98706000
H       2.56940328      1.92037875      8.61750186
23
Frame 285  Energy = -425.5031048701 Hartree
C      -0.00030108      1.11092648      0.10419443
C      -0.22384532      1.33015723      1.59408752
C       0.88470521      0.72359857      2.51789955
C       0.66966356      1.03421103      3.98997177
C       1.86743061      0.66545187      4.86594045
C       1.58883987      1.01506735      6.30516169
O       0.74806485      1.71268490      6.77575719
O       2.57545793      0.46677533      7.10754227
C       2.54275227      0.79331720      8.48197394
H      -0.82067392      1.46737444     -0.48239976
H       0.87463649      1.60087602     -0.28797401
H       0.17484311      0.02178096     -0.13330293
H      -1.15442614      0.85566530      1.91553535
H      -0.26853430      2.39462341      1.78250309
H       0.96201907     -0.39837262      2.32863027
H       1.80645300      1.22170684      2.17105609
H       0.47227687      2.09839864      4.03667769
H      -0.28947010      0.69890562      4.43783990
H       2.06331803     -0.44220679      4.78606400
H       2.81293959      1.08244216      4.47669322
H       3.39059502      0.33022428      8.94993689
H       1.67838443      0.34383261      8.98521357
H       2.56672480      1.92415900      8.62208603
23
Frame 290  Energy = -425.5032450097 Hartree
C      -0.00090936      1.11200205      0.10462902
C      -0.22475812      1.32743052      1.59345562
C       0.88318041      0.72215824      2.51843174
C       0.66958278      1.03231966      3.99230947
C       1.86491322      0.66390140      4.86506399
C       1.58839651      1.01694028      6.30482652
O       0.74815213      1.71444681      6.77590754
O       2.57824810      0.46643769      7.11001750
C       2.54038226      0.79427178      8.48116138
H      -0.82139503      1.46332672     -0.48178947
H       0.87131468      1.60277823     -0.28681573
H       0.17216333      0.02509395     -0.13594572
H      -1.15065749      0.85903616      1.91502908
H      -0.27416163      2.39119754      1.78031487
H       0.97093614     -0.40098403      2.32538258
H       1.79695602      1.21760626      2.16869996
H       0.47392981      2.08932677      4.02920920
H      -0.28276590      0.69060830      4.44908781
H       2.07261670     -0.43768703      4.77451979
H       2.80917303      1.09059135      4.48486824
H       3.39256897      0.33591171      8.94944645
H       1.67666322      0.35160839      8.98269865
H       2.56352312      1.92453488      8.62682393
23
Frame 295  Energy = -425.5034703918 Hartree
C      -0.00132294      1.11276054      0.10514049
C      -0.22544005      1.32454634      1.59295231
C       0.88149089      0.72050561      2.51872079
C       0.66935149      1.03058229      3.99475050
C       1.86229946      0.66212449      4.86413327
C       1.58854096      1.01853619      6.30475112
O       0.74807233      1.71630759      6.77591996
O       2.58094234      0.46600798      7.11229895
C       2.53796224      0.79549651      8.48046303
H      -0.82428280      1.45992079     -0.48208098
H       0.86965421      1.60581208     -0.28549433
H       0.16863911      0.03035764     -0.13796090
H      -1.14830325      0.86259207      1.91417918
H      -0.28025240      2.38902861      1.77920737
H       0.97992661     -0.40058718      2.32271892
H       1.78853164      1.21264594      2.16689784
H       0.47695295      2.08293234      4.02231428
H      -0.27473047      0.68021391      4.45963840
H       2.08116090     -0.43155846      4.76385157
H       2.80466237      1.09952283      4.49394277
H       3.39591840      0.34127358      8.94882720
H       1.67417574      0.35993913      8.97939097
H       2.55972711      1.92174204      8.63160765
23
Frame 300  Energy = -425.5036114955 Hartree
C      -0.00155397      1.11315294      0.10562593
C      -0.22589264      1.32151386      1.59258890
C       0.87962685      0.71879393      2.51869540
C       0.66903044      1.02893437      3.99716584
C       1.85956710      0.66012615      4.86306256
C       1.58931703      1.01990593      6.30495883
O       0.74775134      1.71828161      6.77583824
O       2.58349766      0.46558997      7.11437073
C       2.53551859      0.79693516      8.47980295
H      -0.82947666      1.45697253     -0.48335591
H       0.86951353      1.61013034     -0.28411930
H       0.16382329      0.03726186     -0.13932068
H      -1.14796368      0.86629889      1.91302719
H      -0.28660306      2.38826622      1.77885660
H       0.98832555     -0.39709619      2.32056490
H       1.78148895      1.20716468      2.16570706
H       0.48077807      2.07959472      4.01661693
H      -0.26578960      0.66823548      4.46917310
H       2.08882312     -0.42409378      4.75447882
H       2.79969441      1.10925971      4.50388895
H       3.40071496      0.34658061      8.94802618
H       1.67064798      0.36870959      8.97587459
H       2.55539072      1.91624214      8.63610289
