23
Frame 5  Energy = -425.5063905371 Hartree
C      -0.01162769      0.98286130      0.28014889
C      -0.36439019      1.00962102      1.72366725
C       0.83302902      0.69724249      2.64101606
C       0.51475660      0.80771750      4.09949036
C       1.78665617      0.60747580      4.94274416
C       1.64192430      1.14834746      6.35733017
O       0.71280657      1.79652279      6.74066787
O       2.62853848      0.70686786      7.11938729
C       2.55411835      0.96551548      8.53526228
H      -0.88113319      1.23451414     -0.37166119
H       0.73360273      1.77573897      0.09829113
H       0.27574459      0.00093798     -0.12289786
H      -1.18506780      0.30179421      1.98013248
H      -0.74710828      2.00106537      2.06938277
H       1.26695232     -0.25478720      2.36366744
H       1.69446884      1.38289110      2.51685795
H       0.18617656      1.86855857      4.36746639
H      -0.27658431      0.11530106      4.39691930
H       2.15375037     -0.40275895      4.88770123
H       2.58946859      1.14461203      4.45029722
H       3.45788223      0.51654923      8.92179778
H       1.63955391      0.57921930      8.99508244
H       2.56572083      2.02304595      8.70163961
23
Frame 10  Energy = -425.5061281667 Hartree
C      -0.01319728      0.98165479      0.28001910
C      -0.36214428      1.00950352      1.72365208
C       0.83273316      0.69649964      2.64188095
C       0.51634850      0.80924803      4.10265264
C       1.78402456      0.60841176      4.94471191
C       1.64471776      1.14791235      6.35769261
O       0.71244303      1.79713958      6.74140198
O       2.62748493      0.70853909      7.11840554
C       2.55468660      0.96421204      8.53555891
H      -0.87607672      1.23087343     -0.37373061
H       0.72983536      1.77911383      0.10911754
H       0.28232488     -0.00788277     -0.13108971
H      -1.18592093      0.29746411      1.98975848
H      -0.75666748      1.99586979      2.06980888
H       1.26744445     -0.24548634      2.34968606
H       1.69979886      1.38189405      2.51438689
H       0.19190039      1.87190530      4.36326430
H      -0.27701018      0.10531701      4.39430450
H       2.14366937     -0.41297127      4.87596104
H       2.58828719      1.14522848      4.44367833
H       3.46288527      0.52702083      8.91933198
H       1.63961506      0.58771323      8.99317763
H       2.56726779      2.03493255      8.70386611
23
Frame 15  Energy = -425.5058292226 Hartree
C      -0.01490932      0.98049150      0.27950128
C      -0.36004473      1.00947162      1.72409301
C       0.83251748      0.69591262      2.64268535
C       0.51793160      0.81106452      4.10607004
C       1.78132147      0.60937928      4.94659229
C       1.64752974      1.14710427      6.35778562
O       0.71185039      1.79794906      6.74221340
O       2.62649045      0.71005625      7.11756276
C       2.55526947      0.96302663      8.53582282
H      -0.87047246      1.22734782     -0.37497517
H       0.72638342      1.78099318      0.11912280
H       0.29029936     -0.01553802     -0.13802743
H      -1.18549060      0.29363161      1.99865276
H      -0.76566186      1.98959578      2.06886772
H       1.26767961     -0.23858626      2.33569554
H       1.70360206      1.38131350      2.51068295
H       0.19792707      1.87206140      4.35768385
H      -0.27723705      0.09619949      4.39171606
H       2.13341642     -0.42469523      4.86540293
H       2.58775335      1.14681394      4.43736806
H       3.46802848      0.53661330      8.91801981
H       1.63972617      0.59512598      8.99113518
H       2.56913192      2.04745810      8.70619153
23
Frame 20  Energy = -425.5059033212 Hartree
C      -0.01665471      0.97921886      0.27866166
C      -0.35818259      1.00944391      1.72491608
C       0.83241609      0.69559926      2.64338120
C       0.51944995      0.81311847      4.10967459
C       1.77881705      0.61030453      4.94826847
C       1.65020543      1.14601612      6.35756243
O       0.71119015      1.79883857      6.74305654
O       2.62561420      0.71156219      7.11687875
C       2.55589012      0.96200650      8.53587309
H      -0.86482869      1.22427656     -0.37531255
H       0.72373152      1.78130851      0.12820124
H       0.29944497     -0.02115968     -0.14306075
H      -1.18307179      0.29069897      2.00646156
H      -0.77447386      1.98273251      2.06626837
H       1.26796750     -0.23424004      2.32199571
H       1.70578349      1.38088255      2.50573657
H       0.20384895      1.86938956      4.35082805
H      -0.27717573      0.08786358      4.38937256
H       2.12278243     -0.43670093      4.85614849
H       2.58776772      1.14939797      4.43154573
H       3.47332298      0.54517145      8.91801781
H       1.63956873      0.60147479      8.98908048
H       2.57129728      2.05999415      8.70861050
23
Frame 25  Energy = -425.5059548754 Hartree
C      -0.01834532      0.97787772      0.27757052
C      -0.35655056      1.00934819      1.72612994
C       0.83244483      0.69546654      2.64405529
C       0.52087894      0.81528818      4.11339838
C       1.77643420      0.61107512      4.94972185
C       1.65274572      1.14464580      6.35711836
O       0.71055486      1.79976458      6.74392153
O       2.62484046      0.71315543      7.11625655
C       2.55662678      0.96131842      8.53578281
H      -0.85956952      1.22145069     -0.37509971
H       0.72179163      1.78025314      0.13600310
H       0.30943246     -0.02408609     -0.14617033
H      -1.17864514      0.28885022      2.01287720
H      -0.78253206      1.97576623      2.06213655
H       1.26821927     -0.23236875      2.30886467
H       1.70648451      1.38096692      2.49943517
H       0.20912421      1.86419270      4.34320517
H      -0.27672716      0.08079111      4.38695859
H       2.11172089     -0.44828096      4.84864029
H       2.58801365      1.15279185      4.42665670
H       3.47879285      0.55283115      8.91910115
H       1.63917258      0.60636980      8.98726092
H       2.57378257      2.07141210      8.71077035
23
Frame 30  Energy = -425.5059302143 Hartree
C      -0.01998079      0.97656095      0.27616956
C      -0.35516630      1.00919362      1.72765300
C       0.83251655      0.69563169      2.64461046
C       0.52222081      0.81753709      4.11726562
C       1.77410426      0.61173519      4.95083449
C       1.65499754      1.14311368      6.35642928
O       0.70993967      1.80075613      6.74490090
O       2.62418016      0.71464525      7.11577118
C       2.55744599      0.96115804      8.53570543
H      -0.85535873      1.21919598     -0.37422636
H       0.72055302      1.77793208      0.14228353
H       0.32008369     -0.02469713     -0.14688918
H      -1.17243473      0.28769321      2.01825530
H      -0.78982535      1.96878572      2.05672498
H       1.26856398     -0.23278871      2.29668511
H       1.70555212      1.38126334      2.49188797
H       0.21324425      1.85687984      4.33488827
H      -0.27551216      0.07557447      4.38486780
H       2.10001281     -0.45876507      4.84305815
H       2.58826059      1.15671992      4.42286189
H       3.48404813      0.55956373      8.92084952
H       1.63825633      0.61005495      8.98537865
H       2.57647598      2.08066818      8.71253254
23
Frame 35  Energy = -425.5059189488 Hartree
C      -0.02142288      0.97521501      0.27436384
C      -0.35407529      1.00891098      1.72963773
C       0.83274448      0.69605098      2.64498495
C       0.52353121      0.81967480      4.12116877
C       1.77198882      0.61220782      4.95165779
C       1.65689359      1.14145851      6.35566521
O       0.70936203      1.80183305      6.74593349
O       2.62370635      0.71596551      7.11551574
C       2.55836124      0.96156046      8.53552585
H      -0.85263194      1.21756681     -0.37304223
H       0.71975559      1.77432895      0.14689010
H       0.33116422     -0.02258695     -0.14515154
H      -1.16449068      0.28707033      2.02239678
H      -0.79677518      1.96208354      2.05037160
H       1.26895221     -0.23531334      2.28533674
H       1.70284853      1.38166938      2.48302418
H       0.21616470      1.84812133      4.32645552
H      -0.27299999      0.07247786      4.38308741
H       2.08781286     -0.46746210      4.83931292
H       2.58828819      1.16090115      4.42041508
H       3.48905337      0.56530255      8.92320609
H       1.63677065      0.61262255      8.98360381
H       2.57903854      2.08723192      8.71409898
23
Frame 40  Energy = -425.5058494198 Hartree
C      -0.02275245      0.97381242      0.27228311
C      -0.35328257      1.00837515      1.73200373
C       0.83322694      0.69674704      2.64523003
C       0.52479310      0.82160407      4.12502135
C       1.77013109      0.61242691      4.95223453
C       1.65838140      1.13976031      6.35486804
O       0.70893315      1.80295168      6.74704704
O       2.62345293      0.71718705      7.11552121
C       2.55939853      0.96235383      8.53526074
H      -0.85142525      1.21669558     -0.37192257
H       0.71922914      1.76965118      0.15004263
H       0.34252855     -0.01750511     -0.14125767
H      -1.15540395      0.28705773      2.02510896
H      -0.80327337      1.95608758      2.04299315
H       1.26905813     -0.23963477      2.27546481
H       1.69833795      1.38231864      2.47307218
H       0.21775994      1.83906430      4.31798921
H      -0.26913317      0.07178113      4.38165224
H       2.07533690     -0.47366314      4.83741946
H       2.58767720      1.16504520      4.41961618
H       3.49375952      0.57037104      8.92606294
H       1.63496531      0.61395058      8.98213238
H       2.58127737      2.09110875      8.71517110
23
Frame 45  Energy = -425.5059256231 Hartree
C      -0.02396906      0.97237060      0.27010574
C      -0.35271886      1.00765024      1.73462784
C       0.83385400      0.69764223      2.64517641
C       0.52587475      0.82320509      4.12877256
C       1.76843893      0.61248050      4.95247662
C       1.65940812      1.13806609      6.35399617
O       0.70865596      1.80409971      6.74810200
O       2.62347418      0.71840956      7.11575257
C       2.56041730      0.96367706      8.53492934
H      -0.85153559      1.21655244     -0.37134980
H       0.71965941      1.76421109      0.15161489
H       0.35435731     -0.00980268     -0.13522023
H      -1.14536078      0.28738563      2.02670075
H      -0.80954970      1.95109818      2.03498432
H       1.26853131     -0.24501487      2.26717012
H       1.69206870      1.38274996      2.46215573
H       0.21757044      1.83024508      4.31004545
H      -0.26424112      0.07309090      4.38037802
H       2.06301819     -0.47736742      4.83713274
H       2.58645951      1.16856641      4.42051843
H       3.49812067      0.57443340      8.92936626
H       1.63321080      0.61422777      8.98047902
H       2.58321871      2.09210525      8.71564251
23
Frame 50  Energy = -425.5059338483 Hartree
C      -0.02503575      0.97097210      0.26784806
C      -0.35237620      1.00664857      1.73758325
C       0.83468223      0.69863629      2.64493699
C       0.52687526      0.82433181      4.13242043
C       1.76690631      0.61228960      4.95238248
C       1.65997374      1.13635390      6.35308322
O       0.70849308      1.80518545      6.74909976
O       2.62373959      0.71962666      7.11612766
C       2.56140627      0.96558684      8.53454814
H      -0.85328483      1.21692386     -0.37117755
H       0.72108284      1.75804817      0.15175228
H       0.36591076      0.00023115     -0.12724974
H      -1.13488611      0.28772213      2.02750026
H      -0.81517947      1.94742771      2.02627914
H       1.26747996     -0.25095121      2.26056298
H       1.68439211      1.38345338      2.45038578
H       0.21544999      1.82309085      4.30285916
H      -0.25882299      0.07632656      4.37978126
H       2.05102343     -0.47838691      4.83873950
H       2.58466554      1.17175525      4.42309167
H       3.50194057      0.57763877      8.93303729
H       1.63165626      0.61334402      8.97879314
H       2.58482352      2.08992977      8.71582788
23
Frame 55  Energy = -425.5060396860 Hartree
C      -0.02591825      0.96947273      0.26556410
C      -0.35218163      1.00546001      1.74080286
C       0.83574331      0.69968130      2.64446213
C       0.52788323      0.82510088      4.13590427
C       1.76560702      0.61185712      4.95188974
C       1.66005279      1.13471332      6.35218849
O       0.70846891      1.80620384      6.74998781
O       2.62425301      0.72069819      7.11668684
C       2.56247843      0.96798520      8.53411663
H      -0.85695636      1.21800726     -0.37158810
H       0.72336705      1.75142547      0.15059449
H       0.37709529      0.01176217     -0.11776184
H      -1.12450521      0.28743809      2.02792730
H      -0.82036215      1.94487409      2.01721576
H       1.26589723     -0.25687089      2.25591984
H       1.67612001      1.38482211      2.43837945
H       0.21116167      1.81834506      4.29660601
H      -0.25341801      0.08138779      4.37991745
H       2.03931577     -0.47690246      4.84219321
H       2.58271290      1.17395091      4.42764468
H       3.50504299      0.58007805      8.93712248
H       1.63056311      0.61145718      8.97735160
H       2.58622846      2.08483334      8.71556707
23
Frame 60  Energy = -425.5061446673 Hartree
C      -0.02673706      0.96791105      0.26324310
C      -0.35202404      1.00409499      1.74420191
C       0.83712454      0.70080061      2.64380749
C       0.52887819      0.82560092      4.13907878
C       1.76450069      0.61133227      4.95106560
C       1.65955636      1.13325667      6.35133176
O       0.70857788      1.80714657      6.75086726
O       2.62500521      0.72162420      7.11741632
C       2.56367710      0.97082030      8.53362601
H      -0.86274554      1.21984245     -0.37238898
H       0.72623065      1.74498971      0.14811188
H       0.38833252      0.02395778     -0.10695229
H      -1.11452763      0.28623861      2.02763267
H      -0.82525108      1.94371495      2.00824435
H       1.26337968     -0.26263763      2.25318448
H       1.66721852      1.38690584      2.42617116
H       0.20459827      1.81664661      4.29117523
H      -0.24811089      0.08777479      4.38055984
H       2.02799695     -0.47308422      4.84751378
H       2.58008954      1.17520099      4.43378865
H       3.50691001      0.58161720      8.94143554
H       1.63000997      0.60902370      8.97580282
H       2.58757372      2.07718671      8.71488561
23
Frame 65  Energy = -425.5059499236 Hartree
C      -0.02747724      0.96639786      0.26099895
C      -0.35201821      1.00266092      1.74768429
C       0.83866820      0.70189985      2.64294976
C       0.52986452      0.82576090      4.14192415
C       1.76357671      0.61074565      4.94997986
C       1.65853052      1.13181248      6.35050433
O       0.70888633      1.80807616      6.75168929
O       2.62603282      0.72246924      7.11825437
C       2.56492687      0.97398987      8.53312078
H      -0.86961709      1.22222391     -0.37304559
H       0.72986841      1.73888128      0.14430224
H       0.39979833      0.03615552     -0.09543979
H      -1.10547102      0.28359782      2.02698843
H      -0.82979030      1.94416156      1.99921449
H       1.25959088     -0.26769446      2.25272547
H       1.65822799      1.38968674      2.41384188
H       0.19570308      1.81818266      4.28691756
H      -0.24335918      0.09512152      4.38178393
H       2.01696083     -0.46766950      4.85464933
H       2.57725020      1.17550062      4.44107044
H       3.50730050      0.58235650      8.94573308
H       1.63001698      0.60550171      8.97446670
H       2.58867062      2.06766160      8.71378642
23
Frame 70  Energy = -425.5059628317 Hartree
C      -0.02816117      0.96504105      0.25888159
C      -0.35212514      1.00110758      1.75126452
C       0.84036280      0.70286982      2.64181825
C       0.53092602      0.82561309      4.14443941
C       1.76280450      0.61011265      4.94874942
C       1.65695615      1.13043988      6.34974861
O       0.70934556      1.80894974      6.75242342
O       2.62724714      0.72310982      7.11919073
C       2.56618166      0.97736214      8.53255561
H      -0.87707847      1.22496188     -0.37396456
H       0.73421391      1.73349072      0.13929496
H       0.41169550      0.04714816     -0.08363597
H      -1.09755617      0.27924782      2.02626130
H      -0.83413515      1.94599038      1.99012735
H       1.25491982     -0.27163644      2.25477495
H       1.64922964      1.39321065      2.40116356
H       0.18475425      1.82241595      4.28367600
H      -0.23963241      0.10238206      4.38402586
H       2.00636906     -0.46124801      4.86332559
H       2.57436275      1.17469777      4.44938710
H       3.50614645      0.58207578      8.94984639
H       1.63068667      0.60083815      8.97286199
H       2.58945812      2.05745067      8.71252742
23
Frame 75  Energy = -425.5062251857 Hartree
C      -0.02881076      0.96393184      0.25686031
C      -0.35223544      0.99953075      1.75477700
C       0.84216185      0.70378668      2.64050775
C       0.53207843      0.82529055      4.14661499
C       1.76215049      0.60952124      4.94738900
C       1.65481437      1.12906806      6.34906172
O       0.70996554      1.80983826      6.75313457
O       2.62860889      0.72360409      7.12015221
C       2.56747478      0.98079619      8.53196208
H      -0.88473712      1.22763762     -0.37527616
H       0.73948013      1.72855062      0.13302665
H       0.42381438      0.05611890     -0.07227858
H      -1.09128469      0.27306103      2.02533626
H      -0.83791776      1.94926865      1.98131494
H       1.24947851     -0.27451704      2.25925290
H       1.64060952      1.39763748      2.38828115
H       0.17254575      1.82872357      4.28147532
H      -0.23727056      0.10929541      4.38730656
H       1.99670093     -0.45420484      4.87348267
H       2.57133532      1.17326836      4.45843605
H       3.50363317      0.58097934      8.95351843
H       1.63242916      0.59551642      8.97077945
H       2.58988225      2.04735329      8.71137463
23
Frame 80  Energy = -425.5060233525 Hartree
C      -0.02945907      0.96304728      0.25507173
C      -0.35237954      0.99793127      1.75819864
C       0.84400646      0.70470915      2.63902938
C       0.53327596      0.82480946      4.14836337
C       1.76165973      0.60907275      4.94603047
C       1.65202150      1.12782456      6.34846941
O       0.71076632      1.81064876      6.75381381
O       2.63011503      0.72407204      7.12115948
C       2.56876550      0.98424515      8.53120367
H      -0.89191085      1.23032847     -0.37652870
H       0.74515895      1.72414213      0.12571003
H       0.43629403      0.06241511     -0.06161927
H      -1.08700503      0.26533765      2.02416966
H      -0.84138327      1.95358707      1.97307685
H       1.24317647     -0.27610385      2.26606032
H       1.63257759      1.40290670      2.37544245
H       0.15942933      1.83634628      4.27996389
H      -0.23658157      0.11555706      4.39122974
H       1.98788462     -0.44728864      4.88459353
H       2.56855044      1.17120533      4.46824310
H       3.49963825      0.57952436      8.95692809
H       1.63548992      0.58976518      8.96855649
H       2.58995412      2.03836960      8.71022232
23
Frame 85  Energy = -425.5060634745 Hartree
C      -0.03007986      0.96241016      0.25354354
C      -0.35255185      0.99629460      1.76150230
C       0.84585553      0.70562439      2.63747051
C       0.53460089      0.82441635      4.14969164
C       1.76124921      0.60872045      4.94467443
C       1.64857862      1.12670302      6.34785167
O       0.71183467      1.81135145      6.75439673
O       2.63180059      0.72445981      7.12226640
C       2.57003325      0.98761361      8.53035752
H      -0.89806395      1.23268179     -0.37785836
H       0.75071315      1.72003793      0.11752833
H       0.44903155      0.06569588     -0.05196687
H      -1.08472449      0.25621449      2.02292193
H      -0.84426716      1.95834786      1.96556889
H       1.23628144     -0.27692347      2.27485331
H       1.62547162      1.40913485      2.36249526
H       0.14586923      1.84451473      4.27922943
H      -0.23723968      0.12088220      4.39620667
H       1.98043933     -0.44113470      4.89689827
H       2.56670762      1.16914053      4.47811814
H       3.49430811      0.57793984      8.96020314
H       1.63962064      0.58383492      8.96614660
H       2.58978777      2.03195886      8.70920796
23
Frame 90  Energy = -425.5061062740 Hartree
C      -0.03066821      0.96211181      0.25227971
C      -0.35281166      0.99466551      1.76461412
C       0.84777127      0.70645136      2.63583840
C       0.53585946      0.82415232      4.15054627
C       1.76087697      0.60844507      4.94330388
C       1.64461134      1.12571190      6.34729626
O       0.71313636      1.81196217      6.75496970
O       2.63364039      0.72475279      7.12346035
C       2.57121432      0.99081262      8.52952034
H      -0.90314573      1.23444620     -0.37835153
H       0.75584465      1.71640455      0.10867810
H       0.46201467      0.06582363     -0.04320976
H      -1.08413710      0.24583271      2.02177853
H      -0.84658098      1.96332025      1.95870148
H       1.22921534     -0.27722984      2.28551714
H       1.61949688      1.41680930      2.34968398
H       0.13227456      1.85188186      4.27907046
H      -0.23941009      0.12554363      4.40227436
H       1.97487977     -0.43656616      4.90998056
H       2.56618385      1.16690951      4.48806029
H       3.48793472      0.57562191      8.96296858
H       1.64481208      0.57765064      8.96375456
H       2.58924846      2.02913401      8.70830502
23
Frame 95  Energy = -425.5059869147 Hartree
C      -0.03120369      0.96202228      0.25120974
C      -0.35326740      0.99298121      1.76750785
C       0.84969212      0.70723694      2.63417087
C       0.53696757      0.82411892      4.15095751
C       1.76065727      0.60832714      4.94198126
C       1.64029667      1.12479350      6.34683932
O       0.71453492      1.81260963      6.75554256
O       2.63565715      0.72486541      7.12465845
C       2.57222791      0.99380052      8.52868336
H      -0.90706869      1.23521358     -0.37769071
H       0.76057787      1.71334418      0.09932323
H       0.47480657      0.06303078     -0.03565154
H      -1.08514558      0.23415309      2.02095147
H      -0.84806758      1.96794260      1.95260859
H       1.22210950     -0.27708026      2.29801415
H       1.61456057      1.42530357      2.33727314
H       0.11886136      1.85766961      4.27957519
H      -0.24318916      0.12945520      4.40894831
H       1.97080822     -0.43396033      4.92367236
H       2.56749424      1.16500369      4.49755905
H       3.48082670      0.57241904      8.96531400
H       1.65117869      0.57120029      8.96128926
H       2.58812755      2.03003182      8.70769634
23
Frame 100  Energy = -425.5057976709 Hartree
C      -0.03164096      0.96221054      0.25025360
C      -0.35394461      0.99134429      1.77020214
C       0.85157057      0.70803835      2.63253331
C       0.53790018      0.82444377      4.15091190
C       1.76050778      0.60836896      4.94080916
C       1.63565956      1.12396030      6.34655917
O       0.71604839      1.81329945      6.75606499
O       2.63788646      0.72487761      7.12589601
C       2.57317424      0.99664250      8.52780172
H      -0.90949167      1.23487008     -0.37652885
H       0.76448103      1.71090574      0.08929194
H       0.48712629      0.05767446     -0.02922775
H      -1.08752273      0.22157216      2.02035479
H      -0.84863339      1.97208682      1.94720766
H       1.21543777     -0.27673328      2.31197542
H       1.61055573      1.43433800      2.32555645
H       0.10631352      1.86141440      4.28084547
H      -0.24832153      0.13205112      4.41598325
H       1.96859944     -0.43405125      4.93801355
H       2.57047712      1.16319163      4.50597461
H       3.47322783      0.56903214      8.96741924
H       1.65827556      0.56493153      8.95891330
H       2.58657857      2.03505075      8.70773679
23
Frame 105  Energy = -425.5058690228 Hartree
C      -0.03193961      0.96262413      0.24949203
C      -0.35490076      0.98970752      1.77272718
C       0.85332678      0.70892002      2.63088489
C       0.53868379      0.82514867      4.15049952
C       1.76034761      0.60850663      4.93977294
C       1.63074991      1.12318573      6.34643564
O       0.71767258      1.81407114      6.75657738
O       2.64022618      0.72484817      7.12712102
C       2.57396077      0.99923397      8.52691188
H      -0.91058490      1.23341327     -0.37493916
H       0.76724979      1.70876043      0.07836825
H       0.49815804      0.05034993     -0.02401928
H      -1.09068484      0.20895484      2.01968586
H      -0.84802396      1.97556075      1.94281685
H       1.20924254     -0.27674424      2.32702349
H       1.60751949      1.44379886      2.31471625
H       0.09525940      1.86270188      4.28264492
H      -0.25422075      0.13351247      4.42309395
H       1.96801060     -0.43662422      4.95297728
H       2.57584303      1.16167878      4.51343637
H       3.46533471      0.56531384      8.96928696
H       1.66569926      0.55886559      8.95681139
H       2.58459663      2.04395506      8.70832866
23
Frame 110  Energy = -425.5057263112 Hartree
C      -0.03202842      0.96319748      0.24896803
C      -0.35616517      0.98797193      1.77504775
C       0.85499282      0.70996745      2.62945414
C       0.53919653      0.82618501      4.14961816
C       1.76014593      0.60887009      4.93897719
C       1.62573421      1.12252939      6.34650635
O       0.71940624      1.81477838      6.75720276
O       2.64262148      0.72482759      7.12834517
C       2.57469959      1.00160678      8.52605970
H      -0.91007581      1.23049116     -0.37275403
H       0.76859829      1.70710073      0.06713753
H       0.50807134      0.04212675     -0.01972297
H      -1.09414166      0.19696648      2.01854340
H      -0.84625212      1.97800409      1.93941823
H       1.20384267     -0.27764336      2.34290010
H       1.60530215      1.45331866      2.30501850
H       0.08569335      1.86128867      4.28532045
H      -0.26045385      0.13433353      4.43025105
H       1.96871860     -0.44173053      4.96813215
H       2.58315118      1.16040593      4.51994286
H       3.45778576      0.56095566      8.97156776
H       1.67326130      0.55273926      8.95449183
H       2.58223297      2.05593128      8.70913069
23
Frame 115  Energy = -425.5058138643 Hartree
C      -0.03192478      0.96389273      0.24856184
C      -0.35766334      0.98615223      1.77707935
C       0.85648299      0.71122438      2.62822239
C       0.53936521      0.82750924      4.14818430
C       1.75987909      0.60929633      4.93842349
C       1.62064214      1.12197860      6.34675104
O       0.72113178      1.81540139      6.75790393
O       2.64506793      0.72488639      7.12948762
C       2.57541400      1.00384519      8.52511686
H      -0.90835691      1.22585332     -0.36987534
H       0.76868551      1.70583962      0.05560733
H       0.51592590      0.03371882     -0.01595678
H      -1.09787053      0.18594708      2.01684925
H      -0.84314373      1.97899557      1.93713395
H       1.19955490     -0.27961054      2.35908528
H       1.60347287      1.46211094      2.29648333
H       0.07785681      1.85713336      4.28804446
H      -0.26673858      0.13501474      4.43724210
H       1.97075208     -0.44819011      4.98321825
H       2.59237779      1.15932224      4.52543415
H       3.45103238      0.55585430      8.97376516
H       1.68052249      0.54683737      8.95180606
H       2.57928493      2.07010979      8.71008961
23
Frame 120  Energy = -425.5056038457 Hartree
C      -0.03153867      0.96461542      0.24828598
C      -0.35935385      0.98428798      1.77885631
C       0.85788550      0.71275344      2.62709352
C       0.53926526      0.82916415      4.14628974
C       1.75953909      0.60975735      4.93815721
C       1.61553331      1.12152537      6.34706601
O       0.72281480      1.81607672      6.75870506
O       2.64765981      0.72494086      7.13051972
C       2.57610502      1.00598438      8.52419867
H      -0.90557674      1.21980940     -0.36700118
H       0.76768892      1.70512259      0.04431859
H       0.52141925      0.02555685     -0.01288771
H      -1.10160119      0.17618521      2.01451253
H      -0.83910918      1.97849838      1.93623714
H       1.19666622     -0.28260495      2.37539869
H       1.60192703      1.47014122      2.28953790
H       0.07206401      1.85077806      4.29108103
H      -0.27265193      0.13562624      4.44369214
H       1.97404054     -0.45602562      4.99840940
H       2.60300148      1.15826629      4.52982374
H       3.44507993      0.55048007      8.97584276
H       1.68725164      0.54110820      8.94918482
H       2.57608440      2.08556511      8.71154895
23
Frame 125  Energy = -425.5058899182 Hartree
C      -0.03083938      0.96529294      0.24823544
C      -0.36124247      0.98236910      1.78040016
C       0.85919198      0.71453542      2.62603298
C       0.53882249      0.83108677      4.14404499
C       1.75924926      0.61027968      4.93820544
C       1.61047083      1.12104845      6.34753663
O       0.72445364      1.81680245      6.75958454
O       2.65030929      0.72492633      7.13151154
C       2.57685190      1.00819126      8.52329804
H      -0.90221303      1.21255595     -0.36432496
H       0.76570866      1.70524372      0.03376141
H       0.52436622      0.01784551     -0.01019157
H      -1.10525724      0.16823564      2.01166127
H      -0.83441320      1.97656068      1.93674939
H       1.19521007     -0.28698560      2.39145282
H       1.60063029      1.47660271      2.28421635
H       0.06823659      1.84213179      4.29441060
H      -0.27753369      0.13614636      4.44951084
H       1.97803205     -0.46444952      5.01318508
H       2.61437361      1.15692268      4.53340842
H       3.44021619      0.54492596      8.97810724
H       1.69324966      0.53559438      8.94677307
H       2.57251275      2.10071064      8.71303162
23
Frame 130  Energy = -425.5060193514 Hartree
C      -0.02989458      0.96594083      0.24839817
C      -0.36336227      0.98037293      1.78169196
C       0.86031150      0.71653201      2.62509745
C       0.53806201      0.83325739      4.14146049
C       1.75907745      0.61077454      4.93855378
C       1.60565462      1.12057298      6.34813588
O       0.72593299      1.81755700      6.76053619
O       2.65293991      0.72488612      7.13248694
C       2.57752811      1.01049411      8.52238810
H      -0.89864935      1.20394077     -0.36224018
H       0.76240739      1.70589292      0.02397326
H       0.52443574      0.01119307     -0.00770711
H      -1.10834693      0.16240577      2.00822363
H      -0.82911433      1.97296264      1.93871340
H       1.19503744     -0.29236484      2.40741463
H       1.59942592      1.48147609      2.28027554
H       0.06619116      1.83184575      4.29812474
H      -0.28119900      0.13653675      4.45461099
H       1.98279815     -0.47204680      5.02716037
H       2.62600683      1.15506693      4.53632747
H       3.43672958      0.53946576      8.98049309
H       1.69836918      0.53037400      8.94450817
H       2.56899837      2.11461043      8.71461515
23
Frame 135  Energy = -425.5059547196 Hartree
C      -0.02859269      0.96644538      0.24886968
C      -0.36566604      0.97829274      1.78263552
C       0.86127705      0.71873897      2.62432295
C       0.53697735      0.83548117      4.13853153
C       1.75909771      0.61128796      4.93917404
C       1.60114216      1.12010300      6.34887283
O       0.72718944      1.81835814      6.76158403
O       2.65552874      0.72486742      7.13332089
C       2.57809897      1.01286725      8.52152229
H      -0.89536813      1.19416951     -0.36057021
H       0.75780276      1.70701038      0.01474229
H       0.52179428      0.00610494     -0.00531307
H      -1.11036413      0.15876160      2.00422225
H      -0.82362266      1.96850243      1.94213391
H       1.19617232     -0.29820035      2.42307673
H       1.59861329      1.48516565      2.27816940
H       0.06590680      1.82064203      4.30250269
H      -0.28339624      0.13743590      4.45901334
H       1.98819615     -0.47842463      5.04008437
H       2.63752142      1.15244273      4.53882596
H       3.43439669      0.53389515      8.98323165
H       1.70269386      0.52562323      8.94292852
H       2.56519917      2.12629200      8.71641996
23
Frame 140  Energy = -425.5056040758 Hartree
C      -0.02694103      0.96679716      0.24957708
C      -0.36813865      0.97602130      1.78330274
C       0.86219754      0.72115423      2.62371892
C       0.53563673      0.83781240      4.13516978
C       1.75924002      0.61167713      4.94002992
C       1.59693388      1.11947516      6.34972944
O       0.72823923      1.81929698      6.76279390
O       2.65809267      0.72486949      7.13392026
C       2.57862663      1.01540025      8.52073461
H      -0.89268877      1.18378060     -0.35958395
H       0.75226375      1.70858531      0.00573420
H       0.51625381      0.00259110     -0.00337233
H      -1.11129310      0.15712990      1.99944060
H      -0.81817344      1.96320950      1.94720265
H       1.19850103     -0.30453393      2.43840749
H       1.59821266      1.48736891      2.27794128
H       0.06716847      1.80933187      4.30740589
H      -0.28368878      0.13891017      4.46230473
H       1.99390057     -0.48308931      5.05238937
H       2.64855430      1.14876833      4.54135664
H       3.43320687      0.52900490      8.98601789
H       1.70591499      0.52141704      8.94205511
H       2.56110902      2.13492241      8.71803388
23
Frame 145  Energy = -425.5053504372 Hartree
C      -0.02504751      0.96695915      0.25045579
C      -0.37074896      0.97350895      1.78359522
C       0.86295051      0.72363052      2.62318969
C       0.53400537      0.84025060      4.13156271
C       1.75962441      0.61184036      4.94117967
C       1.59304303      1.11876269      6.35068427
O       0.72908334      1.82036563      6.76417296
O       2.66055570      0.72484096      7.13437541
C       2.57905102      1.01816143      8.51999892
H      -0.89076091      1.17272372     -0.35977183
H       0.74606186      1.71060612     -0.00272524
H       0.50792231      0.00072010     -0.00167381
H      -1.11160075      0.15761548      1.99400427
H      -0.81296543      1.95734812      1.95372365
H       1.20207194     -0.31056993      2.45338053
H       1.59763783      1.48780749      2.27886110
H       0.06939354      1.79883287      4.31294294
H      -0.28213045      0.14102573      4.46443303
H       1.99987952     -0.48580106      5.06373823
H       2.65872383      1.14362723      4.54405248
H       3.43295639      0.52462172      8.98890871
H       1.70823919      0.51764674      8.94132204
H       2.55676559      2.14014383      8.71905784
23
Frame 150  Energy = -425.5050591138 Hartree
C      -0.02285552      0.96692628      0.25141491
C      -0.37346574      0.97083447      1.78348533
C       0.86351818      0.72620543      2.62275514
C       0.53210748      0.84264214      4.12766815
C       1.76030123      0.61181100      4.94259267
C       1.58957830      1.11795742      6.35176751
O       0.72970103      1.82158161      6.76567392
O       2.66300298      0.72472722      7.13464517
C       2.57942237      1.02109941      8.51926629
H      -0.88963373      1.16099137     -0.36107462
H       0.73921607      1.71311681     -0.01065671
H       0.49735988      0.00019203     -0.00017601
H      -1.11197834      0.16022533      1.98793322
H      -0.80825162      1.95102584      1.96173894
H       1.20641519     -0.31601001      2.46778205
H       1.59714049      1.48650808      2.28131135
H       0.07247788      1.79029232      4.31889412
H      -0.27868494      0.14363088      4.46503711
H       2.00571876     -0.48627484      5.07355243
H       2.66776743      1.13701678      4.54702417
H       3.43356077      0.52102614      8.99131036
H       1.70965908      0.51463856      8.94089067
H       2.55231185      2.14201336      8.71945865
23
Frame 155  Energy = -425.5051373836 Hartree
C      -0.02043224      0.96666486      0.25259745
C      -0.37620020      0.96800711      1.78303049
C       0.86385300      0.72876499      2.62243898
C       0.53002164      0.84495610      4.12350661
C       1.76131701      0.61169729      4.94427869
C       1.58662764      1.11699621      6.35299080
O       0.73005493      1.82298069      6.76725498
O       2.66540860      0.72464822      7.13474970
C       2.57977143      1.02418358      8.51850831
H      -0.88941103      1.14893436     -0.36310873
H       0.73165578      1.71609892     -0.01800859
H       0.48489956      0.00100531      0.00122915
H      -1.11196100      0.16466685      1.98161305
H      -0.80404047      1.94505122      1.97119028
H       1.21148514     -0.31991207      2.48143088
H       1.59703640      1.48371412      2.28520705
H       0.07588861      1.78459646      4.32539417
H      -0.27376335      0.14634650      4.46424352
H       2.01138729     -0.48467334      5.08189530
H       2.67554862      1.12942044      4.54980653
H       3.43475642      0.51855586      8.99317935
H       1.71056496      0.51271134      8.94082759
H       2.54797790      2.14030885      8.71922490
23
Frame 160  Energy = -425.5054312176 Hartree
C      -0.01775008      0.96624823      0.25392712
C      -0.37884997      0.96510940      1.78223939
C       0.86396654      0.73119497      2.62227510
C       0.52792914      0.84713784      4.11917660
C       1.76261543      0.61140420      4.94625927
C       1.58417071      1.11582048      6.35427743
O       0.73012820      1.82451348      6.76899898
O       2.66767821      0.72465992      7.13457889
C       2.58004325      1.02731606      8.51787883
H      -0.88991248      1.13619553     -0.36571623
H       0.72382276      1.71943313     -0.02446848
H       0.47092119      0.00290635      0.00258573
H      -1.11184465      0.16992563      1.97542819
H      -0.80086929      1.93969388      1.98184393
H       1.21702425     -0.32181046      2.49401138
H       1.59794966      1.47989374      2.29035903
H       0.07914416      1.78247052      4.33253290
H      -0.26733052      0.14895026      4.46201725
H       2.01673913     -0.48076123      5.08879290
H       2.68184016      1.12062205      4.55285558
H       3.43632724      0.51725049      8.99454696
H       1.71040520      0.51188631      8.94110927
H       2.54395993      2.13551632      8.71877039
23
Frame 165  Energy = -425.5053806399 Hartree
C      -0.01501448      0.96566068      0.25545261
C      -0.38138124      0.96214120      1.78101107
C       0.86388179      0.73338010      2.62221691
C       0.52586110      0.84912461      4.11468921
C       1.76406812      0.61104044      4.94838711
C       1.58228007      1.11449131      6.35559484
O       0.72996985      1.82620431      6.77094476
O       2.66980268      0.72466128      7.13422958
C       2.58034396      1.03048168      8.51749032
H      -0.89099989      1.12303408     -0.36911207
H       0.71653433      1.72395843     -0.03008213
H       0.45567667      0.00540421      0.00355596
H      -1.11185581      0.17586417      1.96924782
H      -0.79836621      1.93512851      1.99353471
H       1.22278384     -0.32199656      2.50554205
H       1.59971725      1.47501395      2.29650798
H       0.08213823      1.78422064      4.34027401
H      -0.26005567      0.15142967      4.45811773
H       2.02185911     -0.47472436      5.09388749
H       2.68633767      1.11063980      4.55587862
H       3.43785381      0.51775698      8.99513823
H       1.70976042      0.51244121      8.94141000
H       2.54017274      2.12800163      8.71766802
23
Frame 170  Energy = -425.5056158386 Hartree
C      -0.01225841      0.96492167      0.25717353
C      -0.38370693      0.95903362      1.77931794
C       0.86358747      0.73538299      2.62233594
C       0.52392109      0.85087551      4.11003792
C       1.76567147      0.61052332      4.95058927
C       1.58101286      1.11302260      6.35694153
O       0.72964841      1.82798194      6.77297484
O       2.67179775      0.72464208      7.13365243
C       2.58068769      1.03358720      8.51729409
H      -0.89275310      1.10962894     -0.37300103
H       0.71011275      1.72899375     -0.03460878
H       0.44021199      0.00748643      0.00413544
H      -1.11296393      0.18201231      1.96349963
H      -0.79701389      1.93132318      2.00606359
H       1.22867334     -0.32026158      2.51621448
H       1.60220217      1.46951742      2.30348490
H       0.08456892      1.78975206      4.34881860
H      -0.25215552      0.15346188      4.45282479
H       2.02649623     -0.46714166      5.09755477
H       2.68890581      1.09978920      4.55873870
H       3.43957654      0.51989356      8.99500070
H       1.70859545      0.51415631      8.94168557
H       2.53674731      2.11837219      8.71596456
23
Frame 175  Energy = -425.5055912095 Hartree
C      -0.00963898      0.96413541      0.25901795
C      -0.38568925      0.95582367      1.77718566
C       0.86300658      0.73710652      2.62260262
C       0.52217719      0.85247997      4.10532122
C       1.76741814      0.60987112      4.95301793
C       1.58030193      1.11144725      6.35830466
O       0.72913591      1.82985186      6.77512032
O       2.67366789      0.72465492      7.13293675
C       2.58100386      1.03650064      8.51725174
H      -0.89462499      1.09645761     -0.37688662
H       0.70395656      1.73450305     -0.03828906
H       0.42462186      0.00871314      0.00422413
H      -1.11533736      0.18782991      1.95777333
H      -0.79675198      1.92835921      2.01909326
H       1.23455951     -0.31643908      2.52532658
H       1.60587751      1.46373202      2.31086767
H       0.08698776      1.79844171      4.35769965
H      -0.24438334      0.15474948      4.44621905
H       2.03054178     -0.45831383      5.09981312
H       2.69019229      1.08877817      4.56175666
H       3.44121647      0.52402566      8.99421185
H       1.70713027      0.51713666      8.94213317
H       2.53358051      2.10758525      8.71402471
23
Frame 180  Energy = -425.5051459878 Hartree
C      -0.00717750      0.96336241      0.26111608
C      -0.38736516      0.95262597      1.77467883
C       0.86214271      0.73855158      2.62299394
C       0.52073573      0.85413157      4.10063014
C       1.76920967      0.60909670      4.95555550
C       1.58012100      1.10975651      6.35971698
O       0.72841760      1.83174946      6.77739950
O       2.67544483      0.72466925      7.13220631
C       2.58137093      1.03927437      8.51735706
H      -0.89670527      1.08356726     -0.38082830
H       0.69823729      1.74026613     -0.04122751
H       0.40925254      0.00858982      0.00387983
H      -1.11917804      0.19273293      1.95247004
H      -0.79727523      1.92593739      2.03284085
H       1.24046770     -0.31065703      2.53324212
H       1.61068916      1.45794513      2.31830267
H       0.08944592      1.80930060      4.36674127
H      -0.23700805      0.15521936      4.43866321
H       2.03374602     -0.44889823      5.10033554
H       2.69027447      1.07722343      4.56464100
H       3.44279183      0.52973997      8.99227135
H       1.70531244      0.52130272      8.94258476
H       2.53076954      2.09671741      8.71212079
23
Frame 185  Energy = -425.5052800562 Hartree
C      -0.00501397      0.96265247      0.26332364
C      -0.38874190      0.94956877      1.77186624
C       0.86106441      0.73976065      2.62349169
C       0.51957508      0.85583579      4.09597106
C       1.77097665      0.60832829      4.95810133
C       1.58043088      1.10806818      6.36122955
O       0.72742087      1.83378484      6.77974669
O       2.67706797      0.72467896      7.13139744
C       2.58172992      1.04166359      8.51754772
H      -0.89888701      1.07087646     -0.38425430
H       0.69284363      1.74642130     -0.04330067
H       0.39510156      0.00672825      0.00286855
H      -1.12471901      0.19613995      1.94782163
H      -0.79891475      1.92380825      2.04700398
H       1.24665746     -0.30300209      2.53974297
H       1.61681072      1.45270191      2.32619414
H       0.09203809      1.82167726      4.37611128
H      -0.23024955      0.15442372      4.43055308
H       2.03647548     -0.43959280      5.09916325
H       2.68959239      1.06583405      4.56698518
H       3.44398391      0.53717456      8.98957944
H       1.70299731      0.52655303      8.94303187
H       2.52823445      2.08691737      8.71059962
23
Frame 190  Energy = -425.5055574399 Hartree
C      -0.00316817      0.96199497      0.26566006
C      -0.38977478      0.94678163      1.76871423
C       0.85978088      0.74072786      2.62416314
C       0.51867931      0.85760654      4.09152124
C       1.77268854      0.60756733      4.96066301
C       1.58117741      1.10631035      6.36282739
O       0.72624478      1.83578244      6.78219330
O       2.67848931      0.72475668      7.13045703
C       2.58219955      1.04362184      8.51776950
H      -0.90102488      1.05829539     -0.38689982
H       0.68796897      1.75269834     -0.04448129
H       0.38287639      0.00293270      0.00146444
H      -1.13176978      0.19766887      1.94344305
H      -0.80131768      1.92174307      2.06113855
H       1.25260396     -0.29404056      2.54461837
H       1.62404757      1.44841719      2.33407307
H       0.09507608      1.83448347      4.38481210
H      -0.22456991      0.15223581      4.42191101
H       2.03893812     -0.43132600      5.09677292
H       2.68867340      1.05505231      4.56916834
H       3.44480911      0.54619402      8.98606190
H       1.70063228      0.53335999      8.94323374
H       2.52579144      2.07976742      8.70960228
23
Frame 195  Energy = -425.5057979870 Hartree
C      -0.00161584      0.96152834      0.26788682
C      -0.39046694      0.94422559      1.76525249
C       0.85822467      0.74148698      2.62495263
C       0.51797236      0.85944970      4.08738195
C       1.77432744      0.60680106      4.96324651
C       1.58235330      1.10462361      6.36448288
O       0.72491059      1.83766252      6.78465992
O       2.67972336      0.72488285      7.12945446
C       2.58266253      1.04508906      8.51802778
H      -0.90276840      1.04635333     -0.38856042
H       0.68336930      1.75861534     -0.04487136
H       0.37241715     -0.00293393     -0.00052479
H      -1.13977102      0.19761661      1.93949334
H      -0.80422717      1.91944709      2.07480172
H       1.25855069     -0.28414530      2.54780834
H       1.63217161      1.44495534      2.34198426
H       0.09855504      1.84697041      4.39270177
H      -0.22012631      0.14888737      4.41303979
H       2.04094289     -0.42481879      5.09349716
H       2.68750969      1.04530087      4.57084731
H       3.44542668      0.55668530      8.98181211
H       1.69825102      0.54116258      8.94314492
H       2.52322168      2.07592981      8.70891076
23
Frame 200  Energy = -425.5056140337 Hartree
C      -0.00035040      0.96110743      0.27001658
C      -0.39090262      0.94184446      1.76149101
C       0.85645116      0.74200336      2.62585973
C       0.51753960      0.86150518      4.08351700
C       1.77579713      0.60604195      4.96578620
C       1.58389119      1.10296117      6.36614972
O       0.72352096      1.83945049      6.78712298
O       2.68088182      0.72504498      7.12829834
C       2.58307136      1.04595940      8.51823642
H      -0.90348948      1.03524108     -0.38892996
H       0.67909726      1.76376549     -0.04454124
H       0.36401540     -0.01042645     -0.00305110
H      -1.14866893      0.19635856      1.93583330
H      -0.80748674      1.91694992      2.08809460
H       1.26503174     -0.27384836      2.54988925
H       1.64096468      1.44238741      2.34986900
H       0.10280320      1.85813633      4.39925880
H      -0.21711635      0.14415823      4.40400530
H       2.04262416     -0.42093812      5.08951493
H       2.68653449      1.03657696      4.57144037
H       3.44603562      0.56852903      8.97730683
H       1.69624046      0.54981706      8.94325138
H       2.52051527      2.07568641      8.70837543
23
Frame 205  Energy = -425.5055796624 Hartree
C       0.00054542      0.96074875      0.27204250
C      -0.39107237      0.93969832      1.75747883
C       0.85438659      0.74230447      2.62687310
C       0.51740142      0.86383715      4.07994380
C       1.77711551      0.60547892      4.96834169
C       1.58580153      1.10147969      6.36797989
O       0.72214378      1.84118020      6.78959557
O       2.68188708      0.72526916      7.12707384
C       2.58330138      1.04633847      8.51835856
H      -0.90327155      1.02521143     -0.38780726
H       0.67502006      1.76847059     -0.04311674
H       0.35783735     -0.01946864     -0.00578097
H      -1.15821473      0.19409108      1.93267883
H      -0.81109393      1.91346111      2.10057915
H       1.27187947     -0.26354694      2.55068154
H       1.65020119      1.44054272      2.35740031
H       0.10795989      1.86726647      4.40464673
H      -0.21577119      0.13833157      4.39468784
H       2.04396581     -0.41986295      5.08490720
H       2.68634198      1.02964007      4.57110361
H       3.44699472      0.58105730      8.97311277
H       1.69442313      0.55922609      8.94322023
H       2.51802821      2.07935611      8.70793430
23
Frame 210  Energy = -425.5052358313 Hartree
C       0.00102152      0.96034218      0.27391823
C      -0.39097764      0.93789198      1.75335761
C       0.85204273      0.74247565      2.62799529
C       0.51761526      0.86648230      4.07664570
C       1.77818769      0.60501113      4.97085993
C       1.58815789      1.10020274      6.37000079
O       0.72075428      1.84280015      6.79211790
O       2.68275860      0.72549709      7.12579724
C       2.58339892      1.04627814      8.51849882
H      -0.90207440      1.01595315     -0.38527648
H       0.67127108      1.77237413     -0.04060928
H       0.35378951     -0.02950102     -0.00878158
H      -1.16746889      0.19100754      1.93018137
H      -0.81474188      1.90910989      2.11156206
H       1.27883416     -0.25379907      2.55026923
H       1.65935864      1.43936005      2.36462625
H       0.11401051      1.87418059      4.40838294
H      -0.21569463      0.13125514      4.38501610
H       2.04507425     -0.42192133      5.07930265
H       2.68677978      1.02452010      4.57024331
H       3.44902084      0.59407083      8.96969619
H       1.69267523      0.56897127      8.94285912
H       2.51580440      2.08666734      8.70762389
23
Frame 215  Energy = -425.5050110617 Hartree
C       0.00105035      0.95981119      0.27558590
C      -0.39069013      0.93621224      1.74923999
C       0.84956865      0.74262530      2.62900988
C       0.51805123      0.86938658      4.07381619
C       1.77898074      0.60459511      4.97332418
C       1.59083633      1.09911111      6.37226513
O       0.71935792      1.84430780      6.79469717
O       2.68349728      0.72577655      7.12452839
C       2.58332471      1.04584538      8.51855228
H      -0.89990089      1.00784050     -0.38146118
H       0.66758896      1.77559378     -0.03731412
H       0.35161919     -0.03982663     -0.01150048
H      -1.17664420      0.18720182      1.92785575
H      -0.81837728      1.90396009      2.12118292
H       1.28592421     -0.24453875      2.54824868
H       1.66798612      1.43848255      2.37106796
H       0.12118877      1.87890283      4.41034968
H      -0.21646654      0.12357052      4.37512993
H       2.04580355     -0.42696184      5.07306833
H       2.68814897      1.02122289      4.56846632
H       3.45234227      0.60735919      8.96732377
H       1.69081740      0.57868421      8.94241797
H       2.51364533      2.09682505      8.70718848
23
Frame 220  Energy = -425.5050613323 Hartree
C       0.00074847      0.95903599      0.27695159
C      -0.39031621      0.93484555      1.74512725
C       0.84710020      0.74274927      2.62995036
C       0.51864661      0.87253943      4.07143010
C       1.77940526      0.60423912      4.97562449
C       1.59374573      1.09830495      6.37468879
O       0.71808212      1.84567051      6.79727868
O       2.68412583      0.72611295      7.12323378
C       2.58306788      1.04524461      8.51848523
H      -0.89676293      1.00066087     -0.37640058
H       0.66403625      1.77799876     -0.03320715
H       0.35141767     -0.04959543     -0.01361996
H      -1.18494432      0.18316779      1.92586343
H      -0.82198709      1.89791346      2.12924566
H       1.29323120     -0.23635255      2.54474288
H       1.67564519      1.43756777      2.37678410
H       0.12927275      1.88119647      4.41071362
H      -0.21795149      0.11604402      4.36487042
H       2.04579913     -0.43478654      5.06649247
H       2.69040896      1.01984292      4.56605218
H       3.45737658      0.62024449      8.96611539
H       1.68892335      0.58848162      8.94198880
H       2.51191152      2.10881531      8.70670034
23
Frame 225  Energy = -425.5049326501 Hartree
C       0.00019025      0.95792462      0.27804084
C      -0.38982035      0.93370361      1.74117000
C       0.84461369      0.74292200      2.63077234
C       0.51943643      0.87583138      4.06947681
C       1.77951318      0.60397022      4.97784440
C       1.59680696      1.09779771      6.37732036
O       0.71703350      1.84679171      6.79982110
O       2.68462421      0.72648342      7.12191118
C       2.58270611      1.04455815      8.51831076
H      -0.89298281      0.99479593     -0.37048154
H       0.66094849      1.77949289     -0.02835475
H       0.35298966     -0.05835890     -0.01499151
H      -1.19173555      0.17895334      1.92395663
H      -0.82565327      1.89082574      2.13538985
H       1.30052664     -0.22948875      2.53998132
H       1.68199175      1.43662606      2.38156250
H       0.13816710      1.88114924      4.40960677
H      -0.22011234      0.10903819      4.35427686
H       2.04552427     -0.44483076      5.05970954
H       2.69394910      1.02008783      4.56302292
H       3.46396068      0.63276218      8.96603035
H       1.68667302      0.59810853      8.94197159
H       2.51070273      2.12127971      8.70590404
23
Frame 230  Energy = -425.5048525161 Hartree
C      -0.00067614      0.95659941      0.27891932
C      -0.38924785      0.93264570      1.73739523
C       0.84219258      0.74317724      2.63155880
C       0.52037818      0.87910813      4.06804984
C       1.77939826      0.60376816      4.97994462
C       1.59993383      1.09761160      6.38008270
O       0.71620514      1.84763892      6.80232425
O       2.68490540      0.72693617      7.12054975
C       2.58220548      1.04395878      8.51795857
H      -0.88935115      0.99025749     -0.36384108
H       0.65868366      1.78018148     -0.02298443
H       0.35651971     -0.06539727     -0.01548081
H      -1.19655093      0.17529596      1.92211118
H      -0.82920005      1.88251604      2.13970542
H       1.30799374     -0.22440800      2.53385413
H       1.68655363      1.43554693      2.38569533
H       0.14714985      1.87939114      4.40691086
H      -0.22267720      0.10276835      4.34349152
H       2.04504496     -0.45634309      5.05251273
H       2.69806029      1.02162201      4.55962479
H       3.47175833      0.64491642      8.96684207
H       1.68391524      0.60719950      8.94221568
H       2.50948925      2.13374752      8.70446042
23
Frame 235  Energy = -425.5047099042 Hartree
C      -0.00174439      0.95503679      0.27956437
C      -0.38861211      0.93179842      1.73383768
C       0.83990169      0.74348099      2.63230103
C       0.52140312      0.88236121      4.06719089
C       1.77913679      0.60352822      4.98184675
C       1.60311193      1.09779266      6.38301138
O       0.71559024      1.84820429      6.80474487
O       2.68502346      0.72733701      7.11926593
C       2.58165930      1.04344733      8.51758007
H      -0.88601244      0.98700975     -0.35674018
H       0.65706412      1.77972517     -0.01685825
H       0.36185986     -0.07036310     -0.01505869
H      -1.19888621      0.17238035      1.92006204
H      -0.83288781      1.87331333      2.14234282
H       1.31556090     -0.22111196      2.52630153
H       1.68917070      1.43447544      2.38932913
H       0.15616641      1.87593557      4.40270972
H      -0.22541807      0.09766278      4.33276982
H       2.04434771     -0.46838466      5.04519299
H       2.70238852      1.02436347      4.55629479
H       3.48041153      0.65647963      8.96820421
H       1.68083671      0.61592783      8.94247716
H       2.50850660      2.14532679      8.70199184
23
Frame 240  Energy = -425.5047758557 Hartree
C      -0.00296524      0.95308971      0.28006804
C      -0.38797289      0.93107036      1.73053792
C       0.83778320      0.74392040      2.63294642
C       0.52249673      0.88557065      4.06691251
C       1.77872865      0.60311860      4.98342312
C       1.60632714      1.09823215      6.38605600
O       0.71514472      1.84857067      6.80707752
O       2.68506807      0.72770316      7.11798874
C       2.58104397      1.04315684      8.51721628
H      -0.88343734      0.98522058     -0.34988212
H       0.65613568      1.77801724     -0.01021555
H       0.36870719     -0.07286291     -0.01361394
H      -1.19896349      0.17033437      1.91756130
H      -0.83667920      1.86370758      2.14289372
H       1.32294903     -0.21964566      2.51778278
H       1.68968513      1.43326042      2.39250232
H       0.16520634      1.87147451      4.39737487
H      -0.22787573      0.09423562      4.32234467
H       2.04300047     -0.47994026      5.03750248
H       2.70629938      1.02817742      4.55335427
H       3.48984185      0.66745772      8.97000557
H       1.67703886      0.62365141      8.94295691
H       2.50790176      2.15513943      8.69845524
23
Frame 245  Energy = -425.5046724742 Hartree
C      -0.00440470      0.95091217      0.28035729
C      -0.38741832      0.93037912      1.72755367
C       0.83593312      0.74430548      2.63350432
C       0.52367475      0.88865291      4.06712575
C       1.77823600      0.60260135      4.98471862
C       1.60944344      1.09897813      6.38926696
O       0.71493911      1.84866320      6.80927421
O       2.68500738      0.72813911      7.11674016
C       2.58044739      1.04318546      8.51687014
H      -0.88248082      0.98472978     -0.34347076
H       0.65571159      1.77550355     -0.00320021
H       0.37685201     -0.07279790     -0.01115066
H      -1.19677364      0.16875364      1.91487958
H      -0.84022356      1.85404943      2.14130472
H       1.32980318     -0.21970681      2.50834802
H       1.68845048      1.43190972      2.39516009
H       0.17373895      1.86673553      4.39097083
H      -0.22986998      0.09235837      4.31217267
H       2.04067815     -0.49038973      5.02984766
H       2.70918205      1.03269084      4.55091960
H       3.49948391      0.67800472      8.97226978
H       1.67289329      0.63015033      8.94378839
H       2.50756800      2.16253661      8.69406373
23
Frame 250  Energy = -425.5046547633 Hartree
C      -0.00607321      0.94847065      0.28056876
C      -0.38686475      0.92981096      1.72482892
C       0.83430637      0.74475526      2.63401175
C       0.52488213      0.89142721      4.06789103
C       1.77774944      0.60193605      4.98579267
C       1.61246016      1.10005377      6.39268466
O       0.71495470      1.84853350      6.81135936
O       2.68485673      0.72858797      7.11571288
C       2.57983817      1.04355161      8.51659825
H      -0.88316437      0.98558451     -0.33776836
H       0.65588828      1.77229424      0.00366737
H       0.38615592     -0.06970075     -0.00745880
H      -1.19195362      0.16798147      1.91225925
H      -0.84380445      1.84475132      2.13777035
H       1.33572618     -0.22120325      2.49815301
H       1.68560663      1.43065646      2.39728924
H       0.18146858      1.86209205      4.38383514
H      -0.23186329      0.09245174      4.30229018
H       2.03719187     -0.49899999      5.02202540
H       2.71112804      1.03788724      4.54910103
H       3.50884824      0.68797495      8.97468173
H       1.66885772      0.63560246      8.94498268
H       2.50755487      2.16738954      8.68865334
23
Frame 255  Energy = -425.5047530751 Hartree
C      -0.00785923      0.94574315      0.28056384
C      -0.38634062      0.92936693      1.72243647
C       0.83292227      0.74517531      2.63431481
C       0.52617484      0.89373051      4.06914056
C       1.77725999      0.60099476      4.98665821
C       1.61537558      1.10139380      6.39610019
O       0.71527374      1.84825088      6.81327901
O       2.68459319      0.72905703      7.11488022
C       2.57930176      1.04428457      8.51630726
H      -0.88554122      0.98764868     -0.33338057
H       0.65667333      1.76833292      0.01040106
H       0.39641164     -0.06405636     -0.00266881
H      -1.18446128      0.16789733      1.90912720
H      -0.84742571      1.83614194      2.13214921
H       1.34058133     -0.22354857      2.48744854
H       1.68071844      1.42957209      2.39877681
H       0.18795111      1.85904400      4.37628410
H      -0.23343198      0.09527107      4.29282140
H       2.03249505     -0.50543529      5.01421270
H       2.71235640      1.04340288      4.54790628
H       3.51735224      0.69755032      8.97695111
H       1.66507003      0.63994642      8.94627988
H       2.50802866      2.16915861      8.68230459
23
Frame 260  Energy = -425.5045557029 Hartree
C      -0.00968539      0.94276703      0.28034445
C      -0.38575372      0.92900978      1.72043850
C       0.83170151      0.74557929      2.63440013
C       0.52768475      0.89561938      4.07076381
C       1.77669673      0.59982504      4.98720887
C       1.61812571      1.10304441      6.39954730
O       0.71580518      1.84782323      6.81512422
O       2.68427559      0.72958612      7.11415869
C       2.57882432      1.04537949      8.51598500
H      -0.88980053      0.99099226     -0.33040311
H       0.65832914      1.76413457      0.01698987
H       0.40775375     -0.05627184      0.00314106
H      -1.17475084      0.16804023      1.90586165
H      -0.85141195      1.82830051      2.12506466
H       1.34406167     -0.22668197      2.47660633
H       1.67377116      1.42920425      2.39937308
H       0.19315959      1.85825076      4.36837124
H      -0.23459087      0.10067055      4.28431452
H       2.02664668     -0.50926133      5.00634707
H       2.71198322      1.04860024      4.54783697
H       3.52455395      0.70630803      8.97895129
H       1.66164531      0.64355297      8.94801806
H       2.50887820      2.16777317      8.67509671
23
Frame 265  Energy = -425.5045833341 Hartree
C      -0.01151617      0.93956518      0.27988987
C      -0.38522787      0.92876520      1.71874035
C       0.83076617      0.74586668      2.63430574
C       0.52931702      0.89706566      4.07276460
C       1.77607913      0.59846579      4.98746251
C       1.62070114      1.10515743      6.40294161
O       0.71653681      1.84715082      6.81693661
O       2.68396791      0.73012686      7.11350272
C       2.57844608      1.04682936      8.51568840
H      -0.89548007      0.99550736     -0.32864152
H       0.66085650      1.75955199      0.02349668
H       0.41986519     -0.04614227      0.00964544
H      -1.16351629      0.16785150      1.90270298
H      -0.85562575      1.82192718      2.11644692
H       1.34629334     -0.22967546      2.46573147
H       1.66530644      1.42937669      2.39917796
H       0.19637850      1.85991420      4.36055436
H      -0.23531143      0.10800201      4.27685732
H       2.01989271     -0.51026588      4.99867539
H       2.71018285      1.05333027      4.54889685
H       3.53025585      0.71473747      8.98037957
H       1.65895525      0.64624944      8.95026851
H       2.51031287      2.16340430      8.66698873
23
Frame 270  Energy = -425.5048303338 Hartree
C      -0.01330732      0.93615511      0.27927849
C      -0.38465315      0.92855867      1.71731709
C       0.83012429      0.74596384      2.63416380
C       0.53110257      0.89801309      4.07519547
C       1.77546132      0.59692028      4.98745389
C       1.62303938      1.10765681      6.40631767
O       0.71750109      1.84622347      6.81868216
O       2.68365006      0.73072708      7.11300517
C       2.57823397      1.04855469      8.51546748
H      -0.90239990      1.00089399     -0.32786111
H       0.66404538      1.75459303      0.03002800
H       0.43274137     -0.03466627      0.01646935
H      -1.15124754      0.16716579      1.90006817
H      -0.86042335      1.81749088      2.10659524
H       1.34693344     -0.23216360      2.45525724
H       1.65601698      1.43056119      2.39785406
H       0.19735592      1.86444351      4.35322267
H      -0.23574074      0.11738408      4.27081052
H       2.01234709     -0.50853997      4.99136713
H       2.70646747      1.05789792      4.55108383
H       3.53403183      0.72245656      8.98121348
H       1.65713365      0.64807425      8.95271252
H       2.51209684      2.15627082      8.65805599
23
Frame 275  Energy = -425.5049232278 Hartree
C      -0.01504462      0.93274581      0.27842261
C      -0.38398298      0.92822541      1.71623238
C       0.82977029      0.74585764      2.63381376
C       0.53296702      0.89853489      4.07793348
C       1.77485296      0.59528156      4.98727072
C       1.62507519      1.11041099      6.40966925
O       0.71882228      1.84505955      6.82034040
O       2.68335450      0.73123278      7.11275843
C       2.57814902      1.05052897      8.51531951
H      -0.91007987      1.00733571     -0.32800661
H       0.66768751      1.74950076      0.03662230
H       0.44679520     -0.02282118      0.02329785
H      -1.13854770      0.16543717      1.89792736
H      -0.86572167      1.81524348      2.09587317
H       1.34584225     -0.23349713      2.44502716
H       1.64607866      1.43266187      2.39533613
H       0.19660265      1.87173804      4.34630343
H      -0.23617187      0.12825594      4.26630617
H       2.00403547     -0.50451033      4.98466065
H       2.70096667      1.06225461      4.55428578
H       3.53549242      0.72964077      8.98143371
H       1.65603092      0.64901033      8.95481685
H       2.51439870      2.14728733      8.64877969
23
Frame 280  Energy = -425.5049988724 Hartree
C      -0.01670688      0.92944709      0.27740384
C      -0.38318255      0.92777345      1.71558839
C       0.82973022      0.74558372      2.63327672
C       0.53502711      0.89853322      4.08092063
C       1.77414665      0.59358339      4.98698432
C       1.62679822      1.11338451      6.41285515
O       0.72038853      1.84366976      6.82191907
O       2.68306997      0.73177879      7.11271183
C       2.57817092      1.05273291      8.51521416
H      -0.91810221      1.01434850     -0.32886060
H       0.67151113      1.74441763      0.04285877
H       0.46162863     -0.01127558      0.02987209
H      -1.12591555      0.16228733      1.89639839
H      -0.87163606      1.81525626      2.08410626
H       1.34288784     -0.23385838      2.43493585
H       1.63608501      1.43557471      2.39195168
H       0.19443185      1.88099323      4.33964637
H      -0.23693659      0.14037416      4.26343274
H       1.99520447     -0.49845500      4.97865602
H       2.69380940      1.06612845      4.55833525
H       3.53472709      0.73604733      8.98120245
H       1.65563252      0.64882882      8.95695035
H       2.51687816      2.13742666      8.63874684
23
Frame 285  Energy = -425.5052423018 Hartree
C      -0.01834955      0.92627379      0.27620844
C      -0.38219848      0.92729916      1.71520688
C       0.82996192      0.74510571      2.63249962
C       0.53722446      0.89819601      4.08411252
C       1.77326587      0.59175997      4.98647453
C       1.62815520      1.11649165      6.41583809
O       0.72223206      1.84211069      6.82347034
O       2.68278003      0.73230041      7.11290484
C       2.57841235      1.05512289      8.51510536
H      -0.92577661      1.02177151     -0.33029931
H       0.67536232      1.73943575      0.04869685
H       0.47708382     -0.00055860      0.03602629
H      -1.11397689      0.15779097      1.89521762
H      -0.87835660      1.81749804      2.07145576
H       1.33818259     -0.23343157      2.42509590
H       1.62638040      1.43994971      2.38763291
H       0.19112184      1.89174000      4.33319206
H      -0.23831140      0.15341072      4.26211282
H       1.98584887     -0.49086603      4.97332766
H       2.68546034      1.07001791      4.56324949
H       3.53217842      0.74167321      8.98055584
H       1.65649446      0.64780170      8.95916186
H       2.51923525      2.12768955      8.62836771
23
Frame 290  Energy = -425.5050289575 Hartree
C      -0.02011551      0.92331913      0.27494123
C      -0.38106611      0.92679018      1.71524431
C       0.83047823      0.74434946      2.63149821
C       0.53948828      0.89765813      4.08744112
C       1.77225541      0.58994945      4.98578223
C       1.62915966      1.11970369      6.41861048
O       0.72426437      1.84044881      6.82507565
O       2.68243467      0.73276174      7.11333685
C       2.57874669      1.05752143      8.51499511
H      -0.93302477      1.02919476     -0.33236127
H       0.67887335      1.73505641      0.05420452
H       0.49318847      0.00903308      0.04163793
H      -1.10283011      0.15170399      1.89454743
H      -0.88556576      1.82168147      2.05806946
H       1.33233864     -0.23235649      2.41587309
H       1.61702184      1.44600511      2.38232237
H       0.18704477      1.90320343      4.32693742
H      -0.24098358      0.16659803      4.26277305
H       1.97603166     -0.48271667      4.96889171
H       2.67606627      1.07354669      4.56869006
H       3.52759877      0.74668458      8.97939637
H       1.65877645      0.64606058      8.96135051
H       2.52129947      2.11908262      8.61810822
23
Frame 295  Energy = -425.5045930460 Hartree
C      -0.02196666      0.92055108      0.27362799
C      -0.37980859      0.92629082      1.71561784
C       0.83128498      0.74338927      2.63025822
C       0.54195655      0.89710798      4.09102709
C       1.77114006      0.58834491      4.98496532
C       1.62989807      1.12296137      6.42106893
O       0.72649874      1.83862304      6.82669809
O       2.68209489      0.73309027      7.11405077
C       2.57924877      1.05989748      8.51486461
H      -0.93944187      1.03665608     -0.33461659
H       0.68229197      1.73082520      0.05935234
H       0.50976801      0.01684060      0.04637575
H      -1.09272874      0.14390080      1.89445675
H      -0.89321663      1.82753224      2.04362185
H       1.32550747     -0.23048058      2.40698665
H       1.60806433      1.45361345      2.37597142
H       0.18266848      1.91473413      4.32078690
H      -0.24525630      0.17975370      4.26588313
H       1.96652186     -0.47462974      4.96520153
H       2.66623443      1.07691442      4.57444542
H       3.52157281      0.75079724      8.97824664
H       1.66218835      0.64399553      8.96359858
H       2.52264370      2.11334529      8.60814428
23
Frame 300  Energy = -425.5049062079 Hartree
C      -0.02383760      0.91799199      0.27225659
C      -0.37847668      0.92591262      1.71617548
C       0.83230845      0.74232970      2.62878692
C       0.54450174      0.89661541      4.09478205
C       1.76983463      0.58694997      4.98410246
C       1.63047279      1.12634770      6.42311009
O       0.72891932      1.83658730      6.82838235
O       2.68176709      0.73335287      7.11492805
C       2.57991089      1.06219075      8.51470532
H      -0.94443413      1.04394836     -0.33706691
H       0.68556193      1.72679133      0.06390306
H       0.52664344      0.02279202      0.04985592
H      -1.08399581      0.13432256      1.89533704
H      -0.90133740      1.83427047      2.02840531
H       1.31740185     -0.22841686      2.39830112
H       1.59999255      1.46241353      2.36868163
H       0.17838962      1.92536676      4.31479461
H      -0.25107447      0.19238081      4.27084991
H       1.95758575     -0.46763975      4.96201876
H       2.65637716      1.08034129      4.58004842
H       3.51482272      0.75424273      8.97706944
H       1.66690984      0.64141311      8.96582355
H       2.52306676      2.11090544      8.59836220
