23
Frame 5  Energy = -425.5054016479 Hartree
C      -0.00954589      1.04705524      0.21162109
C      -0.38507644      1.11196643      1.69181885
C       0.82522379      0.67135299      2.56406189
C       0.58329451      0.80971230      4.06770549
C       1.82107268      0.65199651      4.93216844
C       1.64671724      1.07101442      6.35665225
O       0.73540165      1.78765755      6.75026710
O       2.62921477      0.63204132      7.13666892
C       2.49056221      0.92078115      8.51537604
H      -0.77543028      1.52335559     -0.39249378
H       0.92464484      1.62096828      0.10331077
H       0.29532793      0.01139862     -0.14023778
H      -1.22806502      0.40394194      1.91312590
H      -0.64869540      2.16103246      1.89419595
H       0.97372787     -0.38052272      2.36244466
H       1.75363956      1.27222077      2.38113539
H       0.10169626      1.79991830      4.32161733
H      -0.19625271      0.11944225      4.45014026
H       2.23247943     -0.39429253      4.91944952
H       2.64920613      1.31410586      4.59947802
H       3.29534088      0.37853745      8.97678511
H       1.58302071      0.47401533      8.92304269
H       2.54719422      2.02195735      8.65889338
23
Frame 10  Energy = -425.5052169907 Hartree
C      -0.01034683      1.04570455      0.21339689
C      -0.38600792      1.11174464      1.69148410
C       0.82462009      0.67133330      2.56534349
C       0.58531933      0.81095906      4.06965255
C       1.81734327      0.65311064      4.93381409
C       1.64790025      1.06954158      6.35942580
O       0.73394271      1.78864938      6.74926872
O       2.62891014      0.63411074      7.13484013
C       2.49122508      0.92029402      8.51567403
H      -0.76913783      1.51797315     -0.39318626
H       0.91761775      1.62212905      0.10668231
H       0.29290245      0.00818952     -0.14632767
H      -1.21853931      0.39814105      1.91303709
H      -0.64909279      2.15376524      1.90348882
H       0.97262676     -0.38680153      2.34846863
H       1.75246225      1.27193477      2.39367980
H       0.09980874      1.78403834      4.32859443
H      -0.19380874      0.11755111      4.45374610
H       2.23173760     -0.40221648      4.90371543
H       2.65488162      1.30973039      4.59517826
H       3.29581308      0.37689990      8.97991214
H       1.58717995      0.47554025      8.92684873
H       2.54819366      2.03137749      8.65402395
23
Frame 15  Energy = -425.5051790857 Hartree
C      -0.01092367      1.04415223      0.21522877
C      -0.38677604      1.11129699      1.69113848
C       0.82392492      0.67145555      2.56685791
C       0.58697982      0.81232355      4.07174382
C       1.81388380      0.65403993      4.93530478
C       1.64872729      1.06824308      6.36217500
O       0.73257920      1.78948538      6.74826018
O       2.62872546      0.63616895      7.13303815
C       2.49185249      0.91993832      8.51608371
H      -0.76345474      1.51186784     -0.39527445
H       0.91024201      1.62409645      0.10907020
H       0.28856566      0.00762614     -0.15126699
H      -1.20822705      0.39443971      1.91288373
H      -0.65039925      2.14586243      1.91340325
H       0.97289570     -0.39319416      2.33392422
H       1.75004352      1.27055957      2.40451795
H       0.09926848      1.76758134      4.33473368
H      -0.19027462      0.11560590      4.45656101
H       2.23014570     -0.40767655      4.88773195
H       2.65949907      1.30442441      4.59050253
H       3.29815147      0.37571724      8.98385851
H       1.58975330      0.47796154      8.93005556
H       2.54888002      2.03874797      8.65010598
23
Frame 20  Energy = -425.5049667656 Hartree
C      -0.01121764      1.04239677      0.21711662
C      -0.38732529      1.11065687      1.69077953
C       0.82321194      0.67167662      2.56851796
C       0.58828660      0.81364179      4.07394088
C       1.81085869      0.65473851      4.93668688
C       1.64914679      1.06721038      6.36496028
O       0.73142266      1.79022735      6.74725165
O       2.62858716      0.63818387      7.13112397
C       2.49244169      0.91974722      8.51648319
H      -0.75892139      1.50492729     -0.39906957
H       0.90263614      1.62660313      0.11078201
H       0.28228174      0.00970459     -0.15498349
H      -1.19748506      0.39256788      1.91295335
H      -0.65241341      2.13802387      1.92385611
H       0.97424723     -0.39921773      2.31889281
H       1.74650862      1.26843288      2.41401802
H       0.09968598      1.75164790      4.34022777
H      -0.18593925      0.11361402      4.45824991
H       2.22729401     -0.41037854      4.87189468
H       2.66257982      1.29789909      4.58550130
H       3.30211553      0.37499103      8.98829440
H       1.59108902      0.48151736      8.93281384
H       2.54932497      2.04300958      8.64712546
23
Frame 25  Energy = -425.5048871110 Hartree
C      -0.01138895      1.04048415      0.21895758
C      -0.38764547      1.10978893      1.69046335
C       0.82242840      0.67190699      2.57021515
C       0.58931544      0.81486212      4.07623546
C       1.80822140      0.65530447      4.93805018
C       1.64915413      1.06645427      6.36774033
O       0.73042274      1.79097904      6.74615547
O       2.62843225      0.64008886      7.12933071
C       2.49318213      0.91982374      8.51685974
H      -0.75560440      1.49774183     -0.40458869
H       0.89555167      1.62974441      0.11182488
H       0.27430800      0.01394010     -0.15730374
H      -1.18674761      0.39196493      1.91317477
H      -0.65513103      2.13106109      1.93504751
H       0.97699955     -0.40398512      2.30394294
H       1.74207856      1.26569562      2.42146748
H       0.10082637      1.73690537      4.34504524
H      -0.18076919      0.11152725      4.45886633
H       2.22305945     -0.41034400      4.85658499
H       2.66401708      1.28994938      4.58046746
H       3.30770416      0.37512270      8.99291305
H       1.59123671      0.48620710      8.93543623
H       2.54947288      2.04422802      8.64477204
23
Frame 30  Energy = -425.5049436185 Hartree
C      -0.01141514      1.03837046      0.22076022
C      -0.38761816      1.10861951      1.69010937
C       0.82159370      0.67207875      2.57212265
C       0.59009564      0.81591154      4.07859475
C       1.80599328      0.65555065      4.93937857
C       1.64872858      1.06585939      6.37040987
O       0.72960022      1.79156668      6.74504735
O       2.62837494      0.64193494      7.12763689
C       2.49415819      0.92014429      8.51722416
H      -0.75344367      1.49075999     -0.41132474
H       0.88898181      1.63374588      0.11242702
H       0.26454353      0.02003150     -0.15847088
H      -1.17703961      0.39258942      1.91380527
H      -0.65896946      2.12504633      1.94681314
H       0.98101025     -0.40681584      2.28959956
H       1.73701442      1.26243991      2.42703648
H       0.10214988      1.72444049      4.34926540
H      -0.17478655      0.10915844      4.45827315
H       2.21712802     -0.40763947      4.84231245
H       2.66391730      1.28120361      4.57577931
H       3.31424435      0.37598277      8.99780528
H       1.58990335      0.49171390      8.93800026
H       2.54898101      2.04222561      8.64314818
23
Frame 35  Energy = -425.5047803409 Hartree
C      -0.01127231      1.03620257      0.22239782
C      -0.38724480      1.10720580      1.68984251
C       0.82066080      0.67206571      2.57409530
C       0.59073424      0.81676151      4.08100480
C       1.80419301      0.65554103      4.94058601
C       1.64789313      1.06553147      6.37299588
O       0.72897600      1.79205392      6.74395789
O       2.62836363      0.64361032      7.12612873
C       2.49525905      0.92079821      8.51756991
H      -0.75288440      1.48346978     -0.41904423
H       0.88346992      1.63845241      0.11253188
H       0.25349368      0.02728371     -0.15852177
H      -1.16880081      0.39385280      1.91483108
H      -0.66323928      2.11961019      1.95881770
H       0.98632565     -0.40768816      2.27615195
H       1.73183908      1.25868090      2.43103954
H       0.10316171      1.71513814      4.35335835
H      -0.16793231      0.10658247      4.45664477
H       2.20990183     -0.40211163      4.82895400
H       2.66243825      1.27180351      4.57109085
H       3.32131038      0.37834909      9.00251722
H       1.58729120      0.49783091      8.94034866
H       2.54813960      2.03700726      8.64239424
23
Frame 40  Energy = -425.5050266237 Hartree
C      -0.01092595      1.03404816      0.22394279
C      -0.38665213      1.10554892      1.68966095
C       0.81961407      0.67189090      2.57606018
C       0.59119246      0.81727460      4.08347422
C       1.80284327      0.65530253      4.94153061
C       1.64661569      1.06554277      6.37551249
O       0.72853670      1.79241112      6.74283265
O       2.62845013      0.64510505      7.12478447
C       2.49655207      0.92160364      8.51792567
H      -0.75348053      1.47612701     -0.42754998
H       0.87893507      1.64335643      0.11233780
H       0.24161393      0.03535478     -0.15747474
H      -1.16237755      0.39560214      1.91612292
H      -0.66836865      2.11493438      1.97112176
H       0.99214050     -0.40606110      2.26401636
H       1.72678980      1.25490868      2.43320821
H       0.10394080      1.70951465      4.35716336
H      -0.16048414      0.10337037      4.45377784
H       2.20143367     -0.39420818      4.81684269
H       2.65963521      1.26207702      4.56608801
H       3.32848460      0.38227155      9.00670699
H       1.58393500      0.50449018      8.94209371
H       2.54692914      2.02912131      8.64253242
23
Frame 45  Energy = -425.5051269349 Hartree
C      -0.01052218      1.03212631      0.22541197
C      -0.38570246      1.10372537      1.68967491
C       0.81847298      0.67158670      2.57794038
C       0.59147909      0.81748869      4.08592759
C       1.80193819      0.65484241      4.94225301
C       1.64474407      1.06590015      6.37777214
O       0.72822776      1.79268905      6.74166982
O       2.62857326      0.64656078      7.12361246
C       2.49795305      0.92244532      8.51846364
H      -0.75523579      1.46900947     -0.43677467
H       0.87543312      1.64871942      0.11169135
H       0.22971485      0.04344392     -0.15540017
H      -1.15792457      0.39725584      1.91762786
H      -0.67445979      2.11117994      1.98332897
H       0.99865050     -0.40211906      2.25347658
H       1.72198767      1.25161174      2.43354054
H       0.10415797      1.70838475      4.36071175
H      -0.15300091      0.09914114      4.45000141
H       2.19221829     -0.38453705      4.80597294
H       2.65589867      1.25227929      4.56115330
H       3.33535402      0.38732185      9.01019303
H       1.57989205      0.51169704      8.94307942
H       2.54540334      2.01916557      8.64376974
23
Frame 50  Energy = -425.5053043905 Hartree
C      -0.01013839      1.03049629      0.22681052
C      -0.38430920      1.10183480      1.68988648
C       0.81725598      0.67115370      2.57977433
C       0.59157256      0.81732143      4.08829200
C       1.80148327      0.65429409      4.94280333
C       1.64246657      1.06648222      6.37971562
O       0.72801108      1.79289545      6.74049468
O       2.62876070      0.64795767      7.12260978
C       2.49951728      0.92328069      8.51904261
H      -0.75787718      1.46192753     -0.44581166
H       0.87287174      1.65418485      0.11042450
H       0.21792890      0.05062827     -0.15275207
H      -1.15564842      0.39810328      1.91964912
H      -0.68146559      2.10806969      1.99543428
H       1.00592899     -0.39574003      2.24447782
H       1.71777123      1.24868859      2.43170978
H       0.10326933      1.71212227      4.36416183
H      -0.14576340      0.09415766      4.44576506
H       2.18269308     -0.37381738      4.79636855
H       2.65145155      1.24268665      4.55623070
H       3.34170323      0.39378020      9.01325477
H       1.57561844      0.51931091      8.94336310
H       2.54376539      2.00808876      8.64594065
23
Frame 55  Energy = -425.5048865563 Hartree
C      -0.00977009      1.02908440      0.22814701
C      -0.38262520      1.10001528      1.69024442
C       0.81593456      0.67055374      2.58146894
C       0.59148777      0.81694214      4.09064267
C       1.80133717      0.65366223      4.94332309
C       1.63985653      1.06719107      6.38126245
O       0.72791023      1.79297847      6.73932957
O       2.62904928      0.64925141      7.12176911
C       2.50113176      0.92396726      8.51975579
H      -0.76118146      1.45446744     -0.45482925
H       0.87097449      1.65996571      0.10825882
H       0.20662658      0.05605761     -0.15004736
H      -1.15628940      0.39831163      1.92243997
H      -0.68917742      2.10545102      2.00711939
H       1.01352994     -0.38721442      2.23672782
H       1.71476851      1.24645007      2.42812414
H       0.10158239      1.72014390      4.36738894
H      -0.13881499      0.08816236      4.44138678
H       2.17316952     -0.36299631      4.78799952
H       2.64652321      1.23351868      4.55129248
H       3.34746911      0.40174965      9.01504171
H       1.57125392      0.52748603      8.94310266
H       2.54248699      1.99645837      8.64890598
23
Frame 60  Energy = -425.5045799541 Hartree
C      -0.00944870      1.02799547      0.22937886
C      -0.38068956      1.09829361      1.69070809
C       0.81446511      0.66989150      2.58312261
C       0.59104128      0.81635045      4.09299689
C       1.80145948      0.65291352      4.94371643
C       1.63694656      1.06811623      6.38248249
O       0.72789092      1.79299269      6.73821647
O       2.62945478      0.65049763      7.12106064
C       2.50286303      0.92453456      8.52056339
H      -0.76493600      1.44681015     -0.46365194
H       0.86985898      1.66592393      0.10514960
H       0.19594494      0.05880531     -0.14709195
H      -1.15959118      0.39730204      1.92562309
H      -0.69765444      2.10312620      2.01803910
H       1.02177725     -0.37685408      2.23087850
H       1.71300166      1.24504682      2.42310408
H       0.09923875      1.73150179      4.37002608
H      -0.13226337      0.08114961      4.43653417
H       2.16390025     -0.35300770      4.78100416
H       2.64152762      1.22542049      4.54613570
H       3.35246554      0.41091296      9.01591865
H       1.56661528      0.53609392      8.94217420
H       2.54141906      1.98527138      8.65288279
23
Frame 65  Energy = -425.5042805834 Hartree
C      -0.00923111      1.02734503      0.23048212
C      -0.37854826      1.09661177      1.69136507
C       0.81286719      0.66912570      2.58490185
C       0.59029471      0.81562425      4.09539895
C       1.80186004      0.65210299      4.94397461
C       1.63371839      1.06928994      6.38328648
O       0.72789411      1.79300771      6.73717076
O       2.63002508      0.65170443      7.12061682
C       2.50465403      0.92494887      8.52136737
H      -0.76877839      1.43899729     -0.47172487
H       0.86921916      1.67177362      0.10120477
H       0.18608403      0.05837115     -0.14415286
H      -1.16503618      0.39564037      1.92923633
H      -0.70653929      2.10036384      2.02808626
H       1.03053986     -0.36543883      2.22705801
H       1.71244296      1.24490294      2.41611950
H       0.09666241      1.74534066      4.37221779
H      -0.12634441      0.07303955      4.43113173
H       2.15485209     -0.34481200      4.77554669
H       2.63662731      1.21874471      4.54072246
H       3.35633877      0.42078810      9.01593782
H       1.56230016      0.54491995      8.94090371
H       2.54050249      1.97605979      8.65797207
23
Frame 70  Energy = -425.5043271619 Hartree
C      -0.00915165      1.02715051      0.23142679
C      -0.37621769      1.09498330      1.69227906
C       0.81122567      0.66829174      2.58671209
C       0.58922788      0.81474824      4.09773621
C       1.80245036      0.65133700      4.94408776
C       1.63019090      1.07062668      6.38370370
O       0.72794145      1.79297984      6.73625265
O       2.63074516      0.65275054      7.12033160
C       2.50649502      0.92511045      8.52211989
H      -0.77246611      1.43116479     -0.47824305
H       0.86913063      1.67705512      0.09646009
H       0.17758301      0.05454523     -0.14139637
H      -1.17229839      0.39349207      1.93306976
H      -0.71543698      2.09686720      2.03712078
H       1.03934882     -0.35326879      2.22507300
H       1.71264150      1.24614866      2.40739082
H       0.09416311      1.76054795      4.37367402
H      -0.12159730      0.06396798      4.42563582
H       2.14671670     -0.33948657      4.77149464
H       2.63246903      1.21348882      4.53506977
H       3.35940950      0.43121873      9.01501062
H       1.55812097      0.55342018      8.93905451
H       2.53988849      1.96972846      8.66405897
23
Frame 75  Energy = -425.5043782264 Hartree
C      -0.00908272      1.02745175      0.23221065
C      -0.37382315      1.09343189      1.69351915
C       0.80962870      0.66742012      2.58844484
C       0.58783455      0.81385688      4.09995013
C       1.80319947      0.65058492      4.94409264
C       1.62660678      1.07193087      6.38375232
O       0.72792692      1.79299464      6.73547413
O       2.63157957      0.65368871      7.12025938
C       2.50839113      0.92500395      8.52289151
H      -0.77632629      1.42317393     -0.48280222
H       0.86924778      1.68152043      0.09120018
H       0.17054975      0.04737131     -0.13892487
H      -1.18064624      0.39130758      1.93667849
H      -0.72417237      2.09238177      2.04474412
H       1.04838796     -0.34088373      2.22461028
H       1.71337082      1.24859293      2.39689948
H       0.09242917      1.77593451      4.37418638
H      -0.11841452      0.05403921      4.42047931
H       2.13970237     -0.33768555      4.76933220
H       2.62952117      1.20989398      4.52908191
H       3.36189891      0.44185310      9.01323299
H       1.55430604      0.56214951      8.93671660
H       2.53941991      1.96660031      8.67086566
23
Frame 80  Energy = -425.5046974535 Hartree
C      -0.00908550      1.02809318      0.23288219
C      -0.37145570      1.09191589      1.69509568
C       0.80815150      0.66661903      2.59007946
C       0.58608607      0.81296131      4.10202691
C       1.80400548      0.64987822      4.94392882
C       1.62310513      1.07323634      6.38339583
O       0.72785606      1.79302972      6.73485463
O       2.63263085      0.65457812      7.12043176
C       2.51019805      0.92465952      8.52369583
H      -0.77985088      1.41524153     -0.48536513
H       0.86960317      1.68515519      0.08533321
H       0.16513405      0.03727215     -0.13650446
H      -1.18994449      0.38928991      1.93987022
H      -0.73235509      2.08684573      2.05116568
H       1.05794421     -0.32920081      2.22532281
H       1.71443514      1.25166763      2.38492453
H       0.09144995      1.79045158      4.37371523
H      -0.11675125      0.04404742      4.41575950
H       2.13425617     -0.33939633      4.76943515
H       2.62782587      1.20812480      4.52298316
H       3.36411953      0.45229148      9.01118944
H       1.55114195      0.57067726      8.93400540
H       2.53904391      1.96703886      8.67826823
23
Frame 85  Energy = -425.5049718152 Hartree
C      -0.00916954      1.02909040      0.23344735
C      -0.36927490      1.09026876      1.69704360
C       0.80673374      0.66605348      2.59166027
C       0.58402885      0.81216537      4.10401097
C       1.80469474      0.64927073      4.94369303
C       1.61967198      1.07447917      6.38262901
O       0.72766580      1.79308259      6.73434663
O       2.63378555      0.65535864      7.12076797
C       2.51205803      0.92414014      8.52444637
H      -0.78314664      1.40768052     -0.48599557
H       0.87004713      1.68777833      0.07898424
H       0.16157794      0.02500940     -0.13380569
H      -1.19956235      0.38753231      1.94211901
H      -0.73987117      2.08092657      2.05618740
H       1.06796728     -0.31877091      2.22766031
H       1.71522665      1.25520527      2.37204817
H       0.09205787      1.80288656      4.37197083
H      -0.11626102      0.03446107      4.41126252
H       2.13029854     -0.34498170      4.77132975
H       2.62721455      1.20845454      4.51673020
H       3.36625301      0.46223446      9.00905953
H       1.54869447      0.57824229      8.93052169
H       2.53898976      1.97104123      8.68651510
23
Frame 90  Energy = -425.5051022368 Hartree
C      -0.00927307      1.03028649      0.23375560
C      -0.36734262      1.08853789      1.69924269
C       0.80530855      0.66575079      2.59315144
C       0.58166461      0.81154482      4.10592715
C       1.80534996      0.64865259      4.94337450
C       1.61631157      1.07567061      6.38149188
O       0.72733390      1.79326138      6.73397889
O       2.63498931      0.65606669      7.12122118
C       2.51392605      0.92351898      8.52520942
H      -0.78593098      1.40016915     -0.48443996
H       0.87033442      1.68942810      0.07203223
H       0.15926337      0.01173147     -0.13064166
H      -1.20868057      0.38659858      1.94354499
H      -0.74646164      2.07430825      2.05956029
H       1.07830978     -0.31067586      2.23161370
H       1.71548339      1.25927797      2.35813765
H       0.09413020      1.81258578      4.36892219
H      -0.11694428      0.02516925      4.40695252
H       2.12804406     -0.35380628      4.77466468
H       2.62752181      1.21051882      4.51064190
H       3.36841814      0.47144927      9.00716142
H       1.54713274      0.58477927      8.92664544
H       2.53897792      1.97804959      8.69545981
23
Frame 95  Energy = -425.5050954438 Hartree
C      -0.00919745      1.03159065      0.23383083
C      -0.36560453      1.08673328      1.70162308
C       0.80401918      0.66579775      2.59458376
C       0.57899452      0.81108817      4.10771936
C       1.80610921      0.64805835      4.94300844
C       1.61317434      1.07673879      6.38001147
O       0.72689736      1.79357426      6.73377261
O       2.63623556      0.65671946      7.12177375
C       2.51568987      0.92291315      8.52596358
H      -0.78828453      1.39265286     -0.48075673
H       0.87021251      1.68994316      0.06478228
H       0.15833924     -0.00184015     -0.12665051
H      -1.21663594      0.38635132      1.94411653
H      -0.75202955      2.06734454      2.06113532
H       1.08909682     -0.30482830      2.23651627
H       1.71448255      1.26359655      2.34383917
H       0.09755015      1.81917031      4.36439673
H      -0.11863081      0.01638615      4.40293892
H       2.12672857     -0.36588547      4.77933657
H       2.62862980      1.21388024      4.50478587
H       3.37148006      0.47962990      9.00575442
H       1.54642450      0.59066597      8.92227031
H       2.53930030      1.98758921      8.70474785
23
Frame 100  Energy = -425.5051507441 Hartree
C      -0.00910642      1.03301765      0.23382206
C      -0.36400486      1.08476460      1.70422945
C       0.80291716      0.66613420      2.59598628
C       0.57596074      0.81081004      4.10934733
C       1.80686666      0.64758008      4.94262322
C       1.61033389      1.07764681      6.37819815
O       0.72630525      1.79405559      6.73361617
O       2.63750680      0.65726079      7.12233788
C       2.51730304      0.92244167      8.52674774
H      -0.79028280      1.38515731     -0.47501163
H       0.86971178      1.68908853      0.05750650
H       0.15882268     -0.01450153     -0.12183235
H      -1.22345094      0.38730196      1.94400565
H      -0.75666728      2.06003465      2.06131184
H       1.10016045     -0.30183493      2.24256220
H       1.71233110      1.26819908      2.32949242
H       0.10198666      1.82275403      4.35848228
H      -0.12107804      0.00796712      4.39941771
H       2.12630797     -0.38024869      4.78576333
H       2.63046496      1.21824300      4.49924372
H       3.37527970      0.48638397      9.00467673
H       1.54631586      0.59572586      8.91804476
H       2.53988436      1.99873426      8.71403259
23
Frame 105  Energy = -425.5052592248 Hartree
C      -0.00902095      1.03450921      0.23368218
C      -0.36265726      1.08262666      1.70712347
C       0.80198392      0.66678523      2.59726676
C       0.57254541      0.81065224      4.11089032
C       1.80771208      0.64712417      4.94210514
C       1.60773949      1.07850131      6.37612611
O       0.72556988      1.79464241      6.73358612
O       2.63884131      0.65779219      7.12301960
C       2.51882797      0.92212060      8.52733949
H      -0.79186725      1.37831955     -0.46753670
H       0.86864237      1.68652470      0.05015026
H       0.16070253     -0.02536402     -0.11630410
H      -1.22849897      0.38928888      1.94309516
H      -0.76027599      2.05280749      2.06015243
H       1.11158282     -0.30191337      2.24925251
H       1.70890127      1.27314444      2.31543767
H       0.10752087      1.82307708      4.35133482
H      -0.12436351      0.00044684      4.39632154
H       2.12693445     -0.39535320      4.79393497
H       2.63298177      1.22311339      4.49435265
H       3.37930415      0.49154922      9.00426592
H       1.54703660      0.59990447      8.91393325
H       2.54083609      2.01068178      8.72315904
23
Frame 110  Energy = -425.5050783083 Hartree
C      -0.00896173      1.03583011      0.23338070
C      -0.36159675      1.08030607      1.71031321
C       0.80133875      0.66783574      2.59842236
C       0.56883995      0.81066826      4.11234865
C       1.80870289      0.64647704      4.94141542
C       1.60543745      1.07926738      6.37373208
O       0.72468951      1.79534964      6.73372585
O       2.64020913      0.65828450      7.12379596
C       2.52021465      0.92203603      8.52781834
H      -0.79373345      1.37174326     -0.45872490
H       0.86728161      1.68270809      0.04260716
H       0.16404275     -0.03384887     -0.10942507
H      -1.23168298      0.39196952      1.94103715
H      -0.76278791      2.04633965      2.05789976
H       1.12352767     -0.30468516      2.25679825
H       1.70393996      1.27792075      2.30215694
H       0.11422268      1.82024005      4.34281619
H      -0.12843440     -0.00562769      4.39362300
H       2.12819850     -0.41020449      4.80396074
H       2.63543406      1.22842557      4.49026361
H       3.38388629      0.49510475      9.00449454
H       1.54835684      0.60296681      8.91033255
H       2.54195034      2.02219038      8.73166635
23
Frame 115  Energy = -425.5053629826 Hartree
C      -0.00886275      1.03695137      0.23290874
C      -0.36074636      1.07787755      1.71369892
C       0.80096102      0.66916874      2.59956489
C       0.56491652      0.81084541      4.11367122
C       1.80974685      0.64563585      4.94047755
C       1.60344449      1.07996218      6.37113219
O       0.72359207      1.79623794      6.73395772
O       2.64153959      0.65881159      7.12470918
C       2.52149455      0.92231097      8.52821968
H      -0.79581194      1.36569964     -0.44874316
H       0.86576476      1.67762145      0.03493755
H       0.16855604     -0.03963201     -0.10122264
H      -1.23328958      0.39527515      1.93801056
H      -0.76457405      2.04022680      2.05471099
H       1.13566572     -0.30977639      2.26524747
H       1.69723256      1.28255964      2.28981058
H       0.12132996      1.81462575      4.33362164
H      -0.13308357     -0.00992737      4.39166279
H       2.12967045     -0.42347251      4.81564467
H       2.63768243      1.23392812      4.48717214
H       3.38903126      0.49734400      9.00514244
H       1.55042858      0.60468066      8.90683735
H       2.54320909      2.03228108      8.73939074
23
Frame 120  Energy = -425.5054406165 Hartree
C      -0.00884523      1.03788941      0.23234778
C      -0.36015022      1.07534280      1.71716895
C       0.80086825      0.67076502      2.60062953
C       0.56081476      0.81102051      4.11490110
C       1.81101873      0.64467510      4.93930728
C       1.60192321      1.08045097      6.36834976
O       0.72234345      1.79725142      6.73426764
O       2.64275336      0.65926731      7.12576549
C       2.52267003      0.92309318      8.52864050
H      -0.79843145      1.36049195     -0.43814939
H       0.86426029      1.67133012      0.02708778
H       0.17408152     -0.04236941     -0.09194884
H      -1.23300379      0.39888650      1.93400896
H      -0.76554781      2.03472155      2.05078665
H       1.14741224     -0.31681320      2.27457104
H       1.68845117      1.28721809      2.27871600
H       0.12838667      1.80673138      4.32425835
H      -0.13793698     -0.01201553      4.39035440
H       2.13124242     -0.43478218      4.82903048
H       2.63933589      1.23947695      4.48561437
H       3.39393231      0.49803975      9.00669868
H       1.55299506      0.60476844      8.90359239
H       2.54444828      2.04033175      8.74624701
23
Frame 125  Energy = -425.5056916981 Hartree
C      -0.00885272      1.03858111      0.23185828
C      -0.35986032      1.07268566      1.72063593
C       0.80101549      0.67259297      2.60153122
C       0.55657741      0.81108011      4.11595553
C       1.81244997      0.64352959      4.93790757
C       1.60081064      1.08069963      6.36534959
O       0.72098108      1.79836216      6.73470149
O       2.64387884      0.65977146      7.12691194
C       2.52387827      0.92435594      8.52894987
H      -0.80170449      1.35583632     -0.42757175
H       0.86295297      1.66399251      0.01898598
H       0.18026626     -0.04211056     -0.08160321
H      -1.23129975      0.40281260      1.92947717
H      -0.76603612      2.03026109      2.04656472
H       1.15836992     -0.32487485      2.28458889
H       1.67809935      1.29162956      2.26895049
H       0.13502150      1.79764476      4.31542831
H      -0.14320120     -0.01251764      4.38916590
H       2.13267004     -0.44364072      4.84395767
H       2.64018392      1.24460071      4.48564640
H       3.39895044      0.49767256      9.00904059
H       1.55556410      0.60356952      8.90065839
H       2.54600736      2.04585823      8.75205611
23
Frame 130  Energy = -425.5057134661 Hartree
C      -0.00883766      1.03894168      0.23142018
C      -0.35981456      1.06976128      1.72406201
C       0.80145878      0.67458839      2.60234876
C       0.55236107      0.81096370      4.11672780
C       1.81404303      0.64208233      4.93641605
C       1.60010735      1.08089271      6.36218594
O       0.71948239      1.79962968      6.73525125
O       2.64496587      0.66036965      7.12819857
C       2.52513885      0.92606373      8.52924071
H      -0.80651435      1.35220029     -0.41759073
H       0.86209895      1.65619251      0.01060473
H       0.18697802     -0.03851674     -0.06998059
H      -1.22854217      0.40689103      1.92448882
H      -0.76589588      2.02694169      2.04185887
H       1.16866454     -0.33345452      2.29536178
H       1.66655065      1.29602625      2.26035981
H       0.14036193      1.78837747      4.30704388
H      -0.14881525     -0.01132601      4.38797526
H       2.13383792     -0.44931268      4.85990845
H       2.64063112      1.24898564      4.48710986
H       3.40364299      0.49623310      9.01169486
H       1.55809187      0.60108209      8.89833970
H       2.54773628      2.04805626      8.75636124
23
Frame 135  Energy = -425.5057785025 Hartree
C      -0.00867804      1.03899296      0.23109863
C      -0.35993344      1.06670118      1.72737530
C       0.80223916      0.67661112      2.60302537
C       0.54815685      0.81069852      4.11730368
C       1.81570037      0.64046637      4.93479906
C       1.59976371      1.08108778      6.35898260
O       0.71784584      1.80096917      6.73587407
O       2.64597093      0.66106964      7.12951063
C       2.52641426      0.92823962      8.52948529
H      -0.81296463      1.34960596     -0.40816202
H       0.86183632      1.64795522      0.00229360
H       0.19398034     -0.03200774     -0.05747789
H      -1.22482205      0.41081403      1.91920229
H      -0.76521261      2.02482060      2.03682363
H       1.17761576     -0.34137621      2.30733944
H       1.65415280      1.30083418      2.25333125
H       0.14424972      1.77989873      4.29943186
H      -0.15428011     -0.00818348      4.38701009
H       2.13468538     -0.45136124      4.87690648
H       2.64011916      1.25291537      4.48963031
H       3.40774358      0.49396373      9.01449981
H       1.56053231      0.59696629      8.89663454
H       2.54965241      2.04687001      8.75958344
23
Frame 140  Energy = -425.5055713043 Hartree
C      -0.00846792      1.03863411      0.23104694
C      -0.36016167      1.06344811      1.73050952
C       0.80344387      0.67858081      2.60355432
C       0.54412426      0.81015166      4.11762011
C       1.81739897      0.63864024      4.93299992
C       1.59971163      1.08127868      6.35576899
O       0.71609883      1.80234595      6.73651413
O       2.64691485      0.66174893      7.13085491
C       2.52768131      0.93089593      8.52971853
H      -0.82089589      1.34813137     -0.39949110
H       0.86226400      1.64004949     -0.00605734
H       0.20133812     -0.02340164     -0.04473980
H      -1.22044589      0.41389323      1.91353230
H      -0.76412169      2.02441041      2.03149821
H       1.18499505     -0.34819961      2.32089551
H       1.64143059      1.30604393      2.24774852
H       0.14652850      1.77270342      4.29255100
H      -0.15986600     -0.00297622      4.38648589
H       2.13530211     -0.45000774      4.89472384
H       2.63857235      1.25615380      4.49349303
H       3.41078971      0.49105812      9.01729708
H       1.56253425      0.59150494      8.89540932
H       2.55160876      2.04277176      8.76167840
23
Frame 145  Energy = -425.5058905972 Hartree
C      -0.00830715      1.03800842      0.23111032
C      -0.36054172      1.06021888      1.73351898
C       0.80493866      0.68048102      2.60395384
C       0.54036048      0.80933711      4.11766704
C       1.81918559      0.63661986      4.93107189
C       1.59988636      1.08149597      6.35255204
O       0.71435455      1.80372713      6.73723141
O       2.64778325      0.66251703      7.13210465
C       2.52899527      0.93388929      8.52991816
H      -0.83025766      1.34735738     -0.39150839
H       0.86339351      1.63267930     -0.01453408
H       0.20905608     -0.01325819     -0.03164474
H      -1.21605048      0.41597279      1.90765948
H      -0.76230630      2.02578384      2.02630746
H       1.19105603     -0.35326814      2.33557885
H       1.62860761      1.31175359      2.24371611
H       0.14690979      1.76800825      4.28686014
H      -0.16570554      0.00401700      4.38659314
H       2.13569549     -0.44589402      4.91285731
H       2.63608886      1.25869374      4.49870040
H       3.41257957      0.48779455      9.01996809
H       1.56454606      0.58496223      8.89492672
H       2.55349813      2.03599619      8.76245567
23
Frame 150  Energy = -425.5057952479 Hartree
C      -0.00807716      1.03724956      0.23144936
C      -0.36105797      1.05708052      1.73629475
C       0.80667178      0.68221336      2.60432035
C       0.53688269      0.80820779      4.11743263
C       1.82091165      0.63441792      4.92910719
C       1.60036283      1.08178592      6.34935374
O       0.71257261      1.80513239      6.73801945
O       2.64853676      0.66333115      7.13324207
C       2.53037400      0.93712945      8.53005596
H      -0.84043506      1.34714566     -0.38458965
H       0.86508759      1.62601624     -0.02317841
H       0.21692626     -0.00238917     -0.01882117
H      -1.21226038      0.41670373      1.90178006
H      -0.75989105      2.02868735      2.02122714
H       1.19537637     -0.35687093      2.35131565
H       1.61613216      1.31815638      2.24107989
H       0.14505432      1.76656924      4.28275051
H      -0.17147594      0.01224817      4.38690270
H       2.13628063     -0.43937677      4.93087584
H       2.63299715      1.26061342      4.50485125
H       3.41279140      0.48436937      9.02192402
H       1.56705821      0.57760057      8.89536585
H       2.55547413      2.02719577      8.76197445
23
Frame 155  Energy = -425.5054759235 Hartree
C      -0.00778050      1.03626794      0.23195080
C      -0.36169359      1.05403224      1.73884409
C       0.80861480      0.68374657      2.60472826
C       0.53374171      0.80671548      4.11687186
C       1.82260273      0.63212591      4.92712902
C       1.60118133      1.08226700      6.34616653
O       0.71075179      1.80653756      6.73879588
O       2.64918056      0.66418820      7.13439613
C       2.53180146      0.94056904      8.53021948
H      -0.85143043      1.34720523     -0.37810675
H       0.86732541      1.61993519     -0.03176257
H       0.22505073      0.00838826     -0.00669239
H      -1.20891349      0.41560777      1.89606440
H      -0.75668401      2.03318444      2.01620038
H       1.19817793     -0.35869535      2.36797771
H       1.60471121      1.32555391      2.23960227
H       0.14104583      1.76846680      4.28048208
H      -0.17826635      0.02157139      4.38740539
H       2.13702060     -0.43093327      4.94855320
H       2.62956492      1.26159344      4.51115937
H       3.41148551      0.48077961      9.02334211
H       1.56998776      0.56928315      8.89637503
H       2.55787838      2.01701496      8.76044742
23
Frame 160  Energy = -425.5053894889 Hartree
C      -0.00748956      1.03511850      0.23266154
C      -0.36236609      1.05114854      1.74114297
C       0.81069914      0.68499864      2.60513312
C       0.53094768      0.80490310      4.11603246
C       1.82412366      0.62978565      4.92515566
C       1.60219368      1.08288989      6.34309819
O       0.70889998      1.80786598      6.73960999
O       2.64971707      0.66505805      7.13546409
C       2.53323121      0.94395302      8.53048438
H      -0.86276587      1.34769065     -0.37189337
H       0.87020658      1.61486969     -0.04021248
H       0.23375275      0.01771195      0.00452092
H      -1.20676075      0.41261113      1.89071113
H      -0.75313424      2.03839012      2.01103908
H       1.19909660     -0.35867789      2.38496875
H       1.59471115      1.33428934      2.23935418
H       0.13527457      1.77353291      4.28008450
H      -0.18591081      0.03155862      4.38825027
H       2.13811152     -0.42109449      4.96576655
H       2.62612021      1.26171378      4.51744998
H       3.40845766      0.47715220      9.02407652
H       1.57346768      0.56031244      8.89788580
H       2.56040728      2.00613086      8.75793253
23
Frame 165  Energy = -425.5053186983 Hartree
C      -0.00720924      1.03394857      0.23362359
C      -0.36302450      1.04830807      1.74320523
C       0.81284973      0.68593769      2.60562924
C       0.52845188      0.80294574      4.11485799
C       1.82544122      0.62734613      4.92313609
C       1.60339745      1.08364202      6.34030455
O       0.70717962      1.80905406      6.74039215
O       2.65013199      0.66595212      7.13643281
C       2.53467765      0.94730214      8.53076266
H      -0.87364698      1.34835994     -0.36571663
H       0.87315040      1.61103332     -0.04821632
H       0.24281575      0.02425063      0.01442493
H      -1.20612321      0.40761333      1.88602168
H      -0.74912471      2.04379726      2.00627224
H       1.19872767     -0.35654626      2.40225328
H       1.58661073      1.34409607      2.24013888
H       0.12793966      1.78155929      4.28094741
H      -0.19453302      0.04156890      4.38989118
H       2.13957735     -0.41091184      4.98251953
H       2.62256448      1.26109857      4.52368267
H       3.40413107      0.47328121      9.02362671
H       1.57776682      0.55082177      8.89961860
H       2.56299665      1.99606669      8.75501983
23
Frame 170  Energy = -425.5052653808 Hartree
C      -0.00696394      1.03292481      0.23482272
C      -0.36373307      1.04563941      1.74498631
C       0.81506526      0.68658558      2.60620566
C       0.52625353      0.80100725      4.11337433
C       1.82646858      0.62501980      4.92126797
C       1.60467822      1.08448928      6.33778579
O       0.70553519      1.81007339      6.74114006
O       2.65037216      0.66682121      7.13732679
C       2.53605806      0.95045944      8.53095725
H      -0.88404928      1.34869360     -0.35941017
H       0.87570651      1.60835194     -0.05533583
H       0.25241519      0.02749875      0.02273386
H      -1.20708399      0.40052046      1.88162955
H      -0.74436294      2.04899602      2.00164173
H       1.19676757     -0.35236375      2.41969131
H       1.58027971      1.35515141      2.24178464
H       0.11977185      1.79179513      4.28299182
H      -0.20379692      0.05142372      4.39231215
H       2.14180983     -0.40118373      4.99842134
H       2.61934142      1.25981248      4.52930286
H       3.39884899      0.46943843      9.02228701
H       1.58301377      0.54129858      8.90135462
H       2.56551420      1.98786872      8.75179700
23
Frame 175  Energy = -425.5053355017 Hartree
C      -0.00683151      1.03200016      0.23615356
C      -0.36446024      1.04313187      1.74650644
C       0.81732008      0.68702906      2.60678584
C       0.52435921      0.79925646      4.11163884
C       1.82723662      0.62284928      4.91962936
C       1.60606292      1.08551327      6.33556048
O       0.70401069      1.81094699      6.74188664
O       2.65061694      0.66769707      7.13812164
C       2.53735758      0.95324103      8.53106321
H      -0.89339895      1.34859024     -0.35324029
H       0.87811967      1.60665855     -0.06176903
H       0.26220965      0.02797179      0.02902665
H      -1.20934052      0.39149869      1.87774251
H      -0.73895854      2.05403718      1.99734494
H       1.19416941     -0.34670196      2.43693043
H       1.57621383      1.36700283      2.24427012
H       0.11135463      1.80277524      4.28575966
H      -0.21388449      0.06121430      4.39566144
H       2.14499856     -0.39268217      5.01332140
H       2.61695105      1.25820914      4.53431260
H       3.39284369      0.46571591      9.02011261
H       1.58887746      0.53194367      8.90343907
H       2.56786093      1.98251538      8.74872740
23
Frame 180  Energy = -425.5050768746 Hartree
C      -0.00683857      1.03128212      0.23769047
C      -0.36525948      1.04081692      1.74772014
C       0.81940357      0.68724599      2.60742053
C       0.52270061      0.79767583      4.10972738
C       1.82770012      0.62081743      4.91815620
C       1.60747266      1.08682037      6.33360187
O       0.70272749      1.81165938      6.74252409
O       2.65083425      0.66858892      7.13886752
C       2.53847804      0.95557164      8.53116403
H      -0.90134652      1.34788334     -0.34705148
H       0.87982549      1.60611029     -0.06718208
H       0.27216197      0.02568241      0.03338167
H      -1.21276786      0.38090226      1.87438824
H      -0.73301688      2.05870630      1.99317190
H       1.19111529     -0.33968580      2.45331693
H       1.57457762      1.37946093      2.24794157
H       0.10313367      1.81325506      4.28928434
H      -0.22478671      0.07036204      4.39994268
H       2.14945279     -0.38624718      5.02714125
H       2.61555834      1.25690510      4.53896026
H       3.38629684      0.46206265      9.01707095
H       1.59554746      0.52288961      8.90587762
H       2.57020178      1.98079127      8.74581630
23
Frame 185  Energy = -425.5052001698 Hartree
C      -0.00700545      1.03073512      0.23934258
C      -0.36604609      1.03873756      1.74869516
C       0.82134771      0.68728329      2.60817819
C       0.52128087      0.79635197      4.10759419
C       1.82789635      0.61896386      4.91681158
C       1.60895037      1.08833434      6.33193119
O       0.70161789      1.81221145      6.74301774
O       2.65092317      0.66959783      7.13956577
C       2.53953947      0.95746708      8.53120883
H      -0.90781133      1.34674092     -0.34061164
H       0.88031485      1.60644658     -0.07186652
H       0.28204427      0.02076436      0.03561418
H      -1.21694424      0.36962859      1.87187468
H      -0.72653435      2.06256197      1.98958198
H       1.18781084     -0.33226433      2.46878456
H       1.57504851      1.39228685      2.25250715
H       0.09549502      1.82247029      4.29354226
H      -0.23603237      0.07877137      4.40447610
H       2.15507458     -0.38264563      5.04008580
H       2.61493230      1.25571805      4.54284353
H       3.37952783      0.45837146      9.01404147
H       1.60286040      0.51385206      8.90853083
H       2.57254553      1.98254418      8.74345950
23
Frame 190  Energy = -425.5054032550 Hartree
C      -0.00723238      1.03029822      0.24107842
C      -0.36683295      1.03686783      1.74940521
C       0.82330229      0.68727229      2.60910800
C       0.52000612      0.79532990      4.10531996
C       1.82772534      0.61738816      4.91564716
C       1.61040124      1.09019176      6.33063313
O       0.70061326      1.81252012      6.74335272
O       2.65094534      0.67073554      7.14011402
C       2.54055447      0.95882753      8.53119142
H      -0.91253479      1.34485140     -0.33380556
H       0.87954855      1.60769399     -0.07536626
H       0.29132906      0.01369338      0.03589384
H      -1.22169687      0.35805635      1.87012970
H      -0.71952721      2.06550123      1.98656783
H       1.18468816     -0.32545265      2.48274989
H       1.57710871      1.40495298      2.25834842
H       0.08888418      1.82940454      4.29789310
H      -0.24755509      0.08636226      4.40920931
H       2.16172705     -0.38194345      5.05186074
H       2.61522226      1.25476999      4.54562858
H       3.37313930      0.45472599      9.01061864
H       1.61083476      0.50552359      8.91156489
H       2.57442485      1.98824202      8.74160655
23
Frame 195  Energy = -425.5051834414 Hartree
C      -0.00751428      1.02991681      0.24290078
C      -0.36780897      1.03514616      1.74976067
C       0.82516739      0.68739686      2.61023573
C       0.51880603      0.79467398      4.10303090
C       1.82705936      0.61605927      4.91479247
C       1.61174849      1.09233846      6.32980596
O       0.69975858      1.81263534      6.74355054
O       2.65096813      0.67191512      7.14052540
C       2.54146300      0.95973312      8.53122966
H      -0.91523657      1.34245624     -0.32702372
H       0.87770544      1.60962966     -0.07767564
H       0.29967874      0.00522233      0.03487304
H      -1.22653577      0.34684373      1.86901547
H      -0.71241671      2.06736827      1.98437396
H       1.18226904     -0.31995623      2.49516345
H       1.58063263      1.41729709      2.26579185
H       0.08354433      1.83361750      4.30226078
H      -0.25952563      0.09332858      4.41400835
H       2.16925884     -0.38393623      5.06244772
H       2.61659206      1.25439063      4.54698342
H       3.36740046      0.45102537      9.00678241
H       1.61914988      0.49820979      8.91514343
H       2.57596316      1.99769611      8.74007645
23
Frame 200  Energy = -425.5051895120 Hartree
C      -0.00774838      1.02945397      0.24472334
C      -0.36894218      1.03360506      1.74973998
C       0.82689551      0.68765479      2.61143765
C       0.51764067      0.79442698      4.10060301
C       1.82603773      0.61499262      4.91427646
C       1.61302269      1.09474989      6.32936309
O       0.69919435      1.81249082      6.74367364
O       2.65094943      0.67315662      7.14078101
C       2.54221435      0.96033575      8.53123546
H      -0.91582891      1.33930877     -0.32005955
H       0.87470726      1.61231160     -0.07886241
H       0.30698703     -0.00397080      0.03235015
H      -1.23074771      0.33648598      1.86796645
H      -0.70506999      2.06798937      1.98315817
H       1.18059159     -0.31596944      2.50571443
H       1.58506913      1.42878312      2.27484572
H       0.07968458      1.83455546      4.30628056
H      -0.27146592      0.10004412      4.41877931
H       2.17787446     -0.38816146      5.07149500
H       2.61906872      1.25435518      4.54683101
H       3.36281087      0.44677148      9.00299444
H       1.62778282      0.49215628      8.91902193
H       2.57731668      2.01011480      8.73840723
23
Frame 205  Energy = -425.5051997574 Hartree
C      -0.00801009      1.02893034      0.24661427
C      -0.37010116      1.03217500      1.74936234
C       0.82859693      0.68819989      2.61261299
C       0.51651318      0.79452182      4.09818216
C       1.82475337      0.61409684      4.91403050
C       1.61424906      1.09742905      6.32927147
O       0.69892182      1.81212680      6.74366258
O       2.65075792      0.67451759      7.14081036
C       2.54277739      0.96069809      8.53124042
H      -0.91448359      1.33559750     -0.31334853
H       0.87063589      1.61585392     -0.07871388
H       0.31336235     -0.01330990      0.02854316
H      -1.23385910      0.32752156      1.86728597
H      -0.69811118      2.06732276      1.98275514
H       1.18010852     -0.31393841      2.51434440
H       1.59006996      1.43859169      2.28560453
H       0.07792516      1.83218372      4.31024584
H      -0.28271707      0.10638441      4.42353004
H       2.18695235     -0.39434604      5.07882531
H       2.62267183      1.25451925      4.54561783
H       3.36022122      0.44222501      8.99978238
H       1.63642069      0.48733538      8.92313375
H       2.57836527      2.02445015      8.73660454
23
Frame 210  Energy = -425.5050497564 Hartree
C      -0.00827460      1.02819510      0.24855003
C      -0.37131306      1.03071879      1.74874830
C       0.83013597      0.68896454      2.61385112
C       0.51548544      0.79496849      4.09585746
C       1.82318280      0.61335622      4.91390785
C       1.61537692      1.10040957      6.32951159
O       0.69886801      1.81148954      6.74356828
O       2.65039006      0.67589779      7.14062480
C       2.54319209      0.96093547      8.53118193
H      -0.91165189      1.33130006     -0.30714626
H       0.86574082      1.62048511     -0.07752911
H       0.31825308     -0.02190984      0.02396070
H      -1.23538482      0.31973181      1.86742150
H      -0.69147163      2.06573765      1.98316569
H       1.18107962     -0.31405123      2.52121160
H       1.59518151      1.44641523      2.29789736
H       0.07849167      1.82687115      4.31411255
H      -0.29288248      0.11245443      4.42804993
H       2.19647175     -0.40157063      5.08411257
H       2.62695790      1.25450221      4.54339416
H       3.35928611      0.43754529      8.99711595
H       1.64456425      0.48367911      8.92747605
H       2.57924023      2.03965320      8.73465756
23
Frame 215  Energy = -425.5050907833 Hartree
C      -0.00855795      1.02724384      0.25052636
C      -0.37258096      1.02930297      1.74791708
C       0.83155916      0.68982999      2.61513922
C       0.51445979      0.79571205      4.09372234
C       1.82145007      0.61270146      4.91404872
C       1.61639055      1.10364437      6.33007157
O       0.69906710      1.81070511      6.74342085
O       2.64985574      0.67728575      7.14023504
C       2.54350846      0.96114385      8.53109019
H      -0.90754178      1.32641600     -0.30156188
H       0.86012729      1.62609008     -0.07531702
H       0.32120772     -0.02890577      0.01870498
H      -1.23545572      0.31309899      1.86813752
H      -0.68485499      2.06294756      1.98432239
H       1.18331765     -0.31635329      2.52612487
H       1.60044692      1.45180702      2.31154221
H       0.08103820      1.81885652      4.31762652
H      -0.30167038      0.11836936      4.43188942
H       2.20582197     -0.40933182      5.08737331
H       2.63162075      1.25428520      4.54009395
H       3.35988535      0.43296560      8.99454086
H       1.65190633      0.48146832      8.93177119
H       2.57978433      2.05444079      8.73254178
23
Frame 220  Energy = -425.5051582700 Hartree
C      -0.00881393      1.02597355      0.25252520
C      -0.37382117      1.02787335      1.74690986
C       0.83281517      0.69080663      2.61647156
C       0.51343654      0.79677611      4.09183336
C       1.81955976      0.61197862      4.91438723
C       1.61728639      1.10697146      6.33093977
O       0.69949342      1.80974959      6.74327014
O       2.64922920      0.67872345      7.13965044
C       2.54377604      0.96129401      8.53096861
H      -0.90283136      1.32116580     -0.29700995
H       0.85362296      1.63254943     -0.07210073
H       0.32233616     -0.03370799      0.01313357
H      -1.23417981      0.30794632      1.86923145
H      -0.67868066      2.05888937      1.98609927
H       1.18679662     -0.32068051      2.52861685
H       1.60554087      1.45501156      2.32653033
H       0.08547265      1.80879008      4.32108116
H      -0.30896628      0.12440893      4.43484212
H       2.21479175     -0.41702156      5.08842337
H       2.63598745      1.25369912      4.53612067
H       3.36190099      0.42848039      8.99198955
H       1.65795311      0.48036192      8.93636722
H       2.57972315      2.06745380      8.73023608
23
Frame 225  Energy = -425.5051052508 Hartree
C      -0.00897157      1.02447320      0.25454614
C      -0.37506003      1.02640137      1.74572335
C       0.83382220      0.69201635      2.61783443
C       0.51235063      0.79794534      4.09020119
C       1.81754060      0.61125006      4.91495444
C       1.61802965      1.11045990      6.33202004
O       0.70015996      1.80859169      6.74312231
O       2.64847950      0.68019508      7.13885130
C       2.54407728      0.96149922      8.53080090
H      -0.89815717      1.31560673     -0.29381517
H       0.84616357      1.63970203     -0.06762079
H       0.32120987     -0.03612964      0.00702808
H      -1.23120544      0.30465424      1.87098192
H      -0.67306925      2.05373995      1.98876404
H       1.19164860     -0.32663194      2.52893328
H       1.61009670      1.45604243      2.34253738
H       0.09168672      1.79744453      4.32422848
H      -0.31457817      0.13025515      4.43704447
H       2.22300414     -0.42350711      5.08713691
H       2.63981712      1.25211484      4.53173469
H       3.36553087      0.42423217      8.98961151
H       1.66288150      0.48032251      8.94110572
H       2.57893071      2.07800766      8.72763756
23
Frame 230  Energy = -425.5052787777 Hartree
C      -0.00891677      1.02259632      0.25657555
C      -0.37631405      1.02486251      1.74442318
C       0.83466419      0.69338886      2.61928443
C       0.51134257      0.79920171      4.08882114
C       1.81553138      0.61051994      4.91571285
C       1.61871406      1.11406413      6.33324094
O       0.70102785      1.80733454      6.74290637
O       2.64762653      0.68163077      7.13793775
C       2.54448866      0.96186358      8.53063306
H      -0.89396006      1.30936356     -0.29210152
H       0.83771684      1.64733271     -0.06214774
H       0.31844320     -0.03579101      0.00092195
H      -1.22644093      0.30342126      1.87330556
H      -0.66839175      2.04820003      1.99192216
H       1.19748674     -0.33332173      2.52734950
H       1.61414689      1.45526601      2.35955121
H       0.09901146      1.78593046      4.32718490
H      -0.31867748      0.13626263      4.43844759
H       2.23014380     -0.42840454      5.08351668
H       2.64305655      1.24943483      4.52700537
H       3.37045205      0.42054222      8.98717175
H       1.66663474      0.48111192      8.94647730
H       2.57783764      2.08489208      8.72508355
23
Frame 235  Energy = -425.5054520527 Hartree
C      -0.00868526      1.02043940      0.25868306
C      -0.37758245      1.02336126      1.74300371
C       0.83544576      0.69483361      2.62087618
C       0.51041003      0.80040417      4.08762819
C       1.81357684      0.60978691      4.91676819
C       1.61929014      1.11768450      6.33468768
O       0.70205637      1.80602849      6.74261277
O       2.64663208      0.68308766      7.13700588
C       2.54495298      0.96238949      8.53061465
H      -0.89030834      1.30300738     -0.29171267
H       0.82875092      1.65548625     -0.05545219
H       0.31432964     -0.03282298     -0.00492650
H      -1.22007066      0.30387347      1.87630211
H      -0.66501277      2.04261933      1.99589383
H       1.20411694     -0.33976895      2.52394967
H       1.61772142      1.45254027      2.37700078
H       0.10669208      1.77510857      4.33047554
H      -0.32081112      0.14208017      4.43935364
H       2.23580249     -0.43128190      5.07754103
H       2.64539982      1.24544446      4.52167406
H       3.37622107      0.41799024      8.98452016
H       1.66873960      0.48281593      8.95232082
H       2.57648769      2.08801323      8.72229836
23
Frame 240  Energy = -425.5057960799 Hartree
C      -0.00832251      1.01788744      0.26084184
C      -0.37864433      1.02188395      1.74145029
C       0.83602579      0.69631993      2.62254845
C       0.50958696      0.80151357      4.08674878
C       1.81165174      0.60901819      4.91805911
C       1.61985267      1.12131994      6.33630611
O       0.70323872      1.80468545      6.74215181
O       2.64558340      0.68456548      7.13595924
C       2.54536186      0.96309307      8.53074364
H      -0.88743616      1.29702530     -0.29287311
H       0.81980223      1.66416985     -0.04803645
H       0.30925079     -0.02735040     -0.01080040
H      -1.21271095      0.30588981      1.87989255
H      -0.66324296      2.03719946      2.00056251
H       1.21104692     -0.34543035      2.51879525
H       1.62086173      1.44834582      2.39429666
H       0.11457387      1.76613971      4.33397193
H      -0.32058403      0.14758846      4.43933341
H       2.23947999     -0.43204051      5.06987462
H       2.64642281      1.23990235      4.51626013
H       3.38263039      0.41672540      8.98150040
H       1.66957968      0.48550523      8.95830295
H       2.57504450      2.08747873      8.71937249
23
Frame 245  Energy = -425.5060250730 Hartree
C      -0.00786980      1.01493388      0.26294237
C      -0.37944739      1.02045850      1.73988479
C       0.83635093      0.69784843      2.62420202
C       0.50879256      0.80249518      4.08611587
C       1.80979335      0.60819053      4.91941487
C       1.62041679      1.12498296      6.33816502
O       0.70448604      1.80334673      6.74164056
O       2.64440013      0.68601893      7.13479618
C       2.54584169      0.96397440      8.53092132
H      -0.88552358      1.29123099     -0.29548455
H       0.81113072      1.67325186     -0.03967833
H       0.30304468     -0.01964547     -0.01708040
H      -1.20477455      0.30881217      1.88391806
H      -0.66275293      2.03222806      2.00596727
H       1.21827741     -0.34978109      2.51210308
H       1.62379960      1.44278235      2.41137036
H       0.12261181      1.75967140      4.33778054
H      -0.31827967      0.15249954      4.43842421
H       2.24072843     -0.43060303      5.06053307
H       2.64601434      1.23304049      4.51107104
H       3.38924201      0.41674540      8.97818395
H       1.66908993      0.48918450      8.96430724
H       2.57360893      2.08353939      8.71638555
23
Frame 250  Energy = -425.5059653133 Hartree
C      -0.00736007      1.01173023      0.26504055
C      -0.38001586      1.01897157      1.73826952
C       0.83640914      0.69913277      2.62590374
C       0.50812359      0.80319016      4.08566629
C       1.80800982      0.60738520      4.92086110
C       1.62112447      1.12856688      6.34015745
O       0.70575767      1.80204011      6.74114238
O       2.64317547      0.68754269      7.13342636
C       2.54636735      0.96490720      8.53105740
H      -0.88455975      1.28543788     -0.29974384
H       0.80219317      1.68255184     -0.03050292
H       0.29624258     -0.01095850     -0.02383770
H      -1.19681102      0.31250070      1.88842648
H      -0.66349245      2.02806863      2.01193773
H       1.22544269     -0.35188263      2.50424252
H       1.62656940      1.43602539      2.42807641
H       0.13038318      1.75673225      4.34156533
H      -0.31426683      0.15671531      4.43673109
H       2.24022433     -0.42714610      5.04947094
H       2.64413719      1.22517640      4.50602971
H       3.39590842      0.41831422      8.97446364
H       1.66714923      0.49359088      8.97015357
H       2.57214321      2.07643293      8.71324753
23
Frame 255  Energy = -425.5061047104 Hartree
C      -0.00690037      1.00837661      0.26711975
C      -0.38024311      1.01746396      1.73658321
C       0.83635400      0.70007338      2.62763834
C       0.50761456      0.80362587      4.08546333
C       1.80626331      0.60670294      4.92245247
C       1.62206234      1.13194255      6.34221563
O       0.70703583      1.80086488      6.74063645
O       2.64191910      0.68911795      7.13196390
C       2.54699506      0.96590684      8.53115922
H      -0.88452101      1.28020117     -0.30567740
H       0.79340931      1.69205227     -0.02046409
H       0.28906666     -0.00176454     -0.03076896
H      -1.18913999      0.31634545      1.89355835
H      -0.66583987      2.02446793      2.01819954
H       1.23243263     -0.35164977      2.49483675
H       1.62958094      1.42877576      2.44397396
H       0.13767699      1.75775102      4.34553887
H      -0.30896078      0.15983926      4.43421658
H       2.23776684     -0.42211580      5.03681403
H       2.64114557      1.21616548      4.50117263
H       3.40258061      0.42162515      8.97011715
H       1.66427625      0.49850898      8.97570172
H       2.57044586      2.06659341      8.71011379
23
Frame 260  Energy = -425.5061930251 Hartree
C      -0.00650659      1.00491094      0.26905719
C      -0.38005451      1.01591914      1.73492436
C       0.83622128      0.70070087      2.62928576
C       0.50735548      0.80384469      4.08549251
C       1.80457814      0.60606141      4.92418158
C       1.62315852      1.13510111      6.34430942
O       0.70825322      1.79977176      6.74019370
O       2.64065663      0.69073294      7.13054816
C       2.54771643      0.96688778      8.53130405
H      -0.88533721      1.27516265     -0.31278220
H       0.78493969      1.70179294     -0.01004378
H       0.28204308      0.00742222     -0.03802017
H      -1.18222536      0.31953781      1.89912374
H      -0.66968867      2.02148936      2.02467672
H       1.23893812     -0.34899586      2.48421835
H       1.63344440      1.42123736      2.45904726
H       0.14380043      1.76281202      4.34991275
H      -0.30331643      0.16196273      4.43081226
H       2.23371330     -0.41582730      5.02307625
H       2.63735021      1.20621935      4.49653034
H       3.40903582      0.42633528      8.96515339
H       1.66086917      0.50403135      8.98085289
H       2.56887102      2.05480542      8.70725150
23
Frame 265  Energy = -425.5059499754 Hartree
C      -0.00618040      1.00147847      0.27097232
C      -0.37951268      1.01454380      1.73322989
C       0.83603638      0.70108435      2.63096844
C       0.50729618      0.80396479      4.08582269
C       1.80284341      0.60553323      4.92608759
C       1.62440736      1.13799825      6.34634535
O       0.70933697      1.79882837      6.73980532
O       2.63932670      0.69238439      7.12915422
C       2.54848507      0.96776789      8.53151613
H      -0.88672640      1.27024167     -0.32041060
H       0.77721854      1.71188602      0.00117675
H       0.27561914      0.01594133     -0.04574822
H      -1.17682980      0.32170290      1.90548284
H      -0.67494886      2.01935109      2.03114058
H       1.24482082     -0.34394182      2.47256277
H       1.63815054      1.41395082      2.47227579
H       0.14876383      1.77166294      4.35446146
H      -0.29744994      0.16297527      4.42686507
H       2.22813334     -0.40905605      5.00823838
H       2.63237730      1.19607030      4.49189810
H       3.41528022      0.43267704      8.95971932
H       1.65663637      0.51022848      8.98539828
H       2.56730077      2.04178835      8.70448725
23
Frame 270  Energy = -425.5058203392 Hartree
C      -0.00603717      0.99815402      0.27281991
C      -0.37857205      1.01335227      1.73149895
C       0.83582056      0.70119072      2.63264061
C       0.50749775      0.80400011      4.08643223
C       1.80106721      0.60513223      4.92813534
C       1.62590099      1.14053870      6.34830520
O       0.71040678      1.79800788      6.73951269
O       2.63794158      0.69408648      7.12775482
C       2.54927766      0.96853959      8.53184036
H      -0.88826045      1.26508279     -0.32847664
H       0.77035558      1.72192212      0.01283118
H       0.27017834      0.02299542     -0.05422699
H      -1.17338417      0.32277341      1.91281139
H      -0.68137182      2.01782744      2.03771326
H       1.24983844     -0.33674997      2.46005738
H       1.64357602      1.40696180      2.48387943
H       0.15331749      1.78370562      4.35897185
H      -0.29187440      0.16249679      4.42251159
H       2.22119487     -0.40197433      4.99302078
H       2.62614251      1.18604553      4.48766899
H       3.42127788      0.44045332      8.95384699
H       1.65249092      0.51721422      8.98950239
H       2.56575523      2.02890196      8.70185351
23
Frame 275  Energy = -425.5052154544 Hartree
C      -0.00610669      0.99504470      0.27454514
C      -0.37718197      1.01232140      1.72981298
C       0.83552146      0.70108306      2.63424868
C       0.50791057      0.80400953      4.08732549
C       1.79927564      0.60491938      4.93019208
C       1.62761809      1.14280443      6.35014321
O       0.71131379      1.79728093      6.73926760
O       2.63652511      0.69589033      7.12637449
C       2.55018660      0.96902639      8.53223949
H      -0.88961727      1.26028375     -0.33675844
H       0.76428792      1.73180447      0.02488965
H       0.26615751      0.02750140     -0.06345219
H      -1.17205919      0.32270673      1.92080256
H      -0.68895357      2.01619643      2.04447197
H       1.25407046     -0.32791150      2.44672016
H       1.64992632      1.40075417      2.49389960
H       0.15778116      1.79796177      4.36334608
H      -0.28673625      0.16036372      4.41805824
H       2.21312150     -0.39520498      4.97704479
H       2.61947392      1.17658403      4.48323582
H       3.42691570      0.44940718      8.94827429
H       1.64850587      0.52495001      8.99281495
H       2.56459856      2.01750390      8.69962182
23
Frame 280  Energy = -425.5052711833 Hartree
C      -0.00648710      0.99217805      0.27606046
C      -0.37539631      1.01150949      1.72819710
C       0.83517811      0.70080093      2.63570040
C       0.50862668      0.80407743      4.08852738
C       1.79746096      0.60488578      4.93229243
C       1.62949668      1.14476396      6.35183573
O       0.71204655      1.79661627      6.73916436
O       2.63511432      0.69778793      7.12511120
C       2.55099221      0.96930760      8.53269102
H      -0.89043718      1.25533394     -0.34476952
H       0.75859224      1.74114243      0.03710633
H       0.26378182      0.02897863     -0.07316318
H      -1.17251004      0.32117006      1.92979289
H      -0.69741835      2.01461042      2.05079568
H       1.25795233     -0.31725269      2.43284428
H       1.65715266      1.39560591      2.50224015
H       0.16221331      1.81316002      4.36697287
H      -0.28269161      0.15651733      4.41335093
H       2.20420842     -0.38985163      4.96104043
H       2.61285081      1.16771851      4.47857020
H       3.43206717      0.45960316      8.94283456
H       1.64530191      0.53323060      8.99517251
H       2.56382002      2.00861866      8.69811532
23
Frame 285  Energy = -425.5053590660 Hartree
C      -0.00707332      0.98965779      0.27729579
C      -0.37338533      1.01091078      1.72676023
C       0.83472718      0.70031937      2.63703298
C       0.50957005      0.80425264      4.09007177
C       1.79554865      0.60503875      4.93443298
C       1.63158374      1.14635828      6.35344154
O       0.71260199      1.79613318      6.73921846
O       2.63373490      0.69967280      7.12380776
C       2.55174909      0.96930518      8.53316523
H      -0.89048319      1.25030621     -0.35214399
H       0.75330267      1.75002540      0.04962959
H       0.26310156      0.02767116     -0.08304517
H      -1.17442660      0.31844658      1.93938046
H      -0.70664014      2.01288061      2.05663661
H       1.26097628     -0.30510535      2.41888205
H       1.66526095      1.39139894      2.50884374
H       0.16657232      1.82811483      4.36954106
H      -0.27975445      0.15099113      4.40900175
H       2.19441892     -0.38659395      4.94529412
H       2.60650164      1.15964865      4.47373641
H       3.43732858      0.47052722      8.93781238
H       1.64272490      0.54202062      8.99679906
H       2.56311443      2.00337135      8.69754194
23
Frame 290  Energy = -425.5055032251 Hartree
C      -0.00784170      0.98753125      0.27837325
C      -0.37117849      1.01044897      1.72552884
C       0.83429612      0.69966328      2.63821580
C       0.51059900      0.80470772      4.09192219
C       1.79350949      0.60532105      4.93656587
C       1.63389158      1.14748869      6.35480117
O       0.71294980      1.79587144      6.73943133
O       2.63230188      0.70154230      7.12253284
C       2.55237693      0.96888866      8.53375832
H      -0.88960285      1.24569905     -0.35872704
H       0.74829714      1.75792092      0.06210906
H       0.26383266      0.02377316     -0.09316255
H      -1.17745051      0.31489810      1.94941375
H      -0.71635791      2.01089462      2.06167326
H       1.26320988     -0.29213762      2.40488406
H       1.67314411      1.38823579      2.51356870
H       0.17095094      1.84173198      4.37104924
H      -0.27792772      0.14373692      4.40519608
H       2.18412895     -0.38612330      4.92999472
H       2.60067474      1.15299709      4.46844751
H       3.44270463      0.48209918      8.93312106
H       1.64099475      0.55153520      8.99746633
H       2.56279517      2.00239746      8.69784391
23
Frame 295  Energy = -425.5055414897 Hartree
C      -0.00883044      0.98573866      0.27930172
C      -0.36892772      1.01010686      1.72461005
C       0.83384978      0.69895520      2.63923164
C       0.51177365      0.80545451      4.09412455
C       1.79135903      0.60586013      4.93865134
C       1.63644829      1.14818136      6.35591543
O       0.71311793      1.79585153      6.73975049
O       2.63092530      0.70336623      7.12140284
C       2.55294265      0.96806441      8.53435868
H      -0.88788516      1.24162164     -0.36425365
H       0.74305494      1.76476800      0.07444413
H       0.26630199      0.01771064     -0.10355309
H      -1.18044587      0.31085479      1.95962776
H      -0.72651705      2.00838755      2.06545950
H       1.26476713     -0.27890649      2.39141541
H       1.68085124      1.38592005      2.51669965
H       0.17569030      1.85312180      4.37118228
H      -0.27677257      0.13503073      4.40212616
H       2.17397393     -0.38901251      4.91507814
H       2.59557681      1.14823633      4.46260720
H       3.44790456      0.49395085      8.92886430
H       1.63991114      0.56109745      8.99743921
H       2.56319738      2.00562600      8.69886747
23
Frame 300  Energy = -425.5053542327 Hartree
C      -0.01012628      0.98418910      0.27991734
C      -0.36665108      1.00979293      1.72397799
C       0.83339883      0.69810569      2.64014702
C       0.51321217      0.80645252      4.09664039
C       1.78909163      0.60658101      4.94070178
C       1.63916764      1.14844108      6.35673847
O       0.71305558      1.79608577      6.74014658
O       2.62967552      0.70513724      7.12037122
C       2.55350515      0.96690095      8.53488897
H      -0.88512394      1.23809452     -0.36852342
H       0.73804067      1.77082448      0.08667813
H       0.27033922      0.00985491     -0.11360233
H      -1.18314921      0.30648531      1.96997596
H      -0.73690548      2.00523577      2.06788912
H       1.26608079     -0.26626300      2.37766691
H       1.68809593      1.38414071      2.51771177
H       0.18078384      1.86212864      4.37003949
H      -0.27650625      0.12534532      4.39953789
H       2.16381080     -0.39469022      4.90077605
H       2.59179245      1.14547426      4.45661252
H       3.45282365      0.50542678      8.92505742
H       1.63951174      0.57022720      8.99650545
H       2.56428235      2.01298002      8.70005593
