23
Frame 5  Energy = -425.5050196157 Hartree
C      -0.00158257      1.11315050      0.10611743
C      -0.22612407      1.31831468      1.59237683
C       0.87764780      0.71699996      2.51841050
C       0.66853841      1.02727777      3.99953101
C       1.85680356      0.65803086      4.86200438
C       1.59063826      1.02097581      6.30540345
O       0.74717915      1.72040251      6.77582468
O       2.58592201      0.46513988      7.11616498
C       2.53312486      0.79864943      8.47925324
H      -0.83661110      1.45482904     -0.48530971
H       0.87087775      1.61602446     -0.28246632
H       0.15799327      0.04530519     -0.14019585
H      -1.14972450      0.86956301      1.91184228
H      -0.29335381      2.38873399      1.77906473
H       0.99646965     -0.39097642      2.31897264
H       1.77655251      1.20140471      2.16493712
H       0.48527095      2.07933428      4.01226851
H      -0.25606375      0.65503162      4.47745314
H       2.09556626     -0.41560253      4.74579936
H       2.79425922      1.11991694      4.51465731
H       3.40664375      0.35184648      8.94723763
H       1.66589559      0.37802872      8.97203455
H       2.55062972      1.90826071      8.64018459
23
Frame 10  Energy = -425.5048439642 Hartree
C      -0.00163825      1.11284440      0.10665882
C      -0.22613946      1.31506769      1.59225702
C       0.87554072      0.71510860      2.51793753
C       0.66788090      1.02556964      4.00183157
C       1.85400912      0.65591488      4.86090679
C       1.59247756      1.02183499      6.30610052
O       0.74641092      1.72258598      6.77577493
O       2.58827194      0.46469892      7.11768129
C       2.53087838      0.80052788      8.47890125
H      -0.84530135      1.45338958     -0.48795204
H       0.87345577      1.62343376     -0.28081718
H       0.15131305      0.05378509     -0.14075321
H      -1.15381795      0.87207281      1.91043677
H      -0.30033954      2.39018080      1.77976328
H       1.00409975     -0.38289108      2.31812509
H       1.77358635      1.19563279      2.16459810
H       0.49043344      2.08162568      4.00904368
H      -0.24558277      0.64104400      4.48481603
H       2.10156180     -0.40681344      4.73801842
H       2.78858371      1.13177775      4.52573110
H       3.41359263      0.35722497      8.94630200
H       1.65965449      0.38767370      8.96839125
H       2.54552574      1.89797187      8.64390926
23
Frame 15  Energy = -425.5047192376 Hartree
C      -0.00164995      1.11247550      0.10717519
C      -0.22599686      1.31183854      1.59230597
C       0.87320437      0.71307150      2.51721739
C       0.66722460      1.02385840      4.00400727
C       1.85130420      0.65375404      4.85974543
C       1.59482898      1.02259540      6.30713562
O       0.74551731      1.72481332      6.77575657
O       2.59054114      0.46427225      7.11894135
C       2.52877358      0.80251112      8.47880957
H      -0.85472625      1.45206024     -0.49065870
H       0.87683275      1.63201940     -0.27895786
H       0.14424430      0.06207212     -0.14123693
H      -1.16007100      0.87393911      1.90882780
H      -0.30769626      2.39190824      1.78085007
H       1.01104898     -0.37338977      2.31773883
H       1.77240682      1.19000389      2.16467001
H       0.49603994      2.08644363      4.00728314
H      -0.23456706      0.62639960      4.49085111
H       2.10684853     -0.39834092      4.73133603
H       2.78256696      1.14462407      4.53698765
H       3.42075401      0.36288995      8.94472788
H       1.65201589      0.39735533      8.96467381
H       2.53991163      1.88648025      8.64696058
23
Frame 20  Energy = -425.5046659377 Hartree
C      -0.00174680      1.11205259      0.10761654
C      -0.22571920      1.30862862      1.59253415
C       0.87069332      0.71095326      2.51626252
C       0.66650294      1.02222255      4.00599894
C       1.84877862      0.65158296      4.85852079
C       1.59761043      1.02325404      6.30844869
O       0.74446996      1.72704593      6.77575229
O       2.59264759      0.46394987      7.11993855
C       2.52681080      0.80452575      8.47897280
H      -0.86401094      1.45084429     -0.49260686
H       0.88048431      1.64118924     -0.27663108
H       0.13689777      0.06949753     -0.14189219
H      -1.16822188      0.87524215      1.90711085
H      -0.31469678      2.39343027      1.78236401
H       1.01748777     -0.36342124      2.31759042
H       1.77346284      1.18514565      2.16532681
H       0.50158586      2.09362231      4.00703472
H      -0.22334181      0.61058669      4.49570384
H       2.11172631     -0.39087786      4.72576160
H       2.77594317      1.15841115      4.54839798
H       3.42757417      0.36863749      8.94271862
H       1.64335996      0.40664254      8.96123999
H       2.53426958      1.87480427      8.64978147
23
Frame 25  Energy = -425.5048196434 Hartree
C      -0.00187353      1.11159595      0.10793379
C      -0.22540385      1.30544004      1.59290918
C       0.86806680      0.70880904      2.51512024
C       0.66566071      1.02070043      4.00777627
C       1.84624862      0.64954000      4.85738551
C       1.60075247      1.02383588      6.31001305
O       0.74333262      1.72932747      6.77575033
O       2.59461903      0.46369476      7.12072573
C       2.52497663      0.80648061      8.47926626
H      -0.87288201      1.44962684     -0.49365867
H       0.88386865      1.65057672     -0.27348866
H       0.12976620      0.07544243     -0.14282317
H      -1.17741062      0.87602109      1.90500894
H      -0.32146250      2.39445815      1.78412532
H       1.02346213     -0.35369352      2.31760833
H       1.77687222      1.18094515      2.16610314
H       0.50721389      2.10200298      4.00831363
H      -0.21248834      0.59407611      4.49940447
H       2.11593397     -0.38458808      4.72083242
H       2.76850421      1.17276854      4.55980637
H       3.43362438      0.37431486      8.94048832
H       1.63374404      0.41547668      8.95822790
H       2.52861803      1.86421343      8.65250002
23
Frame 30  Energy = -425.5046056853 Hartree
C      -0.00202425      1.11124159      0.10806971
C      -0.22518583      1.30233603      1.59347196
C       0.86531320      0.70673989      2.51393242
C       0.66479345      1.01931402      4.00933429
C       1.84373293      0.64762250      4.85624714
C       1.60410227      1.02422987      6.31176255
O       0.74213394      1.73155740      6.77580657
O       2.59645108      0.46355172      7.12125893
C       2.52337038      0.80829763      8.47975817
H      -0.88088751      1.44840925     -0.49379720
H       0.88641895      1.65952394     -0.26968480
H       0.12301001      0.07941018     -0.14409804
H      -1.18736214      0.87661030      1.90247901
H      -0.32757909      2.39453238      1.78632718
H       1.02880841     -0.34443288      2.31772296
H       1.78196905      1.17768165      2.16744327
H       0.51312906      2.11085874      4.01115731
H      -0.20228901      0.57693747      4.50184194
H       2.11984521     -0.37997015      4.71660717
H       2.76045614      1.18743536      4.57092843
H       3.43866250      0.38011993      8.93767035
H       1.62354936      0.42375046      8.95517439
H       2.52337402      1.85566365      8.65493401
23
Frame 35  Energy = -425.5044949551 Hartree
C      -0.00219850      1.11111212      0.10809832
C      -0.22501014      1.29936615      1.59423458
C       0.86239097      0.70484423      2.51270835
C       0.66393175      1.01801752      4.01063416
C       1.84130744      0.64584223      4.85521604
C       1.60767049      1.02448789      6.31377419
O       0.74089055      1.73374378      6.77575442
O       2.59816285      0.46349786      7.12150588
C       2.52186937      0.80976191      8.48055848
H      -0.88758229      1.44689492     -0.49291851
H       0.88825209      1.66797076     -0.26530410
H       0.11651628      0.08088512     -0.14576130
H      -1.19760353      0.87712848      1.89960904
H      -0.33342223      2.39356415      1.78868643
H       1.03345296     -0.33662496      2.31762320
H       1.78812386      1.17524061      2.16948715
H       0.51909821      2.11942781      4.01552087
H      -0.19315625      0.55934461      4.50309943
H       2.12371599     -0.37789975      4.71319653
H       2.75250299      1.20251928      4.58163083
H       3.44230987      0.38589090      8.93464644
H       1.61281727      0.43123154      8.95186299
H       2.51813879      1.84999278      8.65724121
23
Frame 40  Energy = -425.5044713157 Hartree
C      -0.00245785      1.11121930      0.10805182
C      -0.22490215      1.29644338      1.59512065
C       0.85938477      0.70315568      2.51146135
C       0.66314932      1.01687229      4.01177699
C       1.83905000      0.64425290      4.85426462
C       1.61139687      1.02453023      6.31612976
O       0.73969539      1.73586955      6.77562045
O       2.59972440      0.46359900      7.12154475
C       2.52047842      0.81086336      8.48164704
H      -0.89251093      1.44523740     -0.49070763
H       0.88887714      1.67572618     -0.26044212
H       0.11061429      0.07982679     -0.14748638
H      -1.20784630      0.87761535      1.89629735
H      -0.33868140      2.39126750      1.79133825
H       1.03760966     -0.33101625      2.31787146
H       1.79502973      1.17342100      2.17203457
H       0.52488329      2.12675708      4.02129013
H      -0.18522701      0.54170103      4.50312435
H       2.12746742     -0.37812687      4.71076898
H       2.74445897      1.21759771      4.59194298
H       3.44421178      0.39205450      8.93140842
H       1.60201636      0.43771580      8.94857774
H       2.51325288      1.84846804      8.65958489
23
Frame 45  Energy = -425.5045281344 Hartree
C      -0.00282232      1.11158148      0.10802126
C      -0.22500817      1.29353029      1.59610795
C       0.85636153      0.70179857      2.51006298
C       0.66244540      1.01595339      4.01265995
C       1.83704588      0.64291057      4.85353842
C       1.61523313      1.02436867      6.31882801
O       0.73858220      1.73789177      6.77538404
O       2.60112294      0.46385892      7.12139130
C       2.51923632      0.81168212      8.48293796
H      -0.89551950      1.44365744     -0.48708079
H       0.88834693      1.68285935     -0.25471000
H       0.10584538      0.07621694     -0.14959108
H      -1.21748779      0.87821270      1.89275241
H      -0.34321248      2.38739744      1.79407991
H       1.04141216     -0.32819358      2.31817808
H       1.80219105      1.17206648      2.17501007
H       0.52991050      2.13270438      4.02833569
H      -0.17841702      0.52429049      4.50217793
H       2.13125309     -0.38101418      4.70901121
H       2.73587043      1.23299788      4.60114932
H       3.44446723      0.39805804      8.92788826
H       1.59196508      0.44300962      8.94522768
H       2.50879554      1.85138956      8.66122493
23
Frame 50  Energy = -425.5047577737 Hartree
C      -0.00327728      1.11209948      0.10776252
C      -0.22540854      1.29065718      1.59721899
C       0.85345566      0.70076397      2.50868477
C       0.66176312      1.01539142      4.01315219
C       1.83523707      0.64181229      4.85302487
C       1.61911855      1.02404241      6.32183836
O       0.73760083      1.73984690      6.77504157
O       2.60229929      0.46415726      7.12098556
C       2.51808029      0.81222782      8.48444590
H      -0.89696855      1.44214771     -0.48219762
H       0.88651580      1.68864400     -0.24847805
H       0.10215423      0.07057947     -0.15231620
H      -1.22610998      0.87887280      1.88876825
H      -0.34723099      2.38212504      1.79695635
H       1.04475376     -0.32872632      2.31805205
H       1.80907154      1.17111239      2.17867359
H       0.53442095      2.13609252      4.03684154
H      -0.17287671      0.50715599      4.49988829
H       2.13538234     -0.38620555      4.70797068
H       2.72699968      1.24819328      4.60932797
H       3.44326041      0.40390791      8.92439772
H       1.58311073      0.44752337      8.94215470
H       2.50438690      1.85808851      8.66245606
23
Frame 55  Energy = -425.5048978551 Hartree
C      -0.00384059      1.11282957      0.10731106
C      -0.22606301      1.28786104      1.59848087
C       0.85077446      0.70003462      2.50738233
C       0.66104449      1.01508510      4.01346628
C       1.83369934      0.64100711      4.85278543
C       1.62297006      1.02363741      6.32504668
O       0.73674222      1.74170756      6.77455201
O       2.60331913      0.46457214      7.12038988
C       2.51699586      0.81256875      8.48607726
H      -0.89691290      1.44091272     -0.47604004
H       0.88332314      1.69284840     -0.24174223
H       0.09986940      0.06347658     -0.15526294
H      -1.23339630      0.87952218      1.88436033
H      -0.35052921      2.37551245      1.79962491
H       1.04755102     -0.33242296      2.31789352
H       1.81539228      1.16995280      2.18303801
H       0.53844575      2.13654672      4.04636571
H      -0.16887491      0.49096599      4.49634765
H       2.13962366     -0.39297133      4.70744971
H       2.71802383      1.26307698      4.61638513
H       3.44076834      0.40940084      8.92147667
H       1.57563540      0.45102269      8.93896221
H       2.50036011      1.86816062      8.66321928
23
Frame 60  Energy = -425.5051442725 Hartree
C      -0.00450516      1.11359220      0.10678203
C      -0.22695952      1.28507375      1.59985229
C       0.84830137      0.69960832      2.50618179
C       0.66022964      1.01510431      4.01366894
C       1.83236186      0.64043621      4.85279998
C       1.62668507      1.02312401      6.32845802
O       0.73610608      1.74341783      6.77398004
O       2.60417174      0.46515716      7.11955931
C       2.51600412      0.81268717      8.48783754
H      -0.89533475      1.43995053     -0.46907379
H       0.87885350      1.69575342     -0.23495716
H       0.09855633      0.05561968     -0.15823757
H      -1.23879460      0.88021861      1.87958892
H      -0.35288895      2.36779784      1.80209920
H       1.04989866     -0.33879241      2.31778317
H       1.82070036      1.16876911      2.18793965
H       0.54168155      2.13444518      4.05694841
H      -0.16636529      0.47547802      4.49174010
H       2.14397154     -0.40066835      4.70799126
H       2.70893727      1.27717402      4.62272944
H       3.43698204      0.41436003      8.91898444
H       1.56941611      0.45348703      8.93554437
H       2.49697991      1.88075970      8.66352680
23
Frame 65  Energy = -425.5053511071 Hartree
C      -0.00516630      1.11432601      0.10609020
C      -0.22806771      1.28239518      1.60125205
C       0.84607208      0.69943068      2.50509716
C       0.65930116      1.01534471      4.01370044
C       1.83127545      0.64008067      4.85299979
C       1.63017217      1.02257979      6.33203505
O       0.73566737      1.74495277      6.77336159
O       2.60477606      0.46584541      7.11854165
C       2.51507007      0.81283658      8.48967685
H      -0.89251816      1.43965781     -0.46140811
H       0.87336066      1.69743243     -0.22836466
H       0.09803936      0.04748990     -0.16099371
H      -1.24215291      0.88098420      1.87463525
H      -0.35451317      2.35922742      1.80476969
H       1.05126805     -0.34773815      2.31775982
H       1.82458026      1.16734374      2.19327007
H       0.54349202      2.13003115      4.06847330
H      -0.16556810      0.46097815      4.48619320
H       2.14836608     -0.40845089      4.70936491
H       2.69995814      1.29032771      4.62818848
H       3.43227640      0.41859800      8.91714742
H       1.56486322      0.45531058      8.93199641
H       2.49409780      1.89460732      8.66304041
23
Frame 70  Energy = -425.5054514976 Hartree
C      -0.00593201      1.11491995      0.10532169
C      -0.22943104      1.27982916      1.60260908
C       0.84410126      0.69938524      2.50402019
C       0.65832525      1.01566634      4.01357390
C       1.83050522      0.63987078      4.85348294
C       1.63351563      1.02208716      6.33567918
O       0.73540254      1.74629980      6.77257008
O       2.60513823      0.46660393      7.11742165
C       2.51409548      0.81309261      8.49164542
H      -0.88928508      1.43978929     -0.45357251
H       0.86705015      1.69801981     -0.22162677
H       0.09887573      0.03955787     -0.16350486
H      -1.24342356      0.88225137      1.86953156
H      -0.35568592      2.35069430      1.80773725
H       1.05101705     -0.35861790      2.31780993
H       1.82685580      1.16578687      2.19917879
H       0.54438439      2.12380476      4.08101978
H      -0.16594586      0.44813854      4.47956685
H       2.15277828     -0.41549683      4.71091701
H       2.69142549      1.30254995      4.63252086
H       3.42716968      0.42208068      8.91609478
H       1.56191100      0.45655547      8.92833148
H       2.49165572      1.90845169      8.66142076
23
Frame 75  Energy = -425.5053662563 Hartree
C      -0.00671108      1.11542822      0.10465259
C      -0.23102303      1.27732007      1.60396796
C       0.84230112      0.69953067      2.50312070
C       0.65732307      1.01604064      4.01329721
C       1.83002648      0.63982489      4.85428314
C       1.63655400      1.02157171      6.33947334
O       0.73530940      1.74739025      6.77172792
O       2.60536669      0.46741317      7.11625221
C       2.51298236      0.81348049      8.49368937
H      -0.88612912      1.44060398     -0.44566237
H       0.86019877      1.69771828     -0.21542957
H       0.10049395      0.03256827     -0.16568410
H      -1.24321790      0.88324871      1.86413558
H      -0.35611316      2.34244469      1.81081874
H       1.04922589     -0.37012288      2.31807897
H       1.82749514      1.16392251      2.20593719
H       0.54391596      2.11586591      4.09483871
H      -0.16698134      0.43704591      4.47165550
H       2.15693607     -0.42093771      4.71328532
H       2.68273270      1.31384180      4.63532181
H       3.42206736      0.42430755      8.91609940
H       1.56000150      0.45738220      8.92458483
H       2.48977104      1.92120451      8.65857622
23
Frame 80  Energy = -425.5056300227 Hartree
C      -0.00751514      1.11571820      0.10392943
C      -0.23282749      1.27480437      1.60531612
C       0.84079128      0.69986675      2.50238930
C       0.65630449      1.01640659      4.01275170
C       1.82990867      0.63987683      4.85528914
C       1.63929069      1.02101116      6.34333516
O       0.73549061      1.74816673      6.77083152
O       2.60552059      0.46835031      7.11493366
C       2.51176371      0.81405532      8.49575194
H      -0.88329299      1.44220807     -0.43810004
H       0.85342440      1.69655676     -0.21015628
H       0.10232898      0.02726117     -0.16740749
H      -1.24198126      0.88358571      1.85896597
H      -0.35563714      2.33499888      1.81412253
H       1.04609439     -0.38116110      2.31829267
H       1.82649576      1.16188765      2.21326941
H       0.54196584      2.10674775      4.10952979
H      -0.16892539      0.42771959      4.46251206
H       2.16076841     -0.42428857      4.71670884
H       2.67430426      1.32366223      4.63656171
H       3.41720842      0.42506778      8.91741429
H       1.55952903      0.45788581      8.92094933
H       2.48770469      1.93231336      8.65466616
23
Frame 85  Energy = -425.5056842095 Hartree
C      -0.00832092      1.11576543      0.10320415
C      -0.23485331      1.27221795      1.60664272
C       0.83968149      0.70023974      2.50179096
C       0.65529427      1.01676430      4.01212479
C       1.83015485      0.63997006      4.85657474
C       1.64180403      1.02038508      6.34726246
O       0.73599196      1.74874120      6.76976911
O       2.60559567      0.46938350      7.11351817
C       2.51047776      0.81502581      8.49781160
H      -0.88141468      1.44487218     -0.43154227
H       0.84743076      1.69502441     -0.20584566
H       0.10495684      0.02432375     -0.16865920
H      -1.23955339      0.88349188      1.85385103
H      -0.35472714      2.32910293      1.81784670
H       1.04146606     -0.39156024      2.31898244
H       1.82405246      1.15961602      2.22105372
H       0.53872099      2.09699146      4.12486791
H      -0.17165204      0.42049911      4.45209811
H       2.16422291     -0.42516490      4.72085485
H       2.66671470      1.33180144      4.63657142
H       3.41314607      0.42486850      8.92033749
H       1.56065074      0.45760937      8.91737050
H       2.48574560      1.94087010      8.64964896
23
Frame 90  Energy = -425.5058386983 Hartree
C      -0.00912494      1.11557702      0.10265102
C      -0.23703632      1.26952658      1.60789549
C       0.83894227      0.70063060      2.50132132
C       0.65427151      1.01697909      4.01137642
C       1.83082095      0.64008234      4.85805180
C       1.64399675      1.01987262      6.35112497
O       0.73674360      1.74912472      6.76864740
O       2.60554886      0.47058381      7.11205211
C       2.50902901      0.81637761      8.49983093
H      -0.88057261      1.44851021     -0.42611483
H       0.84271827      1.69343778     -0.20254109
H       0.10846021      0.02379822     -0.16972469
H      -1.23647684      0.88265874      1.84898483
H      -0.35312583      2.32448081      1.82203690
H       1.03544019     -0.40053679      2.32058385
H       1.82007860      1.15722179      2.22891680
H       0.53415453      2.08752295      4.14055295
H      -0.17475627      0.41539445      4.44021082
H       2.16719500     -0.42380468      4.72562862
H       2.65963524      1.33833699      4.63518381
H       3.41017180      0.42336060      8.92505956
H       1.56269917      0.45651192      8.91370870
H       2.48437060      1.94650149      8.64326814
23
Frame 95  Energy = -425.5061815896 Hartree
C      -0.00988862      1.11505651      0.10230198
C      -0.23930472      1.26683730      1.60904280
C       0.83846089      0.70098090      2.50101121
C       0.65318866      1.01680516      4.01056031
C       1.83183005      0.64029342      4.85980051
C       1.64585784      1.01943503      6.35483405
O       0.73776456      1.74935535      6.76745177
O       2.60537406      0.47187336      7.11054685
C       2.50755857      0.81815136      8.50180742
H      -0.88134495      1.45313216     -0.42154664
H       0.83991658      1.69242407     -0.20030955
H       0.11250667      0.02606256     -0.17016643
H      -1.23318563      0.88067374      1.84443146
H      -0.35086286      2.32147598      1.82665044
H       1.02824462     -0.40738702      2.32295711
H       1.81454321      1.15450799      2.23634977
H       0.52809477      2.07867745      4.15616531
H      -0.17811459      0.41204561      4.42725743
H       2.16982357     -0.41999341      4.73088213
H       2.65326776      1.34314067      4.63269657
H       3.40787015      0.42092898      8.93101383
H       1.56532058      0.45404989      8.91045455
H       2.48359638      1.94880549      8.63621478
23
Frame 100  Energy = -425.5062337520 Hartree
C      -0.01069342      1.11417983      0.10210099
C      -0.24168521      1.26420187      1.61008244
C       0.83820044      0.70117882      2.50071856
C       0.65211173      1.01631766      4.00966057
C       1.83307717      0.64061771      4.86179225
C       1.64736175      1.01898267      6.35828934
O       0.73905246      1.74938370      6.76618430
O       2.60507040      0.47325144      7.10902569
C       2.50617580      0.82031446      8.50374508
H      -0.88365676      1.45891933     -0.41825185
H       0.83919095      1.69185028     -0.19892940
H       0.11676009      0.03077216     -0.17010393
H      -1.23029587      0.87736295      1.84049439
H      -0.34811069      2.32014765      1.83156652
H       1.02002813     -0.41161287      2.32599244
H       1.80829851      1.15161486      2.24358080
H       0.52016814      2.07084969      4.17190596
H      -0.18201742      0.41017836      4.41337798
H       2.17205311     -0.41411756      4.73653533
H       2.64762477      1.34664282      4.62931015
H       3.40604636      0.41776419      8.93804169
H       1.56814554      0.45071782      8.90793364
H       2.48319571      1.94816873      8.62828752
23
Frame 105  Energy = -425.5062315296 Hartree
C      -0.01154375      1.11292998      0.10201282
C      -0.24408075      1.26170936      1.61106660
C       0.83821718      0.70120905      2.50057902
C       0.65098747      1.01552609      4.00878424
C       1.83440200      0.64101462      4.86399327
C       1.64848301      1.01862023      6.36149812
O       0.74055214      1.74924387      6.76483137
O       2.60470430      0.47471352      7.10758486
C       2.50481436      0.82281976      8.50557216
H      -0.88704434      1.46566163     -0.41586800
H       0.84019399      1.69159311     -0.19877546
H       0.12160650      0.03774036     -0.16977936
H      -1.22765373      0.87275180      1.83703571
H      -0.34501289      2.32014135      1.83711035
H       1.01076009     -0.41322714      2.32942480
H       1.80237395      1.14886032      2.25007329
H       0.51042870      2.06451829      4.18773070
H      -0.18652051      0.40980808      4.39902888
H       2.17425304     -0.40639438      4.74267510
H       2.64299465      1.34883265      4.62487273
H       3.40429187      0.41401459      8.94596523
H       1.57119222      0.44677673      8.90605201
H       2.48326671      1.94497552      8.61954177
23
Frame 110  Energy = -425.5064542920 Hartree
C      -0.01244136      1.11133425      0.10201897
C      -0.24649381      1.25935350      1.61192063
C       0.83843100      0.70102387      2.50057663
C       0.64990339      1.01434137      4.00791966
C       1.83591109      0.64152008      4.86641365
C       1.64930093      1.01852205      6.36447621
O       0.74221647      1.74895949      6.76344262
O       2.60426556      0.47625649      7.10623886
C       2.50355658      0.82567108      8.50731455
H      -0.89118458      1.47303459     -0.41443791
H       0.84284058      1.69192761     -0.19949004
H       0.12694845      0.04650794     -0.16892459
H      -1.22581475      0.86686957      1.83429631
H      -0.34174971      2.32126746      1.84291090
H       1.00042242     -0.41199864      2.33337079
H       1.79679640      1.14632397      2.25556415
H       0.49917727      2.06012137      4.20369755
H      -0.19141134      0.41060106      4.38428673
H       2.17678645     -0.39762294      4.74917395
H       2.63952688      1.34980549      4.61927284
H       3.40235315      0.41019322      8.95497025
H       1.57400498      0.44203314      8.90501374
H       2.48385300      1.93919163      8.61034187
23
Frame 115  Energy = -425.5065613075 Hartree
C      -0.01336916      1.10958102      0.10210579
C      -0.24895404      1.25720104      1.61255667
C       0.83883514      0.70064369      2.50077261
C       0.64885070      1.01288752      4.00701912
C       1.83760801      0.64216872      4.86899390
C       1.64979994      1.01861709      6.36715736
O       0.74413372      1.74844584      6.76207414
O       2.60377523      0.47780871      7.10509028
C       2.50234356      0.82872370      8.50890072
H      -0.89560004      1.48089023     -0.41385978
H       0.84702266      1.69264427     -0.20097331
H       0.13284438      0.05615678     -0.16812421
H      -1.22536413      0.85925743      1.83225477
H      -0.33843228      2.32318505      1.84909854
H       0.98918143     -0.40819792      2.33772492
H       1.79228744      1.14422911      2.25959406
H       0.48655240      2.05764262      4.21923862
H      -0.19687328      0.41255803      4.36941143
H       2.17910952     -0.38829314      4.75587749
H       2.63711444      1.34982982      4.61231069
H       3.39983389      0.40621932      8.96455772
H       1.57658700      0.43691633      8.90444103
H       2.48475053      1.93128436      8.60117045
23
Frame 120  Energy = -425.5064514498 Hartree
C      -0.01427647      1.10775672      0.10236513
C      -0.25137985      1.25530668      1.61302848
C       0.83934054      0.70019019      2.50121234
C       0.64772689      1.01122052      4.00620562
C       1.83940672      0.64300231      4.87188243
C       1.65002740      1.01881548      6.36939914
O       0.74629266      1.74774797      6.76071060
O       2.60335374      0.47933961      7.10408525
C       2.50132469      0.83178200      8.51034096
H      -0.90013544      1.48911082     -0.41426190
H       0.85187133      1.69382246     -0.20327276
H       0.13920454      0.06593440     -0.16762585
H      -1.22656935      0.85017826      1.83096160
H      -0.33497983      2.32557462      1.85550261
H       0.97734418     -0.40260215      2.34273358
H       1.78941350      1.14263614      2.26202061
H       0.47253952      2.05646682      4.23384666
H      -0.20321827      0.41532611      4.35484711
H       2.18145113     -0.37897597      4.76250500
H       2.63608529      1.34912336      4.60442876
H       3.39668260      0.40206565      8.97417258
H       1.57888492      0.43135738      8.90418347
H       2.48597249      1.92182136      8.59224693
23
Frame 125  Energy = -425.5062260427 Hartree
C      -0.01509293      1.10605762      0.10277122
C      -0.25375389      1.25347842      1.61342455
C       0.83972221      0.69965901      2.50189040
C       0.64653268      1.00926535      4.00547581
C       1.84123951      0.64403315      4.87491129
C       1.64991662      1.01910147      6.37127383
O       0.74861998      1.74681042      6.75940992
O       2.60300075      0.48087341      7.10323977
C       2.50046663      0.83484720      8.51158160
H      -0.90456589      1.49745701     -0.41551662
H       0.85753125      1.69539245     -0.20636139
H       0.14543352      0.07525962     -0.16748422
H      -1.22878554      0.83969813      1.83035576
H      -0.33157200      2.32805049      1.86175605
H       0.96512275     -0.39565641      2.34817760
H       1.78833103      1.14163502      2.26323859
H       0.45709236      2.05611903      4.24756844
H      -0.21045563      0.41896111      4.34046496
H       2.18389819     -0.37046840      4.76939054
H       2.63645007      1.34728323      4.59553850
H       3.39302075      0.39789944      8.98364114
H       1.58079858      0.42486600      8.90463907
H       2.48735719      1.91229075      8.58361972
23
Frame 130  Energy = -425.5060182014 Hartree
C      -0.01580409      1.10452007      0.10332802
C      -0.25615206      1.25177690      1.61366615
C       0.84009415      0.69895487      2.50275237
C       0.64524212      1.00702458      4.00472746
C       1.84311043      0.64539069      4.87806903
C       1.64954385      1.01940179      6.37277123
O       0.75106665      1.74568855      6.75823420
O       2.60273172      0.48250199      7.10257127
C       2.49976387      0.83774444      8.51263462
H      -0.90808602      1.50553811     -0.41734690
H       0.86303437      1.69669402     -0.20985578
H       0.15163090      0.08327535     -0.16786043
H      -1.23177624      0.82790107      1.83080411
H      -0.32815449      2.33024388      1.86738641
H       0.95256340     -0.38773420      2.35401234
H       1.78933786      1.14122284      2.26269878
H       0.44037364      2.05621499      4.25994752
H      -0.21854759      0.42329411      4.32672230
H       2.18726333     -0.36363282      4.77650383
H       2.63802501      1.34460537      4.58597815
H       3.38858446      0.39414365      8.99256802
H       1.58202289      0.41804363      8.90555432
H       2.48912558      1.90397115      8.57552932
23
Frame 135  Energy = -425.5057843150 Hartree
C      -0.01646512      1.10323878      0.10401006
C      -0.25856295      1.25015222      1.61383527
C       0.84038847      0.69828679      2.50380260
C       0.64385378      1.00460573      4.00398747
C       1.84496324      0.64707035      4.88134588
C       1.64886359      1.01974983      6.37392664
O       0.75362889      1.74454102      6.75715604
O       2.60252104      0.48411310      7.10209869
C       2.49923217      0.84047999      8.51350137
H      -0.91049235      1.51295807     -0.41925898
H       0.86802167      1.69734183     -0.21290137
H       0.15802307      0.08919554     -0.16888671
H      -1.23542821      0.81515382      1.83216981
H      -0.32503599      2.33171053      1.87224213
H       0.93957535     -0.37955460      2.36010537
H       1.79258245      1.14130197      2.26043041
H       0.42305435      2.05610274      4.27094991
H      -0.22762857      0.42782554      4.31385669
H       2.19146079     -0.35820402      4.78366487
H       2.64046068      1.34099725      4.57603971
H       3.38318948      0.39105536      9.00102673
H       1.58242517      0.41127198      8.90710699
H       2.49069559      1.89741473      8.56844537
23
Frame 140  Energy = -425.5061519865 Hartree
C      -0.01716814      1.10232864      0.10463803
C      -0.26099136      1.24870918      1.61388585
C       0.84062773      0.69767749      2.50500200
C       0.64232609      1.00202347      4.00339634
C       1.84679066      0.64893063      4.88472070
C       1.64804577      1.02007155      6.37469264
O       0.75625051      1.74327937      6.75612970
O       2.60240448      0.48567641      7.10188203
C       2.49883998      0.84289086      8.51412530
H      -0.91138000      1.51915273     -0.42114864
H       0.87215088      1.69733318     -0.21559409
H       0.16453837      0.09222505     -0.17086322
H      -1.23943843      0.80204254      1.83416703
H      -0.32256832      2.33199741      1.87687351
H       0.92686526     -0.37246783      2.36638708
H       1.79728801      1.14177486      2.25619551
H       0.40585118      2.05571953      4.28012831
H      -0.23751326      0.43251372      4.30222062
H       2.19649240     -0.35461424      4.79054177
H       2.64378132      1.33644209      4.56557559
H       3.37667026      0.38868054      9.00865539
H       1.58255892      0.40458689      8.90899204
H       2.49206065      1.89330937      8.56264592
23
Frame 145  Energy = -425.5061401708 Hartree
C      -0.01784023      1.10184836      0.10528664
C      -0.26341847      1.24734088      1.61389526
C       0.84082989      0.69711193      2.50646231
C       0.64064018      0.99950976      4.00287660
C       1.84858650      0.65110542      4.88822542
C       1.64702786      1.02037300      6.37503918
O       0.75875398      1.74195746      6.75512808
O       2.60228737      0.48727410      7.10192194
C       2.49846114      0.84479816      8.51456334
H      -0.91052641      1.52419459     -0.42289581
H       0.87515848      1.69659255     -0.21830492
H       0.17067215      0.09239449     -0.17378180
H      -1.24287206      0.78897623      1.83726846
H      -0.32102325      2.33145175      1.88065296
H       0.91445152     -0.36687888      2.37264763
H       1.80312821      1.14284816      2.25034514
H       0.38868630      2.05420514      4.28686684
H      -0.24794160      0.43679080      4.29143516
H       2.20247795     -0.35332109      4.79703089
H       2.64788620      1.33083741      4.55496834
H       3.36899109      0.38682835      9.01565258
H       1.58274209      0.39841659      8.91103912
H       2.49327454      1.89296668      8.55854394
23
Frame 150  Energy = -425.5062785092 Hartree
C      -0.01849503      1.10175007      0.10592871
C      -0.26581683      1.24615025      1.61398751
C       0.84106129      0.69672575      2.50818224
C       0.63885162      0.99696168      4.00251765
C       1.85021939      0.65365970      4.89180500
C       1.64586302      1.02060717      6.37491747
O       0.76119769      1.74073795      6.75427323
O       2.60231397      0.48887273      7.10216874
C       2.49813298      0.84622644      8.51483491
H      -0.90770042      1.52792638     -0.42454553
H       0.87654732      1.69473760     -0.22007182
H       0.17647619      0.09014452     -0.17756458
H      -1.24547907      0.77653121      1.84099394
H      -0.32027410      2.32979855      1.88323362
H       0.90240993     -0.36328566      2.37875599
H       1.80953609      1.14407380      2.24313967
H       0.37209450      2.05107935      4.29163667
H      -0.25869524      0.44053442      4.28186849
H       2.20927608     -0.35409980      4.80313506
H       2.65265530      1.32458074      4.54465281
H       3.36070596      0.38571003      9.02193782
H       1.58317379      0.39270626      8.91352761
H       2.49419625      1.89664985      8.55597106
23
Frame 155  Energy = -425.5063722294 Hartree
C      -0.01906178      1.10211589      0.10668227
C      -0.26819745      1.24510520      1.61417680
C       0.84139250      0.69662319      2.51015950
C       0.63693801      0.99449161      4.00224262
C       1.85173107      0.65645681      4.89527873
C       1.64458103      1.02074532      6.37436760
O       0.76346068      1.73953263      6.75358644
O       2.60256337      0.49053864      7.10270023
C       2.49784029      0.84719183      8.51498263
H      -0.90306430      1.53010399     -0.42597457
H       0.87649966      1.69200537     -0.22094663
H       0.18182768      0.08537971     -0.18224116
H      -1.24715541      0.76470807      1.84482931
H      -0.32048358      2.32693751      1.88485838
H       0.89123768     -0.36237335      2.38440031
H       1.81584715      1.14530059      2.23500668
H       0.35621381      2.04637798      4.29459471
H      -0.26962680      0.44371704      4.27368284
H       2.21684066     -0.35678373      4.80906385
H       2.65800556      1.31757489      4.53445710
H       3.35233348      0.38558432      9.02772309
H       1.58375888      0.38742306      8.91625490
H       2.49496609      1.90386354      8.55477655
23
Frame 160  Energy = -425.5065543669 Hartree
C      -0.01959436      1.10284740      0.10750025
C      -0.27055088      1.24420958      1.61445346
C       0.84188847      0.69678402      2.51225268
C       0.63504673      0.99199342      4.00211235
C       1.85301116      0.65943219      4.89863596
C       1.64324879      1.02090977      6.37334421
O       0.76552223      1.73835325      6.75307404
O       2.60294256      0.49225072      7.10351259
C       2.49758077      0.84781237      8.51499819
H      -0.89672622      1.53091518     -0.42746112
H       0.87498099      1.68841825     -0.22120459
H       0.18660826      0.07892858     -0.18750334
H      -1.24767963      0.75350626      1.84881775
H      -0.32172596      2.32290941      1.88576009
H       0.88088535     -0.36414986      2.38979433
H       1.82130284      1.14582903      2.22617798
H       0.34141600      2.04023924      4.29577475
H      -0.28018918      0.44615243      4.26693682
H       2.22470203     -0.36059594      4.81484035
H       2.66404167      1.31025957      4.52460874
H       3.34421648      0.38623399      9.03283513
H       1.58439612      0.38350192      8.91887601
H       2.49516131      1.91385101      8.55474195
23
Frame 165  Energy = -425.5065491739 Hartree
C      -0.02006047      1.10383659      0.10827603
C      -0.27292225      1.24342556      1.61478214
C       0.84253352      0.69720878      2.51438655
C       0.63309184      0.98943599      4.00203825
C       1.85413320      0.66251300      4.90184490
C       1.64197379      1.02107808      6.37186224
O       0.76745654      1.73729840      6.75268527
O       2.60336862      0.49391959      7.10458104
C       2.49727592      0.84816715      8.51500053
H      -0.88958159      1.53051628     -0.42887012
H       0.87237642      1.68446977     -0.22020878
H       0.19066554      0.07143021     -0.19305522
H      -1.24657936      0.74351147      1.85306556
H      -0.32413252      2.31792010      1.88587493
H       0.87109873     -0.36853898      2.39489472
H       1.82581864      1.14545880      2.21717057
H       0.32781840      2.03300846      4.29473357
H      -0.29022959      0.44770577      4.26123168
H       2.23247229     -0.36495649      4.82038396
H       2.67034020      1.30274347      4.51552553
H       3.33663987      0.38755983      9.03702892
H       1.58550757      0.38116312      8.92124351
H       2.49492117      1.92600000      8.55583029
23
Frame 170  Energy = -425.5064499724 Hartree
C      -0.02039129      1.10503078      0.10903221
C      -0.27526328      1.24271337      1.61514127
C       0.84338810      0.69790311      2.51651962
C       0.63086717      0.98695163      4.00206683
C       1.85521628      0.66566344      4.90488459
C       1.64090095      1.02117023      6.36985408
O       0.76920730      1.73636584      6.75245285
O       2.60387659      0.49562084      7.10594827
C       2.49689094      0.84828366      8.51490634
H      -0.88163280      1.52877757     -0.43059303
H       0.86896730      1.68034686     -0.21872727
H       0.19376551      0.06388406     -0.19840626
H      -1.24420711      0.73469863      1.85726889
H      -0.32764805      2.31243071      1.88481836
H       0.86209271     -0.37519074      2.39957938
H       1.82929506      1.14385537      2.20798202
H       0.31533294      2.02428360      4.29143824
H      -0.29937851      0.44861384      4.25684896
H       2.23923139     -0.36897512      4.82566906
H       2.67685575      1.29491266      4.50730901
H       3.32961843      0.38931860      9.04023319
H       1.58682504      0.38029203      8.92329126
H       2.49415183      1.93921863      8.55822517
23
Frame 175  Energy = -425.5065177119 Hartree
C      -0.02051976      1.10628226      0.10981674
C      -0.27756159      1.24204527      1.61555760
C       0.84435942      0.69875568      2.51862281
C       0.62842830      0.98455162      4.00224442
C       1.85629649      0.66879603      4.90781432
C       1.64005387      1.02106555      6.36738771
O       0.77079645      1.73558633      6.75241894
O       2.60454077      0.49725354      7.10754286
C       2.49634821      0.84825452      8.51467781
H      -0.87352702      1.52593297     -0.43255949
H       0.86498447      1.67610231     -0.21646923
H       0.19588206      0.05717653     -0.20330302
H      -1.24041832      0.72716547      1.86143620
H      -0.33245202      2.30682588      1.88316892
H       0.85447462     -0.38344732      2.40394447
H       1.83122506      1.14079309      2.19883915
H       0.30392652      2.01446287      4.28638841
H      -0.30761890      0.44855067      4.25375050
H       2.24493496     -0.37207876      4.83087700
H       2.68328223      1.28704002      4.49994088
H       3.32351601      0.39127746      9.04271947
H       1.58809975      0.38090829      8.92514584
H       2.49262941      1.95242822      8.56171867
23
Frame 180  Energy = -425.5064797134 Hartree
C      -0.02043973      1.10749331      0.11066728
C      -0.27984222      1.24136021      1.61596517
C       0.84544305      0.69971668      2.52066672
C       0.62579420      0.98217805      4.00250132
C       1.85731555      0.67176774      4.91054868
C       1.63941787      1.02083703      6.36447013
O       0.77217177      1.73508106      6.75251285
O       2.60531830      0.49884601      7.10939399
C       2.49571303      0.84830696      8.51431425
H      -0.86562025      1.52253517     -0.43479030
H       0.86037405      1.67219743     -0.21350580
H       0.19657875      0.05218614     -0.20747047
H      -1.23544850      0.72094809      1.86548806
H      -0.33851971      2.30176228      1.88045146
H       0.84837564     -0.39248611      2.40778966
H       1.83155064      1.13630308      2.18994524
H       0.29380768      2.00397617      4.27987294
H      -0.31484916      0.44728700      4.25157447
H       2.24947234     -0.37430855      4.83596349
H       2.68962945      1.27885450      4.49385235
H       3.31858125      0.39317244      9.04454453
H       1.58935996      0.38282837      8.92678590
H       2.49089417      1.96441424      8.56627050
23
Frame 185  Energy = -425.5062775549 Hartree
C      -0.02017358      1.10866333      0.11148307
C      -0.28211171      1.24060891      1.61638533
C       0.84661272      0.70082860      2.52263675
C       0.62296926      0.97978568      4.00290612
C       1.85826885      0.67456844      4.91296370
C       1.63913691      1.02046923      6.36119074
O       0.77336306      1.73469899      6.75267165
O       2.60613631      0.50045260      7.11148423
C       2.49505264      0.84846746      8.51383999
H      -0.85792795      1.51855876     -0.43756124
H       0.85560833      1.66878089     -0.20995631
H       0.19564557      0.04903705     -0.21069290
H      -1.22939988      0.71606604      1.86968741
H      -0.34607307      2.29702796      1.87713447
H       0.84358486     -0.40162288      2.41112504
H       1.83009046      1.13058115      2.18115006
H       0.28550062      1.99328376      4.27212449
H      -0.32054404      0.44472641      4.25066507
H       2.25277884     -0.37555497      4.84097201
H       2.69556461      1.27060681      4.48883064
H       3.31509807      0.39503406      9.04613949
H       1.59031925      0.38629173      8.92805643
H       2.48901842      1.97441510      8.57181534
23
Frame 190  Energy = -425.5064385376 Hartree
C      -0.01974286      1.10956259      0.11240743
C      -0.28425012      1.23976425      1.61678636
C       0.84774991      0.70190366      2.52455448
C       0.61999244      0.97738440      4.00351118
C       1.85914596      0.67722243      4.91503585
C       1.63913054      1.01994319      6.35770040
O       0.77429892      1.73453810      6.75299032
O       2.60702398      0.50208277      7.11374750
C       2.49430773      0.84880812      8.51327842
H      -0.85112162      1.51415529     -0.44103771
H       0.85131316      1.66603194     -0.20574310
H       0.19322319      0.04780783     -0.21314323
H      -1.22275043      0.71231323      1.87433241
H      -0.35503785      2.29275759      1.87351380
H       0.84011361     -0.41007370      2.41407207
H       1.82694921      1.12364863      2.17292151
H       0.27884075      1.98349160      4.26334214
H      -0.32442439      0.44120219      4.25114936
H       2.25485608     -0.37504369      4.84627150
H       2.70041167      1.26263478      4.48510382
H       3.31297122      0.39712433      9.04734933
H       1.59108916      0.39124640      8.92924503
H       2.48695851      1.98165243      8.57854329
23
Frame 195  Energy = -425.5067620064 Hartree
C      -0.01926779      1.11014936      0.11340731
C      -0.28621198      1.23877661      1.61712094
C       0.84887567      0.70298440      2.52640097
C       0.61687736      0.97496350      4.00437418
C       1.86001270      0.67961769      4.91663668
C       1.63938690      1.01933030      6.35404330
O       0.77495494      1.73459629      6.75341238
O       2.60789589      0.50371587      7.11617236
C       2.49347594      0.84940074      8.51255936
H      -0.84543797      1.50948410     -0.44500754
H       0.84814068      1.66422881     -0.20144102
H       0.18957656      0.04886733     -0.21441803
H      -1.21591364      0.70963841      1.87889149
H      -0.36559050      2.28947417      1.86948447
H       0.83803291     -0.41719482      2.41640113
H       1.82254420      1.11567068      2.16511513
H       0.27337150      1.97513843      4.25367755
H      -0.32637974      0.43638494      4.25253208
H       2.25532206     -0.37286629      4.85169335
H       2.70453151      1.25461359      4.48271934
H       3.31260729      0.39912374      9.04808767
H       1.59116515      0.39701148      8.93018446
H       2.48459823      1.98528852      8.58615190
23
Frame 200  Energy = -425.5068295255 Hartree
C      -0.01879778      1.11043198      0.11448447
C      -0.28800712      1.23767546      1.61750514
C       0.84999440      0.70391050      2.52813048
C       0.61370321      0.97248892      4.00544234
C       1.86086191      0.68176260      4.91784130
C       1.63987100      1.01864445      6.35017837
O       0.77538401      1.73482390      6.75398684
O       2.60875324      0.50520733      7.11881345
C       2.49254361      0.85028471      8.51183405
H      -0.84126944      1.50496784     -0.44990704
H       0.84664762      1.66396958     -0.19701443
H       0.18490188      0.05202130     -0.21470766
H      -1.20928952      0.70766516      1.88333807
H      -0.37714094      2.28741442      1.86513404
H       0.83707928     -0.42271353      2.41851976
H       1.81708806      1.10696325      2.15795696
H       0.26892646      1.96847053      4.24322541
H      -0.32641697      0.43100966      4.25488092
H       2.25398925     -0.36913109      4.85720960
H       2.70794778      1.24698961      4.48173457
H       3.31400090      0.40116364      9.04868296
H       1.59069566      0.40360145      8.93070588
H       2.48228131      1.98555255      8.59408661
23
Frame 205  Energy = -425.5069256959 Hartree
C      -0.01830606      1.11058785      0.11565890
C      -0.28961279      1.23652776      1.61789299
C       0.85110738      0.70462508      2.52971629
C       0.61050158      0.96981474      4.00657720
C       1.86155050      0.68359190      4.91867375
C       1.64063008      1.01798663      6.34619877
O       0.77555829      1.73516208      6.75471818
O       2.60973503      0.50666315      7.12160166
C       2.49149258      0.85144000      8.51101325
H      -0.83886399      1.50034390     -0.45599686
H       0.84697794      1.66500442     -0.19228375
H       0.17955251      0.05731515     -0.21405042
H      -1.20339807      0.70622456      1.88773022
H      -0.38983977      2.28657117      1.86079043
H       0.83714361     -0.42643242      2.42024508
H       1.81076361      1.09766831      2.15118212
H       0.26532037      1.96383124      4.23221599
H      -0.32492597      0.42470440      4.25841991
H       2.25115956     -0.36414347      4.86294092
H       2.71085877      1.24001014      4.48190218
H       3.31706831      0.40297745      9.04916800
H       1.58909058      0.41078723      8.93079090
H       2.47989843      1.98240226      8.60234898
23
Frame 210  Energy = -425.5067623339 Hartree
C      -0.01776352      1.11051716      0.11688197
C      -0.29094590      1.23533873      1.61830886
C       0.85215079      0.70504245      2.53113810
C       0.60731229      0.96694978      4.00770910
C       1.86214653      0.68511265      4.91907315
C       1.64161806      1.01740627      6.34228039
O       0.77557292      1.73565960      6.75553488
O       2.61068500      0.50808738      7.12442504
C       2.49043133      0.85284461      8.51014680
H      -0.83809833      1.49560272     -0.46330704
H       0.84901555      1.66751990     -0.18743563
H       0.17361318      0.06385570     -0.21258586
H      -1.19856252      0.70516986      1.89227183
H      -0.40351852      2.28722891      1.85671632
H       0.83844921     -0.42772041      2.42174308
H       1.80414007      1.08812697      2.14492881
H       0.26273552      1.96177368      4.22080421
H      -0.32213599      0.41779549      4.26319860
H       2.24705717     -0.35819921      4.86891587
H       2.71341708      1.23362703      4.48333842
H       3.32135615      0.40491937      9.04936465
H       1.58670803      0.41883850      8.93050600
H       2.47743764      1.97605056      8.61092361
23
Frame 215  Energy = -425.5065498630 Hartree
C      -0.01719351      1.11016374      0.11815145
C      -0.29192270      1.23413746      1.61877180
C       0.85303670      0.70509468      2.53244255
C       0.60414367      0.96388001      4.00898332
C       1.86266904      0.68637774      4.91905904
C       1.64278223      1.01695613      6.33839022
O       0.77549072      1.73628817      6.75642822
O       2.61158054      0.50944971      7.12737746
C       2.48930889      0.85453113      8.50927826
H      -0.83888248      1.49111515     -0.47140710
H       0.85273621      1.67097565     -0.18254646
H       0.16699598      0.07115524     -0.21028974
H      -1.19482436      0.70438620      1.89706983
H      -0.41842560      2.28911621      1.85309131
H       0.84071849     -0.42609863      2.42277338
H       1.79739759      1.07824368      2.13927097
H       0.26104725      1.96235073      4.20893571
H      -0.31774427      0.40982819      4.26911008
H       2.24187968     -0.35155508      4.87479022
H       2.71553298      1.22807067      4.48590402
H       3.32657338      0.40694090      9.04925656
H       1.58344388      0.42751412      8.92987193
H       2.47480054      1.96734363      8.61989784
23
Frame 220  Energy = -425.5062206870 Hartree
C      -0.01673325      1.10958347      0.11947339
C      -0.29268231      1.23295574      1.61927555
C       0.85370450      0.70475161      2.53359725
C       0.60100995      0.96069092      4.01042700
C       1.86309502      0.68739154      4.91861880
C       1.64415093      1.01674355      6.33461221
O       0.77540896      1.73699138      6.75737305
O       2.61240261      0.51073317      7.13038991
C       2.48807631      0.85634200      8.50853061
H      -0.84092173      1.48686837     -0.48019441
H       0.85818287      1.67558540     -0.17763054
H       0.16013882      0.07892639     -0.20727016
H      -1.19245560      0.70353984      1.90193388
H      -0.43428725      2.29194741      1.84980873
H       0.84409203     -0.42204608      2.42369774
H       1.79128350      1.06883842      2.13415988
H       0.25973001      1.96556372      4.19673707
H      -0.31173555      0.40059978      4.27606858
H       2.23569799     -0.34463190      4.88025552
H       2.71739855      1.22372249      4.48937009
H       3.33206782      0.40922935      9.04821507
H       1.57946022      0.43629283      8.92927347
H       2.47211674      1.95698908      8.62913515
23
Frame 225  Energy = -425.5060430793 Hartree
C      -0.01628243      1.10888617      0.12087105
C      -0.29323231      1.23178388      1.61986983
C       0.85411514      0.70413466      2.53467310
C       0.59806136      0.95737539      4.01201143
C       1.86333869      0.68823451      4.91775359
C       1.64565545      1.01676969      6.33096981
O       0.77537725      1.73766512      6.75842881
O       2.61325251      0.51202528      7.13341394
C       2.48677909      0.85814209      8.50785484
H      -0.84390228      1.48303966     -0.48931875
H       0.86512524      1.68070551     -0.17256908
H       0.15325841      0.08631497     -0.20383665
H      -1.19173959      0.70278586      1.90706852
H      -0.45048573      2.29497481      1.84689086
H       0.84821237     -0.41607673      2.42425368
H       1.78632020      1.06007287      2.12941020
H       0.25885463      1.97088738      4.18463965
H      -0.30415574      0.39004603      4.28381313
H       2.22848760     -0.33792373      4.88537166
H       2.71923211      1.22060075      4.49354938
H       3.33814512      0.41218891      9.04676757
H       1.57480129      0.44487073      8.92860864
H       2.46971056      1.94554666      8.63859478
23
Frame 230  Energy = -425.5060317552 Hartree
C      -0.01578329      1.10823604      0.12227062
C      -0.29362979      1.23081988      1.62051485
C       0.85418800      0.70328283      2.53559882
C       0.59517730      0.95405278      4.01366823
C       1.86341027      0.68895613      4.91645746
C       1.64728476      1.01699149      6.32754462
O       0.77530006      1.73831085      6.75955074
O       2.61408910      0.51328293      7.13636743
C       2.48556074      0.85983694      8.50723521
H      -0.84733399      1.47978074     -0.49796345
H       0.87244023      1.68643012     -0.16741711
H       0.14658298      0.09278061     -0.20059246
H      -1.19268117      0.70187560      1.91227196
H      -0.46709177      2.29761808      1.84397503
H       0.85314601     -0.40862401      2.42456879
H       1.78320261      1.05214369      2.12557795
H       0.25878770      1.97805038      4.17286246
H      -0.29557649      0.37842815      4.29258432
H       2.22096977     -0.33224318      4.88979967
H       2.72090502      1.21854711      4.49844391
H       3.34431905      0.41589706      9.04431422
H       1.56949658      0.45349993      8.92788810
H       2.46759189      1.93380760      8.64832979
23
Frame 235  Energy = -425.5061256468 Hartree
C      -0.01529289      1.10762089      0.12359632
C      -0.29388796      1.22993574      1.62118321
C       0.85395298      0.70212507      2.53633863
C       0.59236138      0.95075352      4.01530557
C       1.86336412      0.68956745      4.91481537
C       1.64896347      1.01747344      6.32448347
O       0.77518328      1.73894812      6.76072917
O       2.61487458      0.51447734      7.13918080
C       2.48442684      0.86140110      8.50678730
H      -0.85031094      1.47681801     -0.50576085
H       0.87941001      1.69216969     -0.16191524
H       0.14071726      0.09773592     -0.19754437
H      -1.19503994      0.70059411      1.91727426
H      -0.48366558      2.29947314      1.84102043
H       0.85887470     -0.40059157      2.42468288
H       1.78266280      1.04562159      2.12258232
H       0.25974260      1.98606695      4.16130963
H      -0.28624668      0.36600334      4.30215123
H       2.21311059     -0.32827473      4.89359612
H       2.72270129      1.21781712      4.50357409
H       3.35002742      0.42041982      9.04071510
H       1.56372648      0.46205134      8.92740145
H       2.46576603      1.92303577      8.65837946
23
Frame 240  Energy = -425.5061524992 Hartree
C      -0.01475791      1.10717822      0.12485009
C      -0.29387953      1.22905567      1.62191804
C       0.85343850      0.70071001      2.53688919
C       0.58964421      0.94741013      4.01688182
C       1.86311077      0.69004961      4.91282602
C       1.65062280      1.01820745      6.32175644
O       0.77505769      1.73951443      6.76201727
O       2.61558588      0.51562645      7.14182439
C       2.48327411      0.86292580      8.50641908
H      -0.85270094      1.47387636     -0.51233812
H       0.88558138      1.69716190     -0.15657514
H       0.13563836      0.10053265     -0.19480548
H      -1.19853227      0.69858911      1.92183421
H      -0.50000155      2.30049171      1.83850596
H       0.86520600     -0.39201743      2.42394893
H       1.78448772      1.04074135      2.12031045
H       0.26167453      1.99443807      4.15026036
H      -0.27659552      0.35250109      4.31252660
H       2.20524477     -0.32665120      4.89651271
H       2.72489637      1.21879123      4.50871100
H       3.35477005      0.42582554      9.03604258
H       1.55740922      0.47015403      8.92686830
H       2.46414067      1.91423200      8.66845857
23
Frame 245  Energy = -425.5060574836 Hartree
C      -0.01419137      1.10701414      0.12591704
C      -0.29373535      1.22820070      1.62269650
C       0.85261363      0.69921454      2.53732175
C       0.58717533      0.94418830      4.01843807
C       1.86264470      0.69036692      4.91053155
C       1.65226886      1.01916049      6.31942658
O       0.77493197      1.73995696      6.76326574
O       2.61627980      0.51672539      7.14428048
C       2.48207827      0.86424163      8.50615904
H      -0.85423944      1.47137976     -0.51721728
H       0.89053688      1.70124898     -0.15075391
H       0.13146411      0.10073783     -0.19233636
H      -1.20263394      0.69608153      1.92584176
H      -0.51555403      2.30065715      1.83612460
H       0.87216547     -0.38334985      2.42274327
H       1.78845889      1.03741879      2.11860598
H       0.26411150      2.00202575      4.13960938
H      -0.26670488      0.33828439      4.32367237
H       2.19717271     -0.32777792      4.89869379
H       2.72741380      1.22117748      4.51392950
H       3.35809095      0.43191425      9.03026781
H       1.55095729      0.47786504      8.92625097
H       2.46260151      1.90816678      8.67828226
23
Frame 250  Energy = -425.5061775989 Hartree
C      -0.01376893      1.10712674      0.12682754
C      -0.29365381      1.22738556      1.62351326
C       0.85147447      0.69773967      2.53754279
C       0.58486531      0.94122758      4.02002063
C       1.86191920      0.69065595      4.90791981
C       1.65379653      1.02030630      6.31762276
O       0.77482061      1.74039621      6.76448501
O       2.61695606      0.51776210      7.14667212
C       2.48087631      0.86524225      8.50607860
H      -0.85463077      1.46912923     -0.52014152
H       0.89450885      1.70457697     -0.14424212
H       0.12869000      0.09822466     -0.19013725
H      -1.20704018      0.69360694      1.92919600
H      -0.53002002      2.29948443      1.83371444
H       0.87980691     -0.37520499      2.42093566
H       1.79382384      1.03571052      2.11746332
H       0.26706428      2.00858435      4.12933583
H      -0.25685508      0.32330707      4.33559779
H       2.18873151     -0.33137241      4.89994065
H       2.72979054      1.22470658      4.51894949
H       3.36021719      0.43851652      9.02348176
H       1.54442225      0.48491005      8.92566768
H       2.46120028      1.90509992      8.68781838
23
Frame 255  Energy = -425.5061770905 Hartree
C      -0.01345992      1.10749727      0.12765985
C      -0.29364823      1.22660127      1.62440879
C       0.85016973      0.69623124      2.53759969
C       0.58288482      0.93858551      4.02154503
C       1.86103216      0.69091709      4.90499735
C       1.65511218      1.02173989      6.31641472
O       0.77471656      1.74076385      6.76568488
O       2.61759153      0.51884167      7.14892586
C       2.47970391      0.86590815      8.50614341
H      -0.85365376      1.46709083     -0.52130720
H       0.89733887      1.70647685     -0.13725950
H       0.12708059      0.09333625     -0.18801193
H      -1.21153201      0.69137161      1.93189293
H      -0.54343241      2.29700593      1.83147052
H       0.88768602     -0.36906344      2.41829665
H       1.80003472      1.03507878      2.11706686
H       0.27047282      2.01370063      4.12003147
H      -0.24682662      0.30822351      4.34822552
H       2.18043524     -0.33719033      4.90017385
H       2.73235544      1.22925803      4.52363061
H       3.36144218      0.44547033      9.01618219
H       1.53811806      0.49144517      8.92485547
H       2.46009072      1.90535779      8.69698203
23
Frame 260  Energy = -425.5061149370 Hartree
C      -0.01317060      1.10811278      0.12841109
C      -0.29379159      1.22579263      1.62537600
C       0.84862798      0.69468374      2.53747848
C       0.58131622      0.93618078      4.02311393
C       1.85994802      0.69119316      4.90174151
C       1.65633893      1.02341551      6.31576833
O       0.77464332      1.74105244      6.76687000
O       2.61819836      0.51998181      7.15099392
C       2.47855243      0.86637750      8.50638978
H      -0.85144669      1.46506826     -0.52081598
H       0.89879991      1.70706861     -0.13002201
H       0.12648171      0.08601587     -0.18627919
H      -1.21543033      0.68951802      1.93354337
H      -0.55591131      2.29297154      1.82919802
H       0.89577334     -0.36552423      2.41468809
H       1.80667903      1.03534427      2.11804359
H       0.27403170      2.01709912      4.11161634
H      -0.23692227      0.29317010      4.36128578
H       2.17191038     -0.34478583      4.89957621
H       2.73519872      1.23489873      4.52831258
H       3.36195774      0.45243554      9.00833774
H       1.53253244      0.49716061      8.92446763
H       2.45936103      1.90912836      8.70561477
23
Frame 265  Energy = -425.5060588116 Hartree
C      -0.01287078      1.10888218      0.12908305
C      -0.29397123      1.22497781      1.62631544
C       0.84692860      0.69319179      2.53715702
C       0.58004819      0.93394401      4.02462854
C       1.85871615      0.69139084      4.89808252
C       1.65747309      1.02543499      6.31568005
O       0.77458857      1.74121616      6.76796045
O       2.61877505      0.52108797      7.15275402
C       2.47749383      0.86675413      8.50688039
H      -0.84818863      1.46345815     -0.51886894
H       0.89879315      1.70637555     -0.12279817
H       0.12666946      0.07684387     -0.18483011
H      -1.21872041      0.68787112      1.93421389
H      -0.56688071      2.28781731      1.82710255
H       0.90419493     -0.36514735      2.41017308
H       1.81341301      1.03680211      2.12045647
H       0.27821910      2.01849075      4.10444060
H      -0.22706916      0.27884659      4.37459006
H       2.16351760     -0.35387433      4.89822524
H       2.73779833      1.24130625      4.53270882
H       3.36150942      0.45907434      9.00046261
H       1.52758166      0.50182461      8.92424509
H       2.45922247      1.91629536      8.71364699
23
Frame 270  Energy = -425.5058930290 Hartree
C      -0.01251291      1.10975990      0.12960353
C      -0.29427241      1.22415808      1.62734790
C       0.84519178      0.69180157      2.53666964
C       0.57908436      0.93197396      4.02604458
C       1.85735114      0.69147725      4.89414204
C       1.65860302      1.02777985      6.31593596
O       0.77466057      1.74122983      6.76886465
O       2.61926795      0.52216354      7.15417288
C       2.47643979      0.86700593      8.50746219
H      -0.84398753      1.46206283     -0.51570152
H       0.89724140      1.70443953     -0.11590480
H       0.12770076      0.06699961     -0.18317262
H      -1.22140743      0.68601420      1.93370934
H      -0.57666086      2.28189007      1.82562558
H       0.91283565     -0.36770295      2.40479373
H       1.81974075      1.03918014      2.12443870
H       0.28268550      2.01756111      4.09874971
H      -0.21723768      0.26532885      4.38781417
H       2.15543923     -0.36388916      4.89597250
H       2.74011085      1.24818410      4.53649103
H       3.36032485      0.46502602      8.99301207
H       1.52322562      0.50546013      8.92378429
H       2.45958981      1.92631687      8.72127586
23
Frame 275  Energy = -425.5059151727 Hartree
C      -0.01213989      1.11058505      0.13009561
C      -0.29469412      1.22344899      1.62850099
C       0.84336819      0.69055692      2.53600223
C       0.57844819      0.93029503      4.02748565
C       1.85594881      0.69148488      4.89000668
C       1.65960001      1.03035146      6.31667653
O       0.77479032      1.74113246      6.76972524
O       2.61971168      0.52321179      7.15528343
C       2.47537515      0.86715493      8.50819441
H      -0.83945381      1.46113655     -0.51126054
H       0.89440702      1.70153805     -0.10915764
H       0.12961024      0.05718275     -0.18098407
H      -1.22341179      0.68430051      1.93233061
H      -0.58517540      2.27534270      1.82429460
H       0.92136740     -0.37315416      2.39806212
H       1.82546979      1.04271476      2.13014244
H       0.28746619      2.01409499      4.09405138
H      -0.20750142      0.25313101      4.40122551
H       2.14734798     -0.37447523      4.89290056
H       2.74201071      1.25510151      4.53990486
H       3.35909929      0.47009198      8.98638713
H       1.51996059      0.50839239      8.92321357
H       2.46026190      1.93824672      8.72767451
23
Frame 280  Energy = -425.5058708111 Hartree
C      -0.01181141      1.11131959      0.13043067
C      -0.29528460      1.22277679      1.62975056
C       0.84156138      0.68935760      2.53523905
C       0.57811079      0.92893933      4.02889158
C       1.85451724      0.69129021      4.88581234
C       1.66050602      1.03311491      6.31799330
O       0.77492837      1.74100724      6.77054898
O       2.62007825      0.52433668      7.15614301
C       2.47417503      0.86734709      8.50914346
H      -0.83414158      1.46085554     -0.50576407
H       0.89089252      1.69791372     -0.10275981
H       0.13251113      0.04816742     -0.17808140
H      -1.22440737      0.68269870      1.92990160
H      -0.59229063      2.26828807      1.82338546
H       0.92997523     -0.38075070      2.39036324
H       1.83009394      1.04743402      2.13754373
H       0.29198380      2.00823974      4.09055703
H      -0.19759107      0.24233886      4.41411119
H       2.13919571     -0.38431933      4.88919554
H       2.74275359      1.26169457      4.54304393
H       3.35815428      0.47426680      8.98059448
H       1.51761692      0.51058818      8.92262252
H       2.46129560      1.95082290      8.73263691
23
Frame 285  Energy = -425.5058503911 Hartree
C      -0.01147008      1.11193417      0.13068178
C      -0.29607495      1.22200664      1.63104352
C       0.83973487      0.68810706      2.53437392
C       0.57803826      0.92775932      4.03018657
C       1.85308781      0.69084160      4.88156725
C       1.66130477      1.03607718      6.31967927
O       0.77515008      1.74086776      6.77133011
O       2.62035848      0.52550729      7.15673555
C       2.47283634      0.86758267      8.51022595
H      -0.82872289      1.46113571     -0.49996429
H       0.88727197      1.69376340     -0.09659124
H       0.13618723      0.04054805     -0.17454835
H      -1.22466708      0.68069040      1.92650762
H      -0.59789233      2.26132433      1.82324362
H       0.93828504     -0.38976010      2.38227504
H       1.83315010      1.05302179      2.14669038
H       0.29575462      2.00035686      4.08864759
H      -0.18752628      0.23304774      4.42650051
H       2.13100520     -0.39329309      4.88465810
H       2.74242193      1.26747838      4.54580180
H       3.35799163      0.47732676      8.97613704
H       1.51608523      0.51208863      8.92195199
H       2.46250673      1.96306281      8.73614985
23
Frame 290  Energy = -425.5057276759 Hartree
C      -0.01108767      1.11223232      0.13092763
C      -0.29715494      1.22112254      1.63244432
C       0.83788749      0.68684213      2.53341381
C       0.57827163      0.92665196      4.03133570
C       1.85174482      0.69011373      4.87729378
C       1.66199054      1.03915132      6.32178087
O       0.77543962      1.74071111      6.77199465
O       2.62059531      0.52676506      7.15707129
C       2.47142890      0.86807680      8.51145371
H      -0.82369847      1.46219428     -0.49411140
H       0.88352548      1.68941299     -0.09093315
H       0.14042855      0.03460935     -0.17053589
H      -1.22376768      0.67829128      1.92220098
H      -0.60209510      2.25487966      1.82358259
H       0.94611108     -0.39943150      2.37398075
H       1.83449344      1.05935352      2.15749028
H       0.29917122      1.99113490      4.08835422
H      -0.17748764      0.22535472      4.43828270
H       2.12287412     -0.40068828      4.87945663
H       2.74096949      1.27257568      4.54832426
H       3.35836705      0.47895339      8.97320924
H       1.51565822      0.51313237      8.92112866
H       2.46385957      1.97422060      8.73784753
23
Frame 295  Energy = -425.5055396520 Hartree
C      -0.01067231      1.11210784      0.13122279
C      -0.29835525      1.22013435      1.63389393
C       0.83604877      0.68551294      2.53234599
C       0.57877654      0.92551336      4.03247139
C       1.85056959      0.68922473      4.87300473
C       1.66254426      1.04231250      6.32427666
O       0.77576280      1.74043924      6.77260910
O       2.62069678      0.52804636      7.15716231
C       2.46989430      0.86891753      8.51284127
H      -0.81946811      1.46414699     -0.48807082
H       0.88006326      1.68526857     -0.08580311
H       0.14506422      0.03077006     -0.16562492
H      -1.22200836      0.67548484      1.91685238
H      -0.60496268      2.24914645      1.82459621
H       0.95311579     -0.40904454      2.36576996
H       1.83378123      1.06659132      2.16998903
H       0.30179521      1.98092148      4.08952241
H      -0.16771787      0.21933256      4.44896400
H       2.11487931     -0.40593404      4.87340590
H       2.73864209      1.27712963      4.55054238
H       3.35947232      0.47910462      8.97150463
H       1.51603514      0.51330069      8.92016850
H       2.46530192      1.98360512      8.73768431
23
Frame 300  Energy = -425.5054016280 Hartree
C      -0.01015485      1.11159090      0.13160704
C      -0.29973825      1.21917717      1.63534401
C       0.83433933      0.68409842      2.53121301
C       0.57956942      0.92429906      4.03350730
C       1.84948756      0.68809694      4.86887497
C       1.66304361      1.04560898      6.32705890
O       0.77607397      1.74003842      6.77327413
O       2.62071410      0.52938006      7.15701170
C       2.46826637      0.87015467      8.51444733
H      -0.81629179      1.46702283     -0.48206540
H       0.87718583      1.68140336     -0.08123960
H       0.14986669      0.02987411     -0.16016802
H      -1.21943367      0.67212239      1.91071647
H      -0.60670542      2.24419143      1.82649912
H       0.95902696     -0.41767362      2.35747622
H       1.83090003      1.07442184      2.18382323
H       0.30355777      1.97004116      4.09225775
H      -0.15817640      0.21502435      4.45841233
H       2.10724475     -0.40926789      4.86641093
H       2.73510078      1.28118140      4.55244253
H       3.36087966      0.47789626      8.97105067
H       1.51738649      0.51223318      8.91910052
H       2.46696359      1.99063063      8.73542086
