7
Frame 5  Energy = -245.1590625582 Hartree
C      -0.66378913     -0.78821426      0.83021337
N      -1.89802490     -0.90149202      0.00180533
O      -2.93461846     -1.08053414      0.58942943
O      -1.70491714     -0.88633477     -1.18923750
H       0.09739558     -1.19589161      0.21256097
H      -0.84371031     -1.25772537      1.78209859
H      -0.36247857      0.24305886      0.88914084
7
Frame 10  Energy = -245.1591341649 Hartree
C      -0.66269601     -0.78858231      0.83236973
N      -1.89952322     -0.90219947     -0.00111948
O      -2.93478241     -1.07535549      0.58831538
O      -1.70424703     -0.89054081     -1.18657512
H       0.08626809     -1.19508941      0.21096984
H      -0.84751635     -1.26487855      1.78252785
H      -0.35711677      0.24142088      0.89098618
7
Frame 15  Energy = -245.1590313966 Hartree
C      -0.66175686     -0.78885302      0.83444316
N      -1.90077078     -0.90291361     -0.00392472
O      -2.93513561     -1.07015302      0.58719577
O      -1.70363360     -0.89468844     -1.18400237
H       0.07716766     -1.19672410      0.20880808
H      -0.85133517     -1.27186979      1.78348405
H      -0.35248702      0.24119094      0.89369019
7
Frame 20  Energy = -245.1590032525 Hartree
C      -0.66099111     -0.78916255      0.83653298
N      -1.90179373     -0.90368729     -0.00648664
O      -2.93565511     -1.06494027      0.58609844
O      -1.70316950     -0.89878797     -1.18161457
H       0.07023504     -1.20098627      0.20588247
H      -0.85470924     -1.27834506      1.78457920
H      -0.34883270      0.24228892      0.89720594
7
Frame 25  Energy = -245.1590283591 Hartree
C      -0.66041881     -0.78951041      0.83859290
N      -1.90255631     -0.90443834     -0.00870700
O      -2.93628847     -1.05964310      0.58504027
O      -1.70274621     -0.90286077     -1.17954615
H       0.06587319     -1.20808693      0.20254628
H      -0.85768309     -1.28464938      1.78539699
H      -0.34597252      0.24460955      0.90206417
7
Frame 30  Energy = -245.1590778059 Hartree
C      -0.65991718     -0.78984273      0.84064793
N      -1.90316909     -0.90519981     -0.01048805
O      -2.93702709     -1.05433359      0.58390426
O      -1.70238378     -0.90690840     -1.17781926
H       0.06421095     -1.21756210      0.19848864
H      -0.85997460     -1.29036633      1.78570566
H      -0.34418038      0.24778071      0.90807387
7
Frame 35  Energy = -245.1592266585 Hartree
C      -0.65940110     -0.79015272      0.84267906
N      -1.90349398     -0.90600940     -0.01179473
O      -2.93789077     -1.04902846      0.58268895
O      -1.70215871     -0.91087134     -1.17640440
H       0.06452160     -1.22889149      0.19433094
H      -0.86143457     -1.29541277      1.78557659
H      -0.34363321      0.25077826      0.91506791
7
Frame 40  Energy = -245.1589618851 Hartree
C      -0.65904994     -0.79046592      0.84469475
N      -1.90359655     -0.90679131     -0.01268420
O      -2.93902993     -1.04376166      0.58133472
O      -1.70209742     -0.91479340     -1.17539936
H       0.06692319     -1.24181586      0.19021793
H      -0.86228801     -1.29975713      1.78458456
H      -0.34438685      0.25360194      0.92306399
7
Frame 45  Energy = -245.1590617418 Hartree
C      -0.65879559     -0.79078213      0.84665918
N      -1.90339573     -0.90761318     -0.01318610
O      -2.94045166     -1.03848575      0.57995769
O      -1.70213316     -0.91872095     -1.17483779
H       0.07079448     -1.25602889      0.18674340
H      -0.86243384     -1.30328432      1.78278907
H      -0.34640637      0.25582088      0.93159743
7
Frame 50  Energy = -245.1592965983 Hartree
C      -0.65864658     -0.79112927      0.84841788
N      -1.90299474     -0.90839873     -0.01326353
O      -2.94200947     -1.03321978      0.57861889
O      -1.70215846     -0.92249462     -1.17463548
H       0.07503189     -1.27084078      0.18467217
H      -0.86218737     -1.30644619      1.78080451
H      -0.34962642      0.25715717      0.94036356
7
Frame 55  Energy = -245.1593829987 Hartree
C      -0.65855987     -0.79140759      0.84992880
N      -1.90240293     -0.90914618     -0.01293828
O      -2.94373740     -1.02793009      0.57729162
O      -1.70222921     -0.92614007     -1.17482640
H       0.07926322     -1.28561088      0.18447480
H      -0.86147303     -1.30925192      1.77879527
H      -0.35415125      0.25767917      0.94939023
7
Frame 60  Energy = -245.1595380301 Hartree
C      -0.65842159     -0.79173024      0.85118347
N      -1.90159896     -0.90987744     -0.01213780
O      -2.94565307     -1.02271368      0.57594012
O      -1.70223147     -0.92966189     -1.17530758
H       0.08296709     -1.30019950      0.18627760
H      -0.86010063     -1.31179904      1.77734976
H      -0.35959040      0.25721316      0.95889829
7
Frame 65  Energy = -245.1595020536 Hartree
C      -0.65813739     -0.79222901      0.85216038
N      -1.90069071     -0.91054797     -0.01085612
O      -2.94772656     -1.01756893      0.57458969
O      -1.70223649     -0.93308436     -1.17613956
H       0.08564372     -1.31436771      0.19038624
H      -0.85842082     -1.31415030      1.77611895
H      -0.36581931      0.25595263      0.96858528
7
Frame 70  Energy = -245.1596617610 Hartree
C      -0.65766224     -0.79281097      0.85282612
N      -1.89966268     -0.91122722     -0.00920927
O      -2.94990827     -1.01243228      0.57316185
O      -1.70233422     -0.93650348     -1.17729787
H       0.08692374     -1.32750684      0.19714690
H      -0.85648722     -1.31620756      1.77524927
H      -0.37292596      0.25380412      0.97850473
7
Frame 75  Energy = -245.1593765588 Hartree
C      -0.65698437     -0.79350030      0.85315343
N      -1.89845514     -0.91178688     -0.00719487
O      -2.95221513     -1.00726515      0.57169019
O      -1.70244687     -0.93986634     -1.17874242
H       0.08687942     -1.33886283      0.20676987
H      -0.85445521     -1.31819658      1.77496068
H      -0.38066823      0.25098885      0.98865379
7
Frame 80  Energy = -245.1593914432 Hartree
C      -0.65615032     -0.79441807      0.85326219
N      -1.89697393     -0.91231395     -0.00481890
O      -2.95468528     -1.00204899      0.57019920
O      -1.70260416     -0.94321806     -1.18036931
H       0.08548420     -1.34850848      0.21924787
H      -0.85246156     -1.31999892      1.77521141
H      -0.38889235      0.24784500      0.99828855
7
Frame 85  Energy = -245.1592136713 Hartree
C      -0.65519172     -0.79552214      0.85322624
N      -1.89535281     -0.91280628     -0.00216905
O      -2.95725901     -0.99682602      0.56865212
O      -1.70273297     -0.94651789     -1.18223033
H       0.08293783     -1.35622649      0.23439726
H      -0.85059431     -1.32147952      1.77623391
H      -0.39716266      0.24431967      1.00767637
7
Frame 90  Energy = -245.1593862248 Hartree
C      -0.65414987     -0.79681136      0.85304780
N      -1.89360360     -0.91318773      0.00076997
O      -2.95987152     -0.99159035      0.56706951
O      -1.70289943     -0.94974434     -1.18420020
H       0.07958072     -1.36239647      0.25151842
H      -0.84858474     -1.32273038      1.77782412
H      -0.40580829      0.24080770      1.01691289
7
Frame 95  Energy = -245.1593372620 Hartree
C      -0.65310402     -0.79833002      0.85279166
N      -1.89177299     -0.91353212      0.00388345
O      -2.96255657     -0.98639955      0.56548323
O      -1.70307003     -0.95291390     -1.18631851
H       0.07618732     -1.36676473      0.26990415
H      -0.84637445     -1.32358263      1.77989970
H      -0.41424433      0.23732573      1.02588912
7
Frame 100  Energy = -245.1593941854 Hartree
C      -0.65212025     -0.80008784      0.85242477
N      -1.88997258     -0.91376690      0.00709129
O      -2.96524000     -0.98123816      0.56383392
O      -1.70325014     -0.95607292     -1.18844772
H       0.07350419     -1.36984004      0.28919507
H      -0.84456280     -1.32399864      1.78188231
H      -0.42244677      0.23433693      1.03480851
7
Frame 105  Energy = -245.1594229489 Hartree
C      -0.65127988     -0.80209427      0.85202729
N      -1.88817707     -0.91389208      0.01028903
O      -2.96790076     -0.97608401      0.56211095
O      -1.70341801     -0.95922287     -1.19050081
H       0.07193749     -1.37176875      0.30846288
H      -0.84296980     -1.32374394      1.78397512
H      -0.43005528      0.23194973      1.04356318
7
Frame 110  Energy = -245.1592190044 Hartree
C      -0.65044210     -0.80425516      0.85162952
N      -1.88635558     -0.91401262      0.01342469
O      -2.97053009     -0.97089986      0.56043131
O      -1.70371367     -0.96238293     -1.19248550
H       0.07250757     -1.37291188      0.32714951
H      -0.84205572     -1.32282537      1.78624164
H      -0.43696160      0.22969123      1.05179478
7
Frame 115  Energy = -245.1592136247 Hartree
C      -0.64973084     -0.80659520      0.85141418
N      -1.88459260     -0.91407618      0.01649602
O      -2.97316110     -0.96565894      0.55884276
O      -1.70407904     -0.96550505     -1.19434630
H       0.07533749     -1.37377714      0.34487192
H      -0.84193036     -1.32147943      1.78863858
H      -0.44331088      0.22787549      1.05933225
7
Frame 120  Energy = -245.1590819525 Hartree
C      -0.64932858     -0.80899462      0.85149142
N      -1.88291156     -0.91408751      0.01931756
O      -2.97572562     -0.96033509      0.55729774
O      -1.70452620     -0.96864639     -1.19601740
H       0.08084782     -1.37484809      0.36111047
H      -0.84227479     -1.31924013      1.79134603
H      -0.44891394      0.22631425      1.06613631
7
Frame 125  Energy = -245.1590557249 Hartree
C      -0.64920908     -0.81143785      0.85189685
N      -1.88127162     -0.91417014      0.02198819
O      -2.97815397     -0.95492454      0.55580909
O      -1.70500456     -0.97187463     -1.19747396
H       0.08940598     -1.37614706      0.37533910
H      -0.84330796     -1.31677925      1.79405274
H      -0.45388086      0.22529675      1.07201323
7
Frame 130  Energy = -245.1588863436 Hartree
C      -0.64937875     -0.81385588      0.85259326
N      -1.87971449     -0.91428878      0.02442433
O      -2.98048080     -0.94947142      0.55436258
O      -1.70546076     -0.97503710     -1.19863551
H       0.10092946     -1.37801034      0.38749786
H      -0.84513934     -1.31430202      1.79668684
H      -0.45840983      0.22501024      1.07738471
7
Frame 135  Energy = -245.1588858948 Hartree
C      -0.64981651     -0.81638052      0.85347524
N      -1.87835813     -0.91445064      0.02654114
O      -2.98276847     -0.94393426      0.55293335
O      -1.70592363     -0.97821594     -1.19955991
H       0.11520043     -1.38008891      0.39768219
H      -0.84767314     -1.31197080      1.79905753
H      -0.46198303      0.22531035      1.08210674
7
Frame 140  Energy = -245.1590590066 Hartree
C      -0.65051932     -0.81888079      0.85475251
N      -1.87719999     -0.91476984      0.02820720
O      -2.98493552     -0.93837773      0.55157332
O      -1.70642943     -0.98127094     -1.20018680
H       0.13148795     -1.38235047      0.40565966
H      -0.85114303     -1.30910220      1.80120733
H      -0.46488756      0.22572112      1.08569945
7
Frame 145  Energy = -245.1591111843 Hartree
C      -0.65130881     -0.82145628      0.85628364
N      -1.87624119     -0.91519966      0.02945585
O      -2.98700917     -0.93286052      0.55028606
O      -1.70699858     -0.98419702     -1.20053204
H       0.14902295     -1.38449484      0.41198664
H      -0.85501878     -1.30617102      1.80304277
H      -0.46715373      0.22602576      1.08811125
7
Frame 150  Energy = -245.1593194545 Hartree
C      -0.65207678     -0.82412085      0.85803896
N      -1.87540489     -0.91570172      0.03031881
O      -2.98888474     -0.92738468      0.54900564
O      -1.70750873     -0.98706414     -1.20060333
H       0.16714535     -1.38525668      0.41705850
H      -0.85930042     -1.30371085      1.80505147
H      -0.46907158      0.22607172      1.08940843
7
Frame 155  Energy = -245.1589738141 Hartree
C      -0.65299714     -0.82692244      0.86000605
N      -1.87470257     -0.91634688      0.03082923
O      -2.99051507     -0.92192621      0.54765220
O      -1.70800229     -0.98992627     -1.20032185
H       0.18492174     -1.38461077      0.42138058
H      -0.86455517     -1.30145835      1.80712185
H      -0.47056639      0.22604110      1.08988944
7
Frame 160  Energy = -245.1590679188 Hartree
C      -0.65393041     -0.82974259      0.86215450
N      -1.87419165     -0.91710944      0.03099505
O      -2.99181504     -0.91634936      0.54616137
O      -1.70848529     -0.99277063     -1.19980514
H       0.20140482     -1.38220624      0.42489304
H      -0.87045337     -1.29955546      1.80938494
H      -0.47203460      0.22530780      1.08949611
7
Frame 165  Energy = -245.1589473327 Hartree
C      -0.65475148     -0.83273540      0.86444171
N      -1.87397255     -0.91797954      0.03072531
O      -2.99288434     -0.91072524      0.54466831
O      -1.70895495     -0.99551492     -1.19895839
H       0.21589444     -1.37839231      0.42781775
H      -0.87731624     -1.29775060      1.81201893
H      -0.47340102      0.22384973      1.08785593
7
Frame 170  Energy = -245.1588892100 Hartree
C      -0.65546304     -0.83584188      0.86689360
N      -1.87403592     -0.91890548      0.03009239
O      -2.99370771     -0.90507178      0.54316838
O      -1.70939759     -0.99827597     -1.19778023
H       0.22768964     -1.37269891      0.43055630
H      -0.88479934     -1.29647774      1.81541691
H      -0.47427729      0.22126697      1.08535053
7
Frame 175  Energy = -245.1587071038 Hartree
C      -0.65607364     -0.83903159      0.86936690
N      -1.87435851     -0.91996579      0.02909757
O      -2.99430711     -0.89941669      0.54160265
O      -1.70982894     -1.00101293     -1.19632171
H       0.23683181     -1.36475838      0.43340997
H      -0.89270073     -1.29566781      1.81928133
H      -0.47465471      0.21795936      1.08163263
7
Frame 180  Energy = -245.1587657119 Hartree
C      -0.65651138     -0.84224462      0.87201284
N      -1.87490336     -0.92108892      0.02777349
O      -2.99468761     -0.89376512      0.53999493
O      -1.71024524     -1.00381640     -1.19456538
H       0.24306911     -1.35504644      0.43614258
H      -0.90112051     -1.29516838      1.82359730
H      -0.47447687      0.21380876      1.07680876
7
Frame 185  Energy = -245.1588742576 Hartree
C      -0.65680310     -0.84536422      0.87483393
N      -1.87555805     -0.92226970      0.02618897
O      -2.99486747     -0.88810279      0.53844108
O      -1.71073278     -1.00660776     -1.19258136
H       0.24588467     -1.34399644      0.43903037
H      -0.91011333     -1.29483026      1.82774977
H      -0.47392163      0.20966171      1.07101841
7
Frame 190  Energy = -245.1587611589 Hartree
C      -0.65695644     -0.84860198      0.87776232
N      -1.87638473     -0.92354802      0.02424705
O      -2.99480101     -0.88245910      0.53690517
O      -1.71121064     -1.00944810     -1.19031609
H       0.24554336     -1.33165165      0.44198760
H      -0.91929243     -1.29490245      1.83166563
H      -0.47319658      0.20571656      1.06492447
7
Frame 195  Energy = -245.1587741463 Hartree
C      -0.65703357     -0.85186378      0.88072091
N      -1.87742423     -0.92496283      0.02196220
O      -2.99449504     -0.87682020      0.53541253
O      -1.71161657     -1.01232028     -1.18785378
H       0.24285518     -1.31837695      0.44452990
H      -0.92823709     -1.29529844      1.83558229
H      -0.47242128      0.20189856      1.05860408
7
Frame 200  Energy = -245.1587323419 Hartree
C      -0.65714442     -0.85507052      0.88374916
N      -1.87867091     -0.92644665      0.01939781
O      -2.99391950     -0.87114626      0.53392081
O      -1.71194064     -1.01515364     -1.18521155
H       0.23803508     -1.30503126      0.44696695
H      -0.93691232     -1.29612037      1.83940797
H      -0.47167536      0.19829284      1.05167797
7
Frame 205  Energy = -245.1587513693 Hartree
C      -0.65739548     -0.85833314      0.88692277
N      -1.88005040     -0.92785842      0.01669581
O      -2.99313582     -0.86551443      0.53242075
O      -1.71213127     -1.01800821     -1.18244692
H       0.23157307     -1.29208230      0.44909919
H      -0.94509096     -1.29704277      1.84313608
H      -0.47058809      0.19510346      1.04448981
7
Frame 210  Energy = -245.1587704143 Hartree
C      -0.65785863     -0.86159457      0.89027310
N      -1.88148148     -0.92927447      0.01379689
O      -2.99220689     -0.85988239      0.53087685
O      -1.71230040     -1.02089053     -1.17963820
H       0.22420150     -1.28009977      0.45061562
H      -0.95247963     -1.29798318      1.84626906
H      -0.46929672      0.19244043      1.03755838
7
Frame 215  Energy = -245.1586597253 Hartree
C      -0.65859247     -0.86474507      0.89373515
N      -1.88292808     -0.93075617      0.01077962
O      -2.99114490     -0.85430163      0.52934260
O      -1.71245531     -1.02378606     -1.17683127
H       0.21683586     -1.26919573      0.45131817
H      -0.95888923     -1.29916256      1.84907829
H      -0.46801089      0.19040048      1.03063712
7
Frame 220  Energy = -245.1585732206 Hartree
C      -0.65957210     -0.86782200      0.89735569
N      -1.88436622     -0.93231575      0.00782912
O      -2.98996339     -0.84875897      0.52790444
O      -1.71256145     -1.02671438     -1.17403054
H       0.20973303     -1.25975923      0.45072712
H      -0.96432144     -1.30046535      1.85125835
H      -0.46689901      0.18907167      1.02435232
7
Frame 225  Energy = -245.1584983391 Hartree
C      -0.66091441     -0.87074180      0.90119490
N      -1.88581917     -0.93387314      0.00488898
O      -2.98869984     -0.84316135      0.52640113
O      -1.71257898     -1.02958854     -1.17124057
H       0.20380257     -1.25269309      0.44837978
H      -0.96902022     -1.30205032      1.85257801
H      -0.46605009      0.18823841      1.01884983
7
Frame 230  Energy = -245.1584695631 Hartree
C      -0.66262505     -0.87340434      0.90511804
N      -1.88734024     -0.93540742      0.00200065
O      -2.98730914     -0.83759690      0.52491461
O      -1.71250070     -1.03253937     -1.16859670
H       0.19948678     -1.24836106      0.44449403
H      -0.97325704     -1.30362650      1.85312866
H      -0.46525805      0.18782560      1.01382966
7
Frame 235  Energy = -245.1584599459 Hartree
C      -0.66470682     -0.87577214      0.90904275
N      -1.88898034     -0.93699410     -0.00070276
O      -2.98585202     -0.83202493      0.52344188
O      -1.71238010     -1.03551490     -1.16619356
H       0.19719865     -1.24677578      0.43913485
H      -0.97696919     -1.30534889      1.85336694
H      -0.46511698      0.18809679      1.00972849
7
Frame 240  Energy = -245.1586950764 Hartree
C      -0.66708924     -0.87782905      0.91292332
N      -1.89066766     -0.93851181     -0.00312140
O      -2.98439668     -0.82638768      0.52205431
O      -1.71219658     -1.03853048     -1.16410608
H       0.19684124     -1.24790379      0.43243204
H      -0.98022596     -1.30738227      1.85343803
H      -0.46561264      0.18886655      1.00690092
7
Frame 245  Energy = -245.1586743324 Hartree
C      -0.66966430     -0.87965981      0.91665984
N      -1.89233156     -0.93992428     -0.00517094
O      -2.98297552     -0.82073677      0.52073699
O      -1.71191508     -1.04165757     -1.16236495
H       0.19758430     -1.25160852      0.42481147
H      -0.98265543     -1.30971440      1.85346214
H      -0.46629612      0.18948526      1.00500123
7
Frame 250  Energy = -245.1585926057 Hartree
C      -0.67244493     -0.88124141      0.92021170
N      -1.89395368     -0.94127616     -0.00679264
O      -2.98158517     -0.81505659      0.51947439
O      -1.71154496     -1.04487265     -1.16104783
H       0.19878500     -1.25748707      0.41633550
H      -0.98434450     -1.31273211      1.85369585
H      -0.46761871      0.18989940      1.00397916
7
Frame 255  Energy = -245.1586371282 Hartree
C      -0.67536869     -0.88255708      0.92355077
N      -1.89554717     -0.94268032     -0.00797482
O      -2.98020046     -0.80943975      0.51830514
O      -1.71106519     -1.04817286     -1.16007633
H       0.19986423     -1.26495808      0.40779347
H      -0.98524593     -1.31631732      1.85423358
H      -0.46960217      0.19010228      1.00383847
7
Frame 260  Energy = -245.1585476707 Hartree
C      -0.67836135     -0.88364356      0.92669735
N      -1.89713387     -0.94408095     -0.00859490
O      -2.97873996     -0.80382576      0.51708792
O      -1.71046862     -1.05150229     -1.15947479
H       0.20010005     -1.27401276      0.39971762
H      -0.98555711     -1.32033551      1.85560993
H      -0.47184543      0.19019721      1.00478732
7
Frame 265  Energy = -245.1581394849 Hartree
C      -0.68143198     -0.88456868      0.92958914
N      -1.89874309     -0.94537796     -0.00870820
O      -2.97730355     -0.79814580      0.51585950
O      -1.70980153     -1.05489000     -1.15938291
H       0.19894598     -1.28407496      0.39246510
H      -0.98540623     -1.32486296      1.85779443
H      -0.47484609      0.18947765      1.00679740
7
Frame 270  Energy = -245.1582537592 Hartree
C      -0.68457893     -0.88539278      0.93216143
N      -1.90023164     -0.94661717     -0.00831989
O      -2.97596710     -0.79243727      0.51467616
O      -1.70901039     -1.05842084     -1.15980516
H       0.19574184     -1.29499359      0.38615270
H      -0.98485961     -1.32992002      1.86031965
H      -0.47852567      0.18811887      1.00982215
7
Frame 275  Energy = -245.1582762907 Hartree
C      -0.68764109     -0.88602989      0.93433260
N      -1.90157463     -0.94766490     -0.00743495
O      -2.97468619     -0.78679063      0.51352883
O      -1.70805012     -1.06201837     -1.16063185
H       0.18999112     -1.30641368      0.38158771
H      -0.98391145     -1.33539688      1.86337756
H      -0.48256410      0.18619699      1.01386370
7
Frame 280  Energy = -245.1582823767 Hartree
C      -0.69071581     -0.88659132      0.93615596
N      -1.90283537     -0.94864519     -0.00610267
O      -2.97346551     -0.78119615      0.51240700
O      -1.70705078     -1.06568814     -1.16189720
H       0.18160647     -1.31807878      0.37903806
H      -0.98295555     -1.34121484      1.86694123
H      -0.48702399      0.18335202      1.01889499
7
Frame 285  Energy = -245.1581436256 Hartree
C      -0.69378823     -0.88712969      0.93763275
N      -1.90396541     -0.94964999     -0.00441894
O      -2.97233180     -0.77564061      0.51134895
O      -1.70600032     -1.06948721     -1.16352493
H       0.17080450     -1.32962209      0.37869018
H      -0.98172798     -1.34717788      1.87125097
H      -0.49165335      0.18023811      1.02462150
7
Frame 290  Energy = -245.1583623380 Hartree
C      -0.69683304     -0.88771934      0.93885103
N      -1.90486963     -0.95049916     -0.00237782
O      -2.97135877     -0.77012049      0.51036843
O      -1.70487976     -1.07341571     -1.16543997
H       0.15779362     -1.34057899      0.38029387
H      -0.97997992     -1.35309162      1.87561751
H      -0.49651097      0.17676049      1.03099490
7
Frame 295  Energy = -245.1584616394 Hartree
C      -0.69977583     -0.88840118      0.93973483
N      -1.90546472     -0.95127566     -0.00005699
O      -2.97059175     -0.76463918      0.50951079
O      -1.70370290     -1.07743408     -1.16758827
H       0.14276795     -1.35072421      0.38381535
H      -0.97783618     -1.35879571      1.87977641
H      -0.50162645      0.17345359      1.03813414
7
Frame 300  Energy = -245.1581924325 Hartree
C      -0.70270537     -0.88916981      0.94032621
N      -1.90586523     -0.95190347      0.00253184
O      -2.96994806     -0.75911865      0.50874007
O      -1.70242062     -1.08154407     -1.16987853
H       0.12583541     -1.36038827      0.38866064
H      -0.97562663     -1.36425612      1.88324960
H      -0.50683567      0.17069498      1.04601389
