7
Frame 5  Energy = -245.1613709431 Hartree
C      -0.51918127     -0.77518406      0.66998611
N      -1.87162721     -0.97905347     -0.03750669
O      -2.54866530     -1.88290223      0.37871641
O      -2.14888558     -0.22087932     -0.92682891
H       0.24462045     -1.18646269      0.01687762
H      -0.61696239     -1.24188054      1.65250122
H      -0.32758950      0.29570687      0.68892946
7
Frame 10  Energy = -245.1611987729 Hartree
C      -0.51859447     -0.77230222      0.67193546
N      -1.87322497     -0.98308643     -0.03899576
O      -2.55128136     -1.87646473      0.38048546
O      -2.14604786     -0.22411382     -0.92769660
H       0.24547215     -1.19047794      0.02003209
H      -0.61699230     -1.24258718      1.65132349
H      -0.32417503      0.29630827      0.68948893
7
Frame 15  Energy = -245.1613362122 Hartree
C      -0.51818318     -0.76936227      0.67369255
N      -1.87448540     -0.98708315     -0.04026783
O      -2.55405605     -1.87013766      0.38228008
O      -2.14327865     -0.22731843     -0.92863416
H       0.24600931     -1.19528867      0.02393544
H      -0.61599816     -1.24269452      1.64901981
H      -0.32129160      0.29708307      0.69091046
7
Frame 20  Energy = -245.1613563925 Hartree
C      -0.51801494     -0.76648851      0.67522858
N      -1.87534568     -0.99095460     -0.04132467
O      -2.55702404     -1.86401926      0.38411275
O      -2.14056248     -0.23042469     -0.92963559
H       0.24595481     -1.20072117      0.02830126
H      -0.61440067     -1.24219113      1.64572940
H      -0.31925242      0.29809879      0.69290339
7
Frame 25  Energy = -245.1613265600 Hartree
C      -0.51797515     -0.76361834      0.67666288
N      -1.87585260     -0.99469554     -0.04213804
O      -2.56014941     -1.85816284      0.38602067
O      -2.13789512     -0.23347343     -0.93070383
H       0.24553390     -1.20658713      0.03341046
H      -0.61236840     -1.24114091      1.64182104
H      -0.31820760      0.29912722      0.69554918
7
Frame 30  Energy = -245.1614538380 Hartree
C      -0.51809127     -0.76084912      0.67806182
N      -1.87593421     -0.99814176     -0.04269810
O      -2.56345328     -1.85269476      0.38801384
O      -2.13522207     -0.23646508     -0.93194902
H       0.24458269     -1.21286174      0.03936550
H      -0.60950975     -1.23986710      1.63794427
H      -0.31795070      0.30006393      0.69853571
7
Frame 35  Energy = -245.1613764243 Hartree
C      -0.51831730     -0.75829931      0.67932545
N      -1.87562352     -1.00121820     -0.04298211
O      -2.56695470     -1.84750142      0.39013139
O      -2.13257206     -0.23936436     -0.93334709
H       0.24300160     -1.21954223      0.04611734
H      -0.60613623     -1.23843188      1.63441428
H      -0.31845021      0.30115600      0.70236190
7
Frame 40  Energy = -245.1614645160 Hartree
C      -0.51865931     -0.75585849      0.68040464
N      -1.87489057     -1.00391652     -0.04312730
O      -2.57065972     -1.84263119      0.39229810
O      -2.12986176     -0.24215420     -0.93492208
H       0.24073969     -1.22674678      0.05340528
H      -0.60268295     -1.23691508      1.63153195
H      -0.31948080      0.30279158      0.70653371
7
Frame 45  Energy = -245.1612778860 Hartree
C      -0.51919357     -0.75359499      0.68107665
N      -1.87373220     -1.00616755     -0.04312000
O      -2.57456000     -1.83803990      0.39459335
O      -2.12703769     -0.24488227     -0.93673974
H       0.23816232     -1.23395399      0.06113338
H      -0.59911706     -1.23538355      1.62952243
H      -0.32095000      0.30484625      0.71088450
7
Frame 50  Energy = -245.1613196749 Hartree
C      -0.51983462     -0.75153164      0.68144675
N      -1.87213906     -1.00806713     -0.04297964
O      -2.57872588     -1.83378914      0.39702308
O      -2.12426439     -0.24757218     -0.93875260
H       0.23539961     -1.24118874      0.06926369
H      -0.59554052     -1.23387727      1.62856305
H      -0.32279950      0.30751501      0.71533015
7
Frame 55  Energy = -245.1616726100 Hartree
C      -0.52048385     -0.74969121      0.68153734
N      -1.87015146     -1.00955717     -0.04270898
O      -2.58311210     -1.82988429      0.39960497
O      -2.12159587     -0.25024278     -0.94084484
H       0.23246653     -1.24855401      0.07745738
H      -0.59179124     -1.23269938      1.62900811
H      -0.32547793      0.31054643      0.71957437
7
Frame 60  Energy = -245.1614639538 Hartree
C      -0.52114768     -0.74807363      0.68127754
N      -1.86778564     -1.01064966     -0.04235961
O      -2.58766913     -1.82627564      0.40234380
O      -2.11896493     -0.25279165     -0.94306544
H       0.22942782     -1.25610910      0.08563114
H      -0.58818836     -1.23169096      1.63074386
H      -0.32867458      0.31339563      0.72392596
7
Frame 65  Energy = -245.1615770965 Hartree
C      -0.52189813     -0.74665491      0.68081717
N      -1.86507084     -1.01135345     -0.04194900
O      -2.59240768     -1.82298574      0.40516532
O      -2.11626702     -0.25536391     -0.94542542
H       0.22637549     -1.26380997      0.09354298
H      -0.58452008     -1.23094308      1.63365813
H      -0.33235710      0.31592759      0.72835833
7
Frame 70  Energy = -245.1616625759 Hartree
C      -0.52267616     -0.74527177      0.68027669
N      -1.86208113     -1.01173735     -0.04142497
O      -2.59723481     -1.82002701      0.40803671
O      -2.11353925     -0.25786709     -0.94794281
H       0.22325175     -1.27127176      0.10127551
H      -0.58137275     -1.23000266      1.63768653
H      -0.33696597      0.31819628      0.73274028
7
Frame 75  Energy = -245.1615839086 Hartree
C      -0.52357725     -0.74402949      0.67958876
N      -1.85885734     -1.01176603     -0.04071514
O      -2.60219096     -1.81731935      0.41104109
O      -2.11081999     -0.26030464     -0.95059195
H       0.22049992     -1.27842516      0.10835586
H      -0.57872334     -1.22903170      1.64264136
H      -0.34242300      0.32049946      0.73719396
7
Frame 80  Energy = -245.1616262515 Hartree
C      -0.52460947     -0.74304779      0.67885883
N      -1.85534928     -1.01144897     -0.03989370
O      -2.60719799     -1.81491431      0.41413407
O      -2.10804750     -0.26276558     -0.95334401
H       0.21840575     -1.28523353      0.11496262
H      -0.57651734     -1.22760994      1.64810389
H      -0.34843709      0.32276574      0.74138480
7
Frame 85  Energy = -245.1616538041 Hartree
C      -0.52582419     -0.74221401      0.67819813
N      -1.85160069     -1.01068551     -0.03886252
O      -2.61221406     -1.81267178      0.41722183
O      -2.10524482     -0.26516575     -0.95619404
H       0.21736729     -1.29151448      0.12087380
H      -0.57467443     -1.22575169      1.65347287
H      -0.35453631      0.32481822      0.74522930
7
Frame 90  Energy = -245.1615436109 Hartree
C      -0.52704568     -0.74164768      0.67754500
N      -1.84759794     -1.00958431     -0.03758203
O      -2.61727484     -1.81057523      0.42025302
O      -2.10248966     -0.26766017     -0.95912854
H       0.21714768     -1.29694853      0.12619242
H      -0.57307239     -1.22305609      1.65859639
H      -0.36061108      0.32659524      0.74901635
7
Frame 95  Energy = -245.1615379897 Hartree
C      -0.52829320     -0.74152166      0.67701034
N      -1.84348882     -1.00811519     -0.03616117
O      -2.62237329     -1.80861805      0.42322787
O      -2.09980839     -0.27022563     -0.96216009
H       0.21775976     -1.30144292      0.13077439
H      -0.57211182     -1.21971381      1.66302730
H      -0.36663650      0.32801565      0.75251914
7
Frame 100  Energy = -245.1615316699 Hartree
C      -0.52973545     -0.74172817      0.67656492
N      -1.83945050     -1.00639584     -0.03455077
O      -2.62737403     -1.80670880      0.42624994
O      -2.09702174     -0.27279701     -0.96523649
H       0.21928048     -1.30522553      0.13446569
H      -0.57205164     -1.21535475      1.66658912
H      -0.37246645      0.32890650      0.75571374
7
Frame 105  Energy = -245.1615913346 Hartree
C      -0.53135905     -0.74221085      0.67616290
N      -1.83558246     -1.00446673     -0.03279147
O      -2.63227597     -1.80477261      0.42929535
O      -2.09419330     -0.27526957     -0.96828756
H       0.22167779     -1.30803415      0.13698872
H      -0.57277607     -1.20958384      1.66894852
H      -0.37793430      0.32913449      0.75836699
7
Frame 110  Energy = -245.1617103862 Hartree
C      -0.53306378     -0.74297116      0.67597434
N      -1.83188578     -1.00241438     -0.03104406
O      -2.63709361     -1.80283531      0.43230926
O      -2.09137560     -0.27782958     -0.97133543
H       0.22486268     -1.30965270      0.13912639
H      -0.57403818     -1.20285806      1.67047604
H      -0.38323945      0.32873652      0.76026854
7
Frame 115  Energy = -245.1619081542 Hartree
C      -0.53477579     -0.74395690      0.67593033
N      -1.82844313     -1.00032574     -0.02921982
O      -2.64168377     -1.80093778      0.43523585
O      -2.08849346     -0.28035630     -0.97442544
H       0.22845186     -1.31013369      0.14089207
H      -0.57596745     -1.19546103      1.67125460
H      -0.38809330      0.32812841      0.76088806
7
Frame 120  Energy = -245.1619260525 Hartree
C      -0.53644925     -0.74511386      0.67604560
N      -1.82532321     -0.99820232     -0.02725880
O      -2.64602509     -1.79895379      0.43815454
O      -2.08559330     -0.28287373     -0.97747690
H       0.23259948     -1.30924711      0.14216906
H      -0.57861684     -1.18743879      1.67154702
H      -0.39241892      0.32683899      0.76044703
7
Frame 125  Energy = -245.1617509466 Hartree
C      -0.53810796     -0.74645181      0.67636942
N      -1.82254256     -0.99599288     -0.02530010
O      -2.65014639     -1.79689080      0.44104768
O      -2.08266235     -0.28535440     -0.98052699
H       0.23656114     -1.30675610      0.14312561
H      -0.58193267     -1.17903791      1.67138715
H      -0.39654830      0.32505516      0.75899928
7
Frame 130  Energy = -245.1617462451 Hartree
C      -0.53980469     -0.74803824      0.67692106
N      -1.82023488     -0.99376156     -0.02325438
O      -2.65401677     -1.79473657      0.44392109
O      -2.07961633     -0.28789935     -0.98359967
H       0.24007968     -1.30290145      0.14417494
H      -0.58581381     -1.17063959      1.67099185
H      -0.40029148      0.32264308      0.75661837
7
Frame 135  Energy = -245.1616880996 Hartree
C      -0.54151510     -0.74978055      0.67756353
N      -1.81840578     -0.99162212     -0.02101641
O      -2.65754880     -1.79243389      0.44673949
O      -2.07652621     -0.29054325     -0.98671854
H       0.24325533     -1.29759307      0.14525125
H      -0.59037537     -1.16243968      1.67086890
H      -0.40365453      0.32003578      0.75309996
7
Frame 140  Energy = -245.1618141373 Hartree
C      -0.54304995     -0.75164217      0.67817461
N      -1.81712043     -0.98953605     -0.01883157
O      -2.66085904     -1.79000255      0.44944580
O      -2.07337847     -0.29325653     -0.98980246
H       0.24622686     -1.29094825      0.14617723
H      -0.59577456     -1.15453330      1.67120018
H      -0.40652474      0.31735728      0.74848903
7
Frame 145  Energy = -245.1618915229 Hartree
C      -0.54436772     -0.75361142      0.67883595
N      -1.81643654     -0.98743902     -0.01671367
O      -2.66377363     -1.78748940      0.45209445
O      -2.07011643     -0.29599810     -0.99282974
H       0.24895321     -1.28326569      0.14673041
H      -0.60184643     -1.14737923      1.67207841
H      -0.40887233      0.31458080      0.74321315
7
Frame 150  Energy = -245.1616632655 Hartree
C      -0.54558888     -0.75566671      0.67954695
N      -1.81635429     -0.98543854     -0.01463170
O      -2.66631381     -1.78477885      0.45469549
O      -2.06678218     -0.29888755     -0.99588078
H       0.25149912     -1.27411473      0.14695090
H      -0.60847495     -1.14110615      1.67365114
H      -0.41048753      0.31167754      0.73743236
7
Frame 155  Energy = -245.1616855940 Hartree
C      -0.54670001     -0.75783323      0.68033517
N      -1.81679966     -0.98356646     -0.01255057
O      -2.66845830     -1.78183365      0.45726441
O      -2.06334149     -0.30191958     -0.99882492
H       0.25430630     -1.26388241      0.14708141
H      -0.61535544     -1.13588435      1.67599105
H      -0.41173637      0.30907730      0.73088041
7
Frame 160  Energy = -245.1619202456 Hartree
C      -0.54762060     -0.75988917      0.68116705
N      -1.81779598     -0.98181646     -0.01051292
O      -2.67024733     -1.77864876      0.45979679
O      -2.05983436     -0.30498981     -1.00163645
H       0.25718539     -1.25356945      0.14708767
H      -0.62267970     -1.13174278      1.67934258
H      -0.41231553      0.30678631      0.72391497
7
Frame 165  Energy = -245.1620257897 Hartree
C      -0.54845088     -0.76180873      0.68206969
N      -1.81941785     -0.98022443     -0.00856810
O      -2.67164625     -1.77531877      0.46231889
O      -2.05624748     -0.30810535     -1.00432379
H       0.26004478     -1.24318167      0.14702485
H      -0.63042894     -1.12870853      1.68353270
H      -0.41230356      0.30543595      0.71637601
7
Frame 170  Energy = -245.1618297782 Hartree
C      -0.54919493     -0.76368594      0.68304661
N      -1.82172282     -0.97878613     -0.00669086
O      -2.67269225     -1.77179539      0.46484335
O      -2.05257149     -0.31121411     -1.00687940
H       0.26235200     -1.23282365      0.14671265
H      -0.63851625     -1.12642126      1.68866867
H      -0.41177897      0.30467920      0.70812387
7
Frame 175  Energy = -245.1618976184 Hartree
C      -0.54990424     -0.76549598      0.68415278
N      -1.82463742     -0.97750057     -0.00495791
O      -2.67347914     -1.76808885      0.46734436
O      -2.04877624     -0.31437323     -1.00933115
H       0.26421640     -1.22279421      0.14595278
H      -0.64656159     -1.12495949      1.69434406
H      -0.41076837      0.30474823      0.69918262
7
Frame 180  Energy = -245.1621075636 Hartree
C      -0.55061160     -0.76714749      0.68541534
N      -1.82799751     -0.97637006     -0.00340267
O      -2.67400581     -1.76418779      0.46984194
O      -2.04492634     -0.31752138     -1.01163978
H       0.26601358     -1.21339850      0.14434222
H      -0.65442957     -1.12423876      1.70031600
H      -0.40965374      0.30509962      0.69012860
7
Frame 185  Energy = -245.1620167226 Hartree
C      -0.55132559     -0.76863210      0.68675599
N      -1.83184706     -0.97534890     -0.00187817
O      -2.67424716     -1.76010035      0.47224503
O      -2.04099803     -0.32068050     -1.01385155
H       0.26770846     -1.20527473      0.14225762
H      -0.66191139     -1.12412862      1.70629243
H      -0.40822078      0.30554176      0.68124586
7
Frame 190  Energy = -245.1618935298 Hartree
C      -0.55198197     -0.76996850      0.68822245
N      -1.83616868     -0.97450081     -0.00050204
O      -2.67426683     -1.75579641      0.47464251
O      -2.03702061     -0.32395157     -1.01602472
H       0.26969733     -1.19800045      0.13991745
H      -0.66881759     -1.12446400      1.71204473
H      -0.40636832      0.30601195      0.67254146
7
Frame 195  Energy = -245.1617791253 Hartree
C      -0.55261867     -0.77110103      0.68996996
N      -1.84083658     -0.97375086      0.00071890
O      -2.67399176     -1.75137605      0.47696170
O      -2.03298643     -0.32736071     -1.01811205
H       0.27150977     -1.19186907      0.13759888
H      -0.67519387     -1.12517734      1.71705212
H      -0.40433320      0.30641076      0.66447997
7
Frame 200  Energy = -245.1617186296 Hartree
C      -0.55324048     -0.77197461      0.69195227
N      -1.84593330     -0.97315367      0.00180243
O      -2.67353419     -1.74684331      0.47927555
O      -2.02893507     -0.33080697     -1.02014067
H       0.27301838     -1.18671873      0.13491387
H      -0.68111549     -1.12640499      1.72126764
H      -0.40237905      0.30660181      0.65690412
7
Frame 205  Energy = -245.1617312925 Hartree
C      -0.55387801     -0.77272988      0.69408726
N      -1.85126550     -0.97266306      0.00272144
O      -2.67291606     -1.74215506      0.48154797
O      -2.02484771     -0.33428359     -1.02198744
H       0.27402499     -1.18299702      0.13223459
H      -0.68624976     -1.12766225      1.72432457
H      -0.40060754      0.30643250      0.65008595
7
Frame 210  Energy = -245.1615447025 Hartree
C      -0.55457823     -0.77332678      0.69632558
N      -1.85673910     -0.97228270      0.00345604
O      -2.67222484     -1.73736143      0.48382436
O      -2.02076542     -0.33780497     -1.02373464
H       0.27488181     -1.18092833      0.12933209
H      -0.69038827     -1.12910365      1.72621958
H      -0.39943511      0.30571073      0.64387601
7
Frame 215  Energy = -245.1611683007 Hartree
C      -0.55542474     -0.77373846      0.69861704
N      -1.86232532     -0.97196660      0.00400384
O      -2.67143978     -1.73238774      0.48611691
O      -2.01672660     -0.34143390     -1.02551792
H       0.27491062     -1.18015351      0.12657889
H      -0.69368495     -1.13032081      1.72692722
H      -0.39824905      0.30444433      0.63834114
7
Frame 220  Energy = -245.1611394748 Hartree
C      -0.55633520     -0.77397529      0.70095575
N      -1.86793547     -0.97163422      0.00439220
O      -2.67065218     -1.72736684      0.48847268
O      -2.01271592     -0.34508917     -1.02731653
H       0.27423648     -1.18057291      0.12397912
H      -0.69574273     -1.13146603      1.72622636
H      -0.39685568      0.30301047      0.63356741
7
Frame 225  Energy = -245.1611852562 Hartree
C      -0.55732291     -0.77405823      0.70325295
N      -1.87349350     -0.97118012      0.00467364
O      -2.66989981     -1.72242462      0.49088690
O      -2.00881005     -0.34877554     -1.02912307
H       0.27231181     -1.18272014      0.12191080
H      -0.69699423     -1.13281843      1.72418301
H      -0.39522656      0.30135492      0.63001089
7
Frame 230  Energy = -245.1611726291 Hartree
C      -0.55842552     -0.77398897      0.70545153
N      -1.87877434     -0.97063347      0.00484997
O      -2.66924885     -1.71758745      0.49332261
O      -2.00496157     -0.35243602     -1.03099178
H       0.26902060     -1.18615245      0.12059865
H      -0.69730665     -1.13394204      1.72154940
H      -0.39381755      0.29928467      0.62749034
7
Frame 235  Energy = -245.1610303577 Hartree
C      -0.55969509     -0.77379732      0.70764104
N      -1.88379763     -0.97003554      0.00486259
O      -2.66874459     -1.71280996      0.49579567
O      -2.00122017     -0.35609310     -1.03287456
H       0.26459098     -1.19111559      0.12000443
H      -0.69647219     -1.13490442      1.71829793
H      -0.39276598      0.29686114      0.62590948
7
Frame 240  Energy = -245.1609807912 Hartree
C      -0.56110531     -0.77347260      0.70972431
N      -1.88850850     -0.96930161      0.00473152
O      -2.66840751     -1.70817684      0.49832204
O      -1.99752328     -0.35979478     -1.03474841
H       0.25897303     -1.19719670      0.12014032
H      -0.69455242     -1.13609454      1.71478340
H      -0.39174399      0.29428108      0.62537123
7
Frame 245  Energy = -245.1610186890 Hartree
C      -0.56260762     -0.77298513      0.71167443
N      -1.89280225     -0.96850143      0.00455415
O      -2.66828923     -1.70376359      0.50099632
O      -1.99392504     -0.36349115     -1.03674455
H       0.25237595     -1.20434470      0.12129748
H      -0.69211547     -1.13804121      1.71155325
H      -0.39079382      0.29212059      0.62635777
7
Frame 250  Energy = -245.1610430535 Hartree
C      -0.56410208     -0.77243483      0.71344270
N      -1.89668228     -0.96756168      0.00424223
O      -2.66849165     -1.69961169      0.50373160
O      -1.99043288     -0.36718403     -1.03895263
H       0.24495442     -1.21227137      0.12323340
H      -0.68883811     -1.14055565      1.70892088
H      -0.39002955      0.29055273      0.62848001
7
Frame 255  Energy = -245.1610447054 Hartree
C      -0.56576422     -0.77177351      0.71499707
N      -1.90000565     -0.96644419      0.00383721
O      -2.66906363     -1.69571434      0.50655393
O      -1.98703099     -0.37078914     -1.04136237
H       0.23662205     -1.22102000      0.12561580
H      -0.68445613     -1.14331893      1.70749441
H      -0.38928541      0.28940992      0.63191486
7
Frame 260  Energy = -245.1610622785 Hartree
C      -0.56748401     -0.77098575      0.71632496
N      -1.90267115     -0.96522258      0.00335579
O      -2.67011468     -1.69203951      0.50952187
O      -1.98377181     -0.37436640     -1.04382115
H       0.22750240     -1.23085181      0.12861237
H      -0.67974111     -1.14662243      1.70732951
H      -0.38859294      0.28901928      0.63672220
7
Frame 265  Energy = -245.1610165687 Hartree
C      -0.56926446     -0.77014569      0.71747202
N      -1.90464225     -0.96371963      0.00283828
O      -2.67158377     -1.68852474      0.51254580
O      -1.98066393     -0.37803393     -1.04628964
H       0.21725994     -1.24118124      0.13215056
H      -0.67448641     -1.15060271      1.70868094
H      -0.38791314      0.28949660      0.64257046
7
Frame 270  Energy = -245.1611679670 Hartree
C      -0.57110458     -0.76919362      0.71846102
N      -1.90594120     -0.96195863      0.00234500
O      -2.67335049     -1.68520482      0.51572764
O      -1.97763503     -0.38161766     -1.04889286
H       0.20626836     -1.25211748      0.13573043
H      -0.66917935     -1.15483745      1.71105205
H      -0.38713513      0.29066423      0.64921351
7
Frame 275  Energy = -245.1612899190 Hartree
C      -0.57304021     -0.76821597      0.71928654
N      -1.90661315     -0.95999298      0.00189941
O      -2.67545816     -1.68214235      0.51907297
O      -1.97474135     -0.38507815     -1.05162249
H       0.19492777     -1.26383191      0.13958647
H      -0.66389154     -1.15883503      1.71395599
H      -0.38617607      0.29249817      0.65655992
7
Frame 280  Energy = -245.1614398187 Hartree
C      -0.57513805     -0.76715000      0.71999485
N      -1.90666239     -0.95789870      0.00150121
O      -2.67789767     -1.67930106      0.52249221
O      -1.97196109     -0.38839847     -1.05443698
H       0.18361377     -1.27622534      0.14373643
H      -0.65857179     -1.16268524      1.71736967
H      -0.38481731      0.29500261      0.66475084
7
Frame 285  Energy = -245.1617051917 Hartree
C      -0.57732999     -0.76603018      0.72056920
N      -1.90608509     -0.95570850      0.00119187
O      -2.68061849     -1.67664756      0.52598526
O      -1.96929669     -0.39162149     -1.05734502
H       0.17247342     -1.28905993      0.14763169
H      -0.65320714     -1.16630194      1.72118918
H      -0.38278099      0.29774290      0.67344229
7
Frame 290  Energy = -245.1616305455 Hartree
C      -0.57956302     -0.76494925      0.72109449
N      -1.90491501     -0.95338586      0.00094795
O      -2.68352251     -1.67410472      0.52943491
O      -1.96670739     -0.39473306     -1.06039417
H       0.16183918     -1.30209745      0.15145658
H      -0.64792919     -1.17012015      1.72522587
H      -0.38062869      0.30030277      0.68279095
7
Frame 295  Energy = -245.1614066287 Hartree
C      -0.58185462     -0.76388471      0.72167072
N      -1.90320353     -0.95104953      0.00086226
O      -2.68669673     -1.67164449      0.53288776
O      -1.96419613     -0.39789581     -1.06366145
H       0.15180294     -1.31544532      0.15505946
H      -0.64280867     -1.17397074      1.72934502
H      -0.37831086      0.30256489      0.69278185
7
Frame 300  Energy = -245.1614346110 Hartree
C      -0.58429709     -0.76288657      0.72222084
N      -1.90097721     -0.94867600      0.00090888
O      -2.69022586     -1.66919125      0.53626853
O      -1.96180334     -0.40109415     -1.06708546
H       0.14227958     -1.32872343      0.15828249
H      -0.63820082     -1.17725143      1.73307672
H      -0.37552728      0.30435523      0.70313979
