7
Frame 5  Energy = -245.1608112991 Hartree
C      -0.58678282     -0.76192382      0.72278070
N      -1.89839480     -0.94627783      0.00115199
O      -2.69388441     -1.66682072      0.53954658
O      -1.95959304     -0.40423841     -1.07066655
H       0.13313553     -1.34167298      0.16106762
H      -0.63413474     -1.17998547      1.73588689
H      -0.37242437      0.30552625      0.71321712
7
Frame 10  Energy = -245.1606541444 Hartree
C      -0.58934210     -0.76087063      0.72351148
N      -1.89556932     -0.94377609      0.00154217
O      -2.69764900     -1.66446227      0.54271531
O      -1.95750610     -0.40736281     -1.07442249
H       0.12443226     -1.35400755      0.16305869
H      -0.63059586     -1.18195366      1.73743814
H      -0.36915386      0.30640352      0.72317974
7
Frame 15  Energy = -245.1606357734 Hartree
C      -0.59192404     -0.75974480      0.72434203
N      -1.89242047     -0.94138595      0.00204399
O      -2.70142788     -1.66209418      0.54577610
O      -1.95551616     -0.41044321     -1.07824846
H       0.11625603     -1.36593339      0.16447110
H      -0.62785304     -1.18315070      1.73776015
H      -0.36564700      0.30691983      0.73314389
7
Frame 20  Energy = -245.1605199797 Hartree
C      -0.59454680     -0.75863452      0.72529238
N      -1.88901555     -0.93910189      0.00276501
O      -2.70533577     -1.65965282      0.54879709
O      -1.95364170     -0.41348518     -1.08215675
H       0.10841030     -1.37697906      0.16566484
H      -0.62601694     -1.18348563      1.73674372
H      -0.36194487      0.30700764      0.74267699
7
Frame 25  Energy = -245.1606535345 Hartree
C      -0.59704904     -0.75765153      0.72636171
N      -1.88551466     -0.93684690      0.00371022
O      -2.70925923     -1.65718212      0.55174128
O      -1.95187728     -0.41644537     -1.08607424
H       0.10129874     -1.38661310      0.16657872
H      -0.62508275     -1.18313331      1.73445551
H      -0.35773769      0.30613752      0.75184627
7
Frame 30  Energy = -245.1606110967 Hartree
C      -0.59946828     -0.75681870      0.72756431
N      -1.88203513     -0.93464705      0.00487454
O      -2.71308468     -1.65459905      0.55460211
O      -1.95021915     -0.41939994     -1.08995111
H       0.09459215     -1.39514968      0.16763726
H      -0.62502848     -1.18217491      1.73103677
H      -0.35315769      0.30430534      0.76041725
7
Frame 35  Energy = -245.1610400601 Hartree
C      -0.60177091     -0.75610781      0.72883237
N      -1.87868942     -0.93262471      0.00619922
O      -2.71677107     -1.65186871      0.55739246
O      -1.94858021     -0.42241492     -1.09375150
H       0.08838524     -1.40190430      0.16874576
H      -0.62620610     -1.18093683      1.72714914
H      -0.34822964      0.30177893      0.76802062
7
Frame 40  Energy = -245.1610480518 Hartree
C      -0.60398478     -0.75540710      0.73008922
N      -1.87556295     -0.93077826      0.00757758
O      -2.72036569     -1.64895350      0.56001724
O      -1.94704400     -0.42542727     -1.09746303
H       0.08255071     -1.40670395      0.16961446
H      -0.62870205     -1.17904675      1.72291138
H      -0.34298874      0.29905301      0.77468690
7
Frame 45  Energy = -245.1612199913 Hartree
C      -0.60601049     -0.75477581      0.73124632
N      -1.87270893     -0.92905255      0.00896821
O      -2.72375964     -1.64587455      0.56247802
O      -1.94550545     -0.42845774     -1.10107262
H       0.07701222     -1.41005247      0.17044780
H      -0.63248683     -1.17695770      1.71903647
H      -0.33760114      0.29598240      0.78073968
7
Frame 50  Energy = -245.1614272078 Hartree
C      -0.60784442     -0.75417731      0.73234903
N      -1.87013897     -0.92741644      0.01027456
O      -2.72697051     -1.64261839      0.56473958
O      -1.94395111     -0.43147633     -1.10453451
H       0.07201793     -1.41158465      0.17174448
H      -0.63762484     -1.17522591      1.71597591
H      -0.33215728      0.29256320      0.78576190
7
Frame 55  Energy = -245.1614627830 Hartree
C      -0.60960325     -0.75366478      0.73331653
N      -1.86790911     -0.92609809      0.01160404
O      -2.73007166     -1.63917340      0.56681698
O      -1.94246473     -0.43445445     -1.10786746
H       0.06771559     -1.41112186      0.17336952
H      -0.64398477     -1.17374279      1.71364150
H      -0.32654750      0.28885314      0.79015830
7
Frame 60  Energy = -245.1616587659 Hartree
C      -0.61125026     -0.75333813      0.73424614
N      -1.86609891     -0.92505229      0.01300935
O      -2.73299481     -1.63555409      0.56870265
O      -1.94095859     -0.43743062     -1.11101695
H       0.06419596     -1.40916490      0.17514083
H      -0.65112069     -1.17264872      1.71205026
H      -0.32090124      0.28532674      0.79381375
7
Frame 65  Energy = -245.1617054041 Hartree
C      -0.61269100     -0.75309629      0.73524927
N      -1.86463704     -0.92416385      0.01434797
O      -2.73573274     -1.63169567      0.57036590
O      -1.93943613     -0.44044848     -1.11386417
H       0.06133650     -1.40543657      0.17671895
H      -0.65955251     -1.17228159      1.71154220
H      -0.31512693      0.28205344      0.79653914
7
Frame 70  Energy = -245.1616023483 Hartree
C      -0.61394315     -0.75291711      0.73610323
N      -1.86358391     -0.92340666      0.01562459
O      -2.73827876     -1.62758953      0.57186946
O      -1.93782273     -0.44353684     -1.11644549
H       0.05930249     -1.40001475      0.17814804
H      -0.66931648     -1.17244206      1.71220383
H      -0.30898562      0.27923422      0.79839976
7
Frame 75  Energy = -245.1615836135 Hartree
C      -0.61504292     -0.75277981      0.73693505
N      -1.86296994     -0.92284689      0.01690419
O      -2.74064616     -1.62331315      0.57321226
O      -1.93618171     -0.44665314     -1.11879518
H       0.05822067     -1.39307431      0.17938771
H      -0.68013194     -1.17289918      1.71438583
H      -0.30237428      0.27681469      0.79923718
7
Frame 80  Energy = -245.1615676551 Hartree
C      -0.61607494     -0.75262778      0.73776769
N      -1.86282809     -0.92249263      0.01802523
O      -2.74270388     -1.61887517      0.57436411
O      -1.93455377     -0.44997088     -1.12085724
H       0.05815723     -1.38515649      0.18034179
H      -0.69192642     -1.17344218      1.71839377
H      -0.29547098      0.27483185      0.79898262
7
Frame 85  Energy = -245.1616185145 Hartree
C      -0.61682179     -0.75247939      0.73858081
N      -1.86314754     -0.92225621      0.01891467
O      -2.74448421     -1.61418916      0.57530025
O      -1.93294697     -0.45338292     -1.12262826
H       0.05960691     -1.37645030      0.18087929
H      -0.70464825     -1.17418722      1.72367825
H      -0.28850428      0.27324638      0.79791455
7
Frame 90  Energy = -245.1615350960 Hartree
C      -0.61738174     -0.75234076      0.73946844
N      -1.86377190     -0.92212080      0.01968196
O      -2.74604285     -1.60928033      0.57604112
O      -1.93135827     -0.45685889     -1.12412770
H       0.06316493     -1.36757660      0.18065734
H      -0.71787448     -1.17522621      1.72940118
H      -0.28179696      0.27207593      0.79623124
7
Frame 95  Energy = -245.1615447587 Hartree
C      -0.61777249     -0.75228938      0.74045680
N      -1.86476102     -0.92208090      0.02030236
O      -2.74734491     -1.60406874      0.57664120
O      -1.92977401     -0.46040548     -1.12537949
H       0.06878545     -1.35864749      0.18017653
H      -0.73142087     -1.17668007      1.73519663
H      -0.27526012      0.27147573      0.79380705
7
Frame 100  Energy = -245.1615527947 Hartree
C      -0.61804042     -0.75228915      0.74146317
N      -1.86613392     -0.92218098      0.02073175
O      -2.74845429     -1.59865345      0.57706744
O      -1.92810811     -0.46398043     -1.12639122
H       0.07593654     -1.35014118      0.17929487
H      -0.74534461     -1.17776106      1.74030302
H      -0.26893835      0.27151217      0.79093567
7
Frame 105  Energy = -245.1615835910 Hartree
C      -0.61824865     -0.75239721      0.74259169
N      -1.86788239     -0.92248723      0.02086154
O      -2.74939518     -1.59312917      0.57730431
O      -1.92640367     -0.46766833     -1.12713341
H       0.08477144     -1.34200606      0.17851375
H      -0.75965471     -1.17817242      1.74442181
H      -0.26316001      0.27200227      0.78768649
7
Frame 110  Energy = -245.1616075417 Hartree
C      -0.61831939     -0.75268239      0.74393579
N      -1.86989133     -0.92289990      0.02071539
O      -2.75015213     -1.58748777      0.57741426
O      -1.92468509     -0.47149672     -1.12762622
H       0.09484495     -1.33438354      0.17761807
H      -0.77353321     -1.17765099      1.74731898
H      -0.25822523      0.27234694      0.78420428
7
Frame 115  Energy = -245.1615051606 Hartree
C      -0.61819276     -0.75300307      0.74554313
N      -1.87223574     -0.92337344      0.02036965
O      -2.75075808     -1.58176388      0.57735306
O      -1.92300582     -0.47552429     -1.12796617
H       0.10569017     -1.32711273      0.17661214
H      -0.78683325     -1.17659963      1.74918006
H      -0.25434549      0.27235989      0.78046763
7
Frame 120  Energy = -245.1612960170 Hartree
C      -0.61789520     -0.75340086      0.74729429
N      -1.87482400     -0.92389501      0.01987193
O      -2.75132540     -1.57591067      0.57710566
O      -1.92131811     -0.47967340     -1.12818159
H       0.11694966     -1.32019437      0.17628904
H      -0.79946334     -1.17504192      1.74989405
H      -0.25182657      0.27225010      0.77632605
7
Frame 125  Energy = -245.1611103989 Hartree
C      -0.61746351     -0.75389834      0.74921993
N      -1.87756406     -0.92442835      0.01921381
O      -2.75187143     -1.56991713      0.57667896
O      -1.91965310     -0.48397950     -1.12827145
H       0.12833681     -1.31347659      0.17666666
H      -0.81115894     -1.17277275      1.74923577
H      -0.25093461      0.27206474      0.77212830
7
Frame 130  Energy = -245.1609337419 Hartree
C      -0.61678415     -0.75438900      0.75128434
N      -1.88043430     -0.92505145      0.01834910
O      -2.75244247     -1.56385993      0.57619138
O      -1.91799413     -0.48836467     -1.12809331
H       0.13961007     -1.30696268      0.17780052
H      -0.82181661     -1.16932366      1.74713761
H      -0.25170041      0.27178450      0.76795733
7
Frame 135  Energy = -245.1608724294 Hartree
C      -0.61590411     -0.75494429      0.75341998
N      -1.88331246     -0.92577318      0.01732938
O      -2.75308983     -1.55766653      0.57567862
O      -1.91638713     -0.49275043     -1.12775675
H       0.15049340     -1.30067880      0.18021451
H      -0.83149852     -1.16554524      1.74382432
H      -0.25420634      0.27121225      0.76383436
7
Frame 140  Energy = -245.1609224920 Hartree
C      -0.61489344     -0.75550758      0.75555633
N      -1.88610683     -0.92654739      0.01613566
O      -2.75365146     -1.55136728      0.57516607
O      -1.91484494     -0.49707362     -1.12724721
H       0.16069767     -1.29459913      0.18336913
H      -0.83995830     -1.16137636      1.73991427
H      -0.25823529      0.27054308      0.75963375
7
Frame 145  Energy = -245.1610836710 Hartree
C      -0.61379668     -0.75606914      0.75763660
N      -1.88877485     -0.92726847      0.01467779
O      -2.75425021     -1.54504915      0.57469110
O      -1.91330118     -0.50130376     -1.12673472
H       0.16982511     -1.28866457      0.18727797
H      -0.84715967     -1.15681688      1.73582815
H      -0.26365615      0.27003071      0.75560331
7
Frame 150  Energy = -245.1611018347 Hartree
C      -0.61268199     -0.75670019      0.75963007
N      -1.89128629     -0.92794925      0.01308692
O      -2.75493025     -1.53883044      0.57421662
O      -1.91186885     -0.50551503     -1.12620268
H       0.17785874     -1.28323042      0.19212012
H      -0.85310580     -1.15216828      1.73190063
H      -0.27050628      0.26988293      0.75233145
7
Frame 155  Energy = -245.1612833876 Hartree
C      -0.61151329     -0.75737819      0.76157377
N      -1.89347192     -0.92866955      0.01147058
O      -2.75580626     -1.53263457      0.57371390
O      -1.91048806     -0.50973008     -1.12563659
H       0.18429710     -1.27816030      0.19813804
H      -0.85787151     -1.14740774      1.72870269
H      -0.27829769      0.27013459      0.74949623
7
Frame 160  Energy = -245.1613658631 Hartree
C      -0.61036164     -0.75808415      0.76334367
N      -1.89529789     -0.92930218      0.00975441
O      -2.75692528     -1.52648613      0.57320964
O      -1.90920534     -0.51384742     -1.12499656
H       0.18910268     -1.27350320      0.20529215
H      -0.86141249     -1.14321589      1.72662102
H      -0.28678406      0.27076229      0.74725736
7
Frame 165  Energy = -245.1613428717 Hartree
C      -0.60918726     -0.75871164      0.76494594
N      -1.89673207     -0.92979519      0.00786208
O      -2.75822874     -1.52037003      0.57275398
O      -1.90801516     -0.51796235     -1.12446330
H       0.19259485     -1.26924231      0.21347226
H      -0.86407639     -1.13940674      1.72568932
H      -0.29599162      0.27222270      0.74569567
7
Frame 170  Energy = -245.1611014698 Hartree
C      -0.60796744     -0.75929488      0.76631848
N      -1.89772395     -0.93013121      0.00592887
O      -2.75971547     -1.51429927      0.57242179
O      -1.90679342     -0.52214301     -1.12406728
H       0.19493801     -1.26544879      0.22250747
H      -0.86536016     -1.13602910      1.72611281
H      -0.30603704      0.27462995      0.74483669
7
Frame 175  Energy = -245.1612215755 Hartree
C      -0.60679495     -0.75984502      0.76746614
N      -1.89829185     -0.93037992      0.00393154
O      -2.76149072     -1.50832357      0.57216921
O      -1.90563720     -0.52627863     -1.12375605
H       0.19625168     -1.26255262      0.23236104
H      -0.86489850     -1.13303439      1.72812455
H      -0.31690639      0.27780608      0.74495831
7
Frame 180  Energy = -245.1611508030 Hartree
C      -0.60565175     -0.76038517      0.76835440
N      -1.89836172     -0.93059459      0.00186243
O      -2.76346855     -1.50245813      0.57200849
O      -1.90454369     -0.53033387     -1.12373958
H       0.19661207     -1.26083222      0.24270591
H      -0.86303935     -1.13073501      1.73189744
H      -0.32853765      0.28172294      0.74584422
7
Frame 185  Energy = -245.1610492601 Hartree
C      -0.60451550     -0.76093373      0.76908537
N      -1.89789724     -0.93078608     -0.00021949
O      -2.76570622     -1.49667501      0.57195331
O      -1.90346410     -0.53432405     -1.12394498
H       0.19648145     -1.26046788      0.25294587
H      -0.85989748     -1.12876538      1.73753221
H      -0.34060129      0.28631829      0.74786216
7
Frame 190  Energy = -245.1609428402 Hartree
C      -0.60343962     -0.76140808      0.76968843
N      -1.89699025     -0.93096631     -0.00224450
O      -2.76821811     -1.49098019      0.57195622
O      -1.90249416     -0.53827369     -1.12441180
H       0.19621900     -1.26170710      0.26317793
H      -0.85581836     -1.12733939      1.74439264
H      -0.35325780      0.29156072      0.75051287
7
Frame 195  Energy = -245.1608189302 Hartree
C      -0.60254728     -0.76185434      0.77026045
N      -1.89568768     -0.93114449     -0.00416287
O      -2.77099288     -1.48537247      0.57214393
O      -1.90167297     -0.54215715     -1.12511872
H       0.19649725     -1.26465439      0.27295814
H      -0.85061930     -1.12628261      1.75212446
H      -0.36641798      0.29718428      0.75394841
7
Frame 200  Energy = -245.1607829343 Hartree
C      -0.60191263     -0.76213182      0.77082467
N      -1.89402315     -0.93143621     -0.00597549
O      -2.77405502     -1.47983531      0.57249429
O      -1.90088744     -0.54596359     -1.12608666
H       0.19730810     -1.26929796      0.28199546
H      -0.84419563     -1.12537664      1.76059770
H      -0.37977893      0.30272185      0.75772061
7
Frame 205  Energy = -245.1605425994 Hartree
C      -0.60154588     -0.76224822      0.77144500
N      -1.89188222     -0.93175607     -0.00760683
O      -2.77739273     -1.47440044      0.57300533
O      -1.90005670     -0.54970698     -1.12732734
H       0.19889599     -1.27520197      0.29029926
H      -0.83660389     -1.12435273      1.76913953
H      -0.39311132      0.30799298      0.76186464
7
Frame 210  Energy = -245.1605652728 Hartree
C      -0.60142996     -0.76219303      0.77212380
N      -1.88933475     -0.93213041     -0.00905625
O      -2.78098823     -1.46903751      0.57363093
O      -1.89914764     -0.55334038     -1.12884904
H       0.20140609     -1.28217999      0.29748993
H      -0.82813189     -1.12326970      1.77718958
H      -0.40635076      0.31284815      0.76667999
7
Frame 215  Energy = -245.1601484031 Hartree
C      -0.60144283     -0.76196384      0.77299048
N      -1.88665169     -0.93260396     -0.01031334
O      -2.78481188     -1.46372100      0.57441210
O      -1.89821707     -0.55690249     -1.13071885
H       0.20465036     -1.29026344      0.30402220
H      -0.81893272     -1.12196254      1.78446549
H      -0.41906387      0.31732309      0.77242972
7
Frame 220  Energy = -245.1600755737 Hartree
C      -0.60160810     -0.76151837      0.77406922
N      -1.88373862     -0.93307003     -0.01127874
O      -2.78888021     -1.45841509      0.57526860
O      -1.89718589     -0.56035367     -1.13305284
H       0.20842905     -1.29908039      0.30967594
H      -0.80904864     -1.12045540      1.79073526
H      -0.43126580      0.32137411      0.77871360
7
Frame 225  Energy = -245.1603017456 Hartree
C      -0.60195040     -0.76091567      0.77533697
N      -1.88052625     -0.93369921     -0.01193679
O      -2.79312397     -1.45317726      0.57612773
O      -1.89611543     -0.56366894     -1.13571076
H       0.21223041     -1.30814918      0.31462718
H      -0.79902469     -1.11877857      1.79565055
H      -0.44272275      0.32442161      0.78489711
7
Frame 230  Energy = -245.1600640438 Hartree
C      -0.60245635     -0.76025378      0.77669551
N      -1.87702985     -0.93453555     -0.01221955
O      -2.79744736     -1.44801225      0.57695076
O      -1.89505026     -0.56681827     -1.13866551
H       0.21604284     -1.31695976      0.31889472
H      -0.78895244     -1.11676848      1.79921675
H      -0.45342918      0.32618834      0.79132699
7
Frame 235  Energy = -245.1599822548 Hartree
C      -0.60310287     -0.75952551      0.77809287
N      -1.87335256     -0.93541077     -0.01220091
O      -2.80188092     -1.44284880      0.57775416
O      -1.89395390     -0.56984827     -1.14187316
H       0.21942087     -1.32509471      0.32274152
H      -0.77843530     -1.11452718      1.80194438
H      -0.46336608      0.32674985      0.79769295
7
Frame 240  Energy = -245.1598925297 Hartree
C      -0.60381955     -0.75862483      0.77956265
N      -1.86961521     -0.93640694     -0.01191488
O      -2.80635861     -1.43772770      0.57853784
O      -1.89273822     -0.57278227     -1.14529338
H       0.22163629     -1.33171044      0.32645156
H      -0.76781510     -1.11230370      1.80357867
H      -0.47212750      0.32646402      0.80429521
7
Frame 245  Energy = -245.1599530369 Hartree
C      -0.60452172     -0.75760767      0.78114144
N      -1.86589319     -0.93770077     -0.01134316
O      -2.81084997     -1.43266168      0.57929435
O      -1.89135266     -0.57558732     -1.14887562
H       0.22250077     -1.33677494      0.33017539
H      -0.75730757     -1.10991836      1.80395415
H      -0.47952260      0.32553661      0.81085572
7
Frame 250  Energy = -245.1598576134 Hartree
C      -0.60527904     -0.75665519      0.78279780
N      -1.86221492     -0.93912459     -0.01054721
O      -2.81525762     -1.42761802      0.58002711
O      -1.88988830     -0.57835040     -1.15257621
H       0.22237268     -1.34017802      0.33447635
H      -0.74710043     -1.10741736      1.80343670
H      -0.48548646      0.32406096      0.81713410
7
Frame 255  Energy = -245.1599601445 Hartree
C      -0.60599048     -0.75585817      0.78459437
N      -1.85861563     -0.94071363     -0.00964576
O      -2.81963047     -1.42263532      0.58076699
O      -1.88836434     -0.58109983     -1.15642135
H       0.22076355     -1.34166903      0.33904298
H      -0.73749688     -1.10483644      1.80227482
H      -0.48982268      0.32221008      0.82287613
7
Frame 260  Energy = -245.1602144244 Hartree
C      -0.60668174     -0.75519202      0.78637085
N      -1.85520411     -0.94240025     -0.00853160
O      -2.82380438     -1.41765462      0.58153892
O      -1.88679515     -0.58385602     -1.16031091
H       0.21805063     -1.34130899      0.34360618
H      -0.72887830     -1.10248063      1.80077083
H      -0.49235119      0.32004131      0.82812689
7
Frame 265  Energy = -245.1598723087 Hartree
C      -0.60732550     -0.75454158      0.78817457
N      -1.85200377     -0.94418550     -0.00723264
O      -2.82776630     -1.41262226      0.58226520
O      -1.88507918     -0.58658761     -1.16416594
H       0.21402042     -1.33908538      0.34803789
H      -0.72166820     -1.10021614      1.79922646
H      -0.49332525      0.31753627      0.83265270
7
Frame 270  Energy = -245.1598308915 Hartree
C      -0.60792364     -0.75383332      0.78998511
N      -1.84911550     -0.94622022     -0.00586812
O      -2.83163387     -1.40748796      0.58285598
O      -1.88324107     -0.58934107     -1.16795822
H       0.20916023     -1.33495529      0.35212116
H      -0.71545250     -1.09831053      1.79841598
H      -0.49261317      0.31537372      0.83649208
7
Frame 275  Energy = -245.1597507265 Hartree
C      -0.60846882     -0.75312739      0.79179212
N      -1.84649453     -0.94834221     -0.00458429
O      -2.83532110     -1.40226301      0.58337344
O      -1.88130047     -0.59211320     -1.17161621
H       0.20393465     -1.32899631      0.35548632
H      -0.71057319     -1.09709306      1.79855837
H      -0.49043937      0.31366422      0.83975850
7
Frame 280  Energy = -245.1598336005 Hartree
C      -0.60905356     -0.75243740      0.79361733
N      -1.84422058     -0.95061169     -0.00327753
O      -2.83878865     -1.39701165      0.58380952
O      -1.87924834     -0.59496303     -1.17516134
H       0.19865702     -1.32164001      0.35775119
H      -0.70721872     -1.09671000      1.79958657
H      -0.48719025      0.31283885      0.84225143
7
Frame 285  Energy = -245.1597329364 Hartree
C      -0.60959324     -0.75189783      0.79529025
N      -1.84241606     -0.95301648     -0.00201354
O      -2.84205030     -1.39167331      0.58418769
O      -1.87710279     -0.59787741     -1.17857049
H       0.19380187     -1.31336652      0.35905115
H      -0.70527021     -1.09678245      1.80182111
H      -0.48294388      0.31258649      0.84421292
7
Frame 290  Energy = -245.1598912398 Hartree
C      -0.61006648     -0.75147197      0.79700623
N      -1.84108593     -0.95545545     -0.00084927
O      -2.84504023     -1.38632073      0.58450321
O      -1.87481499     -0.60088031     -1.18177502
H       0.19010085     -1.30446957      0.35917818
H      -0.70479494     -1.09743006      1.80517512
H      -0.47744049      0.31344964      0.84520692
7
Frame 295  Energy = -245.1598802058 Hartree
C      -0.61063299     -0.75104148      0.79872389
N      -1.84028938     -0.95783153      0.00026937
O      -2.84771284     -1.38090003      0.58470421
O      -1.87241385     -0.60391334     -1.18472958
H       0.18758651     -1.29507118      0.35771922
H      -0.70586725     -1.09883371      1.80969247
H      -0.47088750      0.31516456      0.84500772
7
Frame 300  Energy = -245.1599635277 Hartree
C      -0.61133229     -0.75068771      0.80043679
N      -1.83994548     -0.96018434      0.00124157
O      -2.85016338     -1.37543288      0.58483721
O      -1.86983544     -0.60700517     -1.18739985
H       0.18653130     -1.28574579      0.35480069
H      -0.70856915     -1.10078654      1.81474582
H      -0.46356822      0.31747168      0.84382539
