7
Frame 5  Energy = -245.1627908567 Hartree
C      -0.52802876     -0.75582998      0.58865405
N      -1.83323953     -0.97044886     -0.01705107
O      -2.41379736     -2.05773607      0.21187656
O      -2.30588996     -0.07622757     -0.74712505
H       0.22507183     -1.11981425     -0.11233634
H      -0.48939877     -1.31272867      1.52315325
H      -0.39201639      0.30974887      0.75920983
7
Frame 10  Energy = -245.1626721387 Hartree
C      -0.53094384     -0.75671631      0.59029450
N      -1.83397714     -0.96794705     -0.01829762
O      -2.41446079     -2.05617174      0.21572781
O      -2.30256980     -0.07868299     -0.75003202
H       0.21572500     -1.12061160     -0.11721629
H      -0.49282551     -1.31643779      1.51887098
H      -0.37920989      0.30416101      0.75307838
7
Frame 15  Energy = -245.1627642500 Hartree
C      -0.53369198     -0.75768746      0.59190052
N      -1.83522360     -0.96563864     -0.01968283
O      -2.41494855     -2.05435038      0.21948272
O      -2.29903342     -0.08136360     -0.75272199
H       0.20612535     -1.12124134     -0.12174966
H      -0.49652126     -1.31987174      1.51469432
H      -0.36671894      0.29841029      0.74683140
7
Frame 20  Energy = -245.1628877553 Hartree
C      -0.53629057     -0.75864095      0.59352338
N      -1.83694917     -0.96353129     -0.02120255
O      -2.41525787     -2.05219032      0.22310652
O      -2.29537418     -0.08417234     -0.75525692
H       0.19642087     -1.12225897     -0.12557267
H      -0.50034382     -1.32355656      1.51061011
H      -0.35496500      0.29261068      0.74051665
7
Frame 25  Energy = -245.1628415533 Hartree
C      -0.53890050     -0.75957310      0.59516055
N      -1.83916838     -0.96155477     -0.02283629
O      -2.41541379     -2.04974220      0.22665597
O      -2.29165389     -0.08713815     -0.75764472
H       0.18692087     -1.12361331     -0.12906337
H      -0.50421410     -1.32741995      1.50640059
H      -0.34371072      0.28733255      0.73420790
7
Frame 30  Energy = -245.1629670065 Hartree
C      -0.54140439     -0.76049319      0.59672256
N      -1.84181407     -0.95981204     -0.02454520
O      -2.41543827     -2.04701516      0.23010155
O      -2.28787342     -0.09026595     -0.75994305
H       0.17793393     -1.12522087     -0.13224460
H      -0.50803092     -1.33110785      1.50250428
H      -0.33309801      0.28324628      0.72847720
7
Frame 35  Energy = -245.1629195602 Hartree
C      -0.54384573     -0.76133728      0.59816161
N      -1.84475077     -0.95833873     -0.02626720
O      -2.41529872     -2.04400819      0.23355504
O      -2.28402781     -0.09349963     -0.76215512
H       0.16917498     -1.12733560     -0.13507394
H      -0.51175955     -1.33513882      1.49953889
H      -0.32297432      0.28033686      0.72306639
7
Frame 40  Energy = -245.1629531386 Hartree
C      -0.54610983     -0.76212300      0.59941358
N      -1.84803571     -0.95716329     -0.02799073
O      -2.41511327     -2.04066285      0.23693867
O      -2.28014188     -0.09686539     -0.76427280
H       0.16097461     -1.13016429     -0.13737466
H      -0.51524393     -1.33962823      1.49749241
H      -0.31364031      0.27854575      0.71840723
7
Frame 45  Energy = -245.1627005616 Hartree
C      -0.54822135     -0.76291103      0.60062429
N      -1.85161842     -0.95620099     -0.02962076
O      -2.41492627     -2.03705318      0.24018847
O      -2.27616739     -0.10030480     -0.76641037
H       0.15318732     -1.13389060     -0.13939998
H      -0.51851274     -1.34479758      1.49632216
H      -0.30477913      0.27775824      0.71451257
7
Frame 50  Energy = -245.1627210319 Hartree
C      -0.55017353     -0.76364358      0.60179911
N      -1.85537854     -0.95553639     -0.03120390
O      -2.41468850     -2.03313678      0.24337503
O      -2.27221258     -0.10374533     -0.76855863
H       0.14566329     -1.13823836     -0.14127861
H      -0.52168893     -1.35017659      1.49589760
H      -0.29692112      0.27796935      0.71142795
7
Frame 55  Energy = -245.1626235463 Hartree
C      -0.55193769     -0.76432064      0.60292759
N      -1.85932925     -0.95520786     -0.03266486
O      -2.41431288     -2.02893536      0.24641637
O      -2.26824827     -0.10718109     -0.77073682
H       0.13882561     -1.14342882     -0.14268441
H      -0.52448641     -1.35556888      1.49633101
H      -0.29005126      0.27904011      0.70924927
7
Frame 60  Energy = -245.1625777091 Hartree
C      -0.55354991     -0.76498493      0.60401830
N      -1.86334534     -0.95507897     -0.03389780
O      -2.41381022     -2.02455850      0.24933604
O      -2.26421833     -0.11054441     -0.77299201
H       0.13294632     -1.14911990     -0.14369763
H      -0.52708078     -1.36137534      1.49755564
H      -0.28413058      0.28042181      0.70773223
7
Frame 65  Energy = -245.1626103193 Hartree
C      -0.55501066     -0.76562343      0.60495598
N      -1.86738413     -0.95521232     -0.03493094
O      -2.41329303     -2.02011852      0.25218825
O      -2.26024098     -0.11385589     -0.77536957
H       0.12762084     -1.15527840     -0.14414869
H      -0.52920876     -1.36694123      1.49911212
H      -0.27943265      0.28189235      0.70726474
7
Frame 70  Energy = -245.1626761888 Hartree
C      -0.55619301     -0.76622483      0.60571290
N      -1.87145136     -0.95571764     -0.03572224
O      -2.41273947     -2.01563623      0.25491697
O      -2.25633077     -0.11701049     -0.77789808
H       0.12315559     -1.16212568     -0.14412339
H      -0.53117456     -1.37181452      1.50098940
H      -0.27610311      0.28300555      0.70762622
7
Frame 75  Energy = -245.1625936165 Hartree
C      -0.55720393     -0.76676377      0.60639667
N      -1.87546349     -0.95651737     -0.03620498
O      -2.41221805     -2.01115360      0.25759661
O      -2.25260451     -0.12005078     -0.78070712
H       0.11954175     -1.16981658     -0.14352373
H      -0.53316008     -1.37602605      1.50295375
H      -0.27422707      0.28350529      0.70879169
7
Frame 80  Energy = -245.1624920885 Hartree
C      -0.55796570     -0.76729263      0.60697634
N      -1.87930970     -0.95764380     -0.03626543
O      -2.41183343     -2.00665206      0.26019610
O      -2.24898564     -0.12299681     -0.78369192
H       0.11672352     -1.17780420     -0.14259777
H      -0.53497377     -1.37958653      1.50497246
H      -0.27380897      0.28350188      0.71060888
7
Frame 85  Energy = -245.1624552000 Hartree
C      -0.55863409     -0.76793157      0.60748613
N      -1.88299763     -0.95900994     -0.03598020
O      -2.41149920     -2.00217029      0.26271639
O      -2.24549484     -0.12575755     -0.78685452
H       0.11478803     -1.18606152     -0.14161295
H      -0.53668353     -1.38235022      1.50690125
H      -0.27495783      0.28288947      0.71285121
7
Frame 90  Energy = -245.1626076863 Hartree
C      -0.55920473     -0.76870626      0.60799997
N      -1.88644402     -0.96046476     -0.03534796
O      -2.41129316     -1.99783195      0.26514169
O      -2.24221013     -0.12828946     -0.79033872
H       0.11348371     -1.19462016     -0.14000920
H      -0.53799488     -1.38401928      1.50855468
H      -0.27743173      0.28172950      0.71549338
7
Frame 95  Energy = -245.1627291124 Hartree
C      -0.55962635     -0.76956237      0.60841578
N      -1.88955289     -0.96204032     -0.03432159
O      -2.41138895     -1.99366379      0.26746712
O      -2.23920317     -0.13063135     -0.79409903
H       0.11274326     -1.20307253     -0.13746700
H      -0.53881008     -1.38443452      1.51007953
H      -0.28097892      0.27985431      0.71823227
7
Frame 100  Energy = -245.1626672741 Hartree
C      -0.55992138     -0.77043803      0.60878172
N      -1.89221374     -0.96368997     -0.03296373
O      -2.41172342     -1.98963405      0.26971128
O      -2.23644137     -0.13275384     -0.79809424
H       0.11242817     -1.21144749     -0.13437236
H      -0.53951738     -1.38391670      1.51113718
H      -0.28584665      0.27758358      0.72103573
7
Frame 105  Energy = -245.1626556139 Hartree
C      -0.56012387     -0.77139629      0.60908861
N      -1.89442921     -0.96529591     -0.03128713
O      -2.41234835     -1.98579647      0.27200965
O      -2.23389214     -0.13465978     -0.80235454
H       0.11260033     -1.21936192     -0.13009423
H      -0.54017211     -1.38258944      1.51166253
H      -0.29155650      0.27481409      0.72415375
7
Frame 110  Energy = -245.1626533530 Hartree
C      -0.56014276     -0.77229905      0.60936905
N      -1.89612421     -0.96677326     -0.02931123
O      -2.41327400     -1.98214571      0.27435616
O      -2.23154092     -0.13639575     -0.80680223
H       0.11321131     -1.22699009     -0.12493094
H      -0.54038357     -1.38048288      1.51195975
H      -0.29814393      0.27188534      0.72755307
7
Frame 115  Energy = -245.1627626497 Hartree
C      -0.56005043     -0.77328418      0.60965742
N      -1.89726313     -0.96805304     -0.02713434
O      -2.41447849     -1.97882294      0.27672423
O      -2.22932535     -0.13793269     -0.81149461
H       0.11454653     -1.23390715     -0.11902426
H      -0.54004124     -1.37740384      1.51251637
H      -0.30568530      0.26907227      0.73136361
7
Frame 120  Energy = -245.1626689237 Hartree
C      -0.55981070     -0.77440904      0.60987702
N      -1.89788318     -0.96903256     -0.02479222
O      -2.41600549     -1.97583492      0.27912159
O      -2.22721306     -0.13931448     -0.81638619
H       0.11658555     -1.24008657     -0.11273457
H      -0.53971039     -1.37365585      1.51302488
H      -0.31362607      0.26696022      0.73534902
7
Frame 125  Energy = -245.1626911560 Hartree
C      -0.55951038     -0.77568779      0.61001499
N      -1.89788719     -0.96975984     -0.02229990
O      -2.41794190     -1.97318771      0.28167667
O      -2.22528587     -0.14054156     -0.82143636
H       0.11955119     -1.24575450     -0.10581401
H      -0.53919461     -1.36946289      1.51355914
H      -0.32191840      0.26502523      0.73894080
7
Frame 130  Energy = -245.1627354053 Hartree
C      -0.55914817     -0.77709470      0.61015187
N      -1.89720598     -0.97019030     -0.01975977
O      -2.42016704     -1.97089926      0.28426784
O      -2.22351303     -0.14165945     -0.82661075
H       0.12320181     -1.25083591     -0.09813120
H      -0.53817126     -1.36510252      1.51429339
H      -0.33011369      0.26336731      0.74250604
7
Frame 135  Energy = -245.1628406922 Hartree
C      -0.55884102     -0.77867046      0.61033260
N      -1.89602484     -0.97025619     -0.01721172
O      -2.42272619     -1.96891516      0.28687516
O      -2.22185823     -0.14265072     -0.83180287
H       0.12745019     -1.25526526     -0.08991593
H      -0.53672325     -1.36062984      1.51578267
H      -0.33809873      0.26218612      0.74618577
7
Frame 140  Energy = -245.1626940510 Hartree
C      -0.55846944     -0.78031458      0.61035774
N      -1.89436725     -0.96992908     -0.01464689
O      -2.42562981     -1.96734804      0.28961095
O      -2.22033066     -0.14370263     -0.83701949
H       0.13235793     -1.25927810     -0.08128844
H      -0.53538955     -1.35593093      1.51788591
H      -0.34595026      0.26176610      0.74976159
7
Frame 145  Energy = -245.1626693303 Hartree
C      -0.55804513     -0.78202864      0.61032810
N      -1.89219203     -0.96925511     -0.01208139
O      -2.42890597     -1.96615655      0.29250644
O      -2.21907947     -0.14476825     -0.84234822
H       0.13714791     -1.26284380     -0.07253391
H      -0.53410885     -1.35096570      1.52095433
H      -0.35359626      0.26214234      0.75308560
7
Frame 150  Energy = -245.1626937241 Hartree
C      -0.55764459     -0.78382987      0.61026059
N      -1.88963030     -0.96821731     -0.00972445
O      -2.43246269     -1.96525684      0.29558934
O      -2.21796153     -0.14574939     -0.84763383
H       0.14218397     -1.26593673     -0.06398969
H      -0.53264305     -1.34585441      1.52495948
H      -0.36103099      0.26308608      0.75615043
7
Frame 155  Energy = -245.1626669271 Hartree
C      -0.55720560     -0.78568269      0.61018782
N      -1.88673623     -0.96685723     -0.00744441
O      -2.43630520     -1.96467113      0.29869957
O      -2.21685187     -0.14671044     -0.85292980
H       0.14775564     -1.26821857     -0.05574261
H      -0.53110313     -1.34058344      1.52990203
H      -0.36834921      0.26459947      0.75905515
7
Frame 160  Energy = -245.1627228038 Hartree
C      -0.55672709     -0.78753340      0.61017096
N      -1.88364964     -0.96527237     -0.00527607
O      -2.44044129     -1.96431493      0.30181365
O      -2.21570542     -0.14771129     -0.85816431
H       0.15373745     -1.27011889     -0.04798022
H      -0.52968973     -1.33526840      1.53571795
H      -0.37519916      0.26651598      0.76160811
7
Frame 165  Energy = -245.1628197776 Hartree
C      -0.55621023     -0.78935880      0.61028596
N      -1.88040004     -0.96339486     -0.00330494
O      -2.44478107     -1.96414288      0.30491477
O      -2.21453805     -0.14882442     -0.86330205
H       0.16046743     -1.27127770     -0.04076989
H      -0.52842165     -1.33024570      1.54233787
H      -0.38144611      0.26878781      0.76373859
7
Frame 170  Energy = -245.1627485042 Hartree
C      -0.55562431     -0.79105226      0.61047015
N      -1.87697235     -0.96132618     -0.00154238
O      -2.44931061     -1.96409592      0.30800086
O      -2.21332532     -0.14997872     -0.86832291
H       0.16784525     -1.27172874     -0.03416616
H      -0.52755858     -1.32527761      1.54975820
H      -0.38720232      0.27096394      0.76530685
7
Frame 175  Energy = -245.1628071797 Hartree
C      -0.55511304     -0.79273473      0.61069546
N      -1.87348427     -0.95912851     -0.00010138
O      -2.45398965     -1.96415960      0.31111866
O      -2.21201522     -0.15121150     -0.87320723
H       0.17499736     -1.27176629     -0.02802452
H      -0.52693901     -1.32000105      1.55752536
H      -0.39287515      0.27284420      0.76623547
7
Frame 180  Energy = -245.1627318987 Hartree
C      -0.55457209     -0.79427153      0.61103049
N      -1.86995278     -0.95687019      0.00106422
O      -2.45876999     -1.96425970      0.31420162
O      -2.21065714     -0.15251265     -0.87790876
H       0.18175640     -1.27146174     -0.02250245
H      -0.52667768     -1.31401292      1.56535261
H      -0.39811153      0.27444885      0.76621385
7
Frame 185  Energy = -245.1626277661 Hartree
C      -0.55391211     -0.79565767      0.61160674
N      -1.86645561     -0.95457172      0.00192340
O      -2.46365263     -1.96438314      0.31730618
O      -2.20922307     -0.15388592     -0.88244646
H       0.18844411     -1.27074130     -0.01774923
H      -0.52663932     -1.30780260      1.57317724
H      -0.40300961      0.27545072      0.76560162
7
Frame 190  Energy = -245.1625173458 Hartree
C      -0.55316169     -0.79683849      0.61255561
N      -1.86315139     -0.95225391      0.00250041
O      -2.46864233     -1.96441915      0.32043274
O      -2.20772051     -0.15542065     -0.88675632
H       0.19502284     -1.26923512     -0.01365923
H      -0.52719676     -1.30154386      1.58065105
H      -0.40714429      0.27586431      0.76421366
7
Frame 195  Energy = -245.1627164248 Hartree
C      -0.55230112     -0.79774741      0.61379788
N      -1.86006731     -0.95002307      0.00279157
O      -2.47367299     -1.96432486      0.32358184
O      -2.20615022     -0.15700256     -0.89083681
H       0.20133111     -1.26711555     -0.01030187
H      -0.52827684     -1.29495027      1.58739881
H      -0.41053290      0.27552541      0.76256146
7
Frame 200  Energy = -245.1628020590 Hartree
C      -0.55127688     -0.79845672      0.61523771
N      -1.85719992     -0.94808353      0.00276880
O      -2.47862899     -1.96407004      0.32675086
O      -2.20452507     -0.15874871     -0.89461168
H       0.20745096     -1.26412503     -0.00737313
H      -0.53008059     -1.28806085      1.59320353
H      -0.41319820      0.27448567      0.76066167
7
Frame 205  Energy = -245.1628056546 Hartree
C      -0.55016828     -0.79904350      0.61706232
N      -1.85461638     -0.94642804      0.00240492
O      -2.48343017     -1.96354653      0.32992327
O      -2.20283193     -0.16068843     -0.89807725
H       0.21347092     -1.26063259     -0.00513431
H      -0.53253518     -1.28100852      1.59830869
H      -0.41500497      0.27291524      0.75800345
7
Frame 210  Energy = -245.1626383181 Hartree
C      -0.54897504     -0.79949346      0.61916413
N      -1.85235794     -0.94509080      0.00172107
O      -2.48814025     -1.96269589      0.33306320
O      -2.20102680     -0.16278332     -0.90130291
H       0.21916138     -1.25638118     -0.00347098
H      -0.53582883     -1.27393857      1.60258208
H      -0.41572335      0.27108098      0.75469844
7
Frame 215  Energy = -245.1624951791 Hartree
C      -0.54765678     -0.79990938      0.62158395
N      -1.85046261     -0.94395258      0.00074597
O      -2.49277172     -1.96152265      0.33617514
O      -2.19913343     -0.16507209     -0.90428209
H       0.22421959     -1.25123916     -0.00242407
H      -0.53965163     -1.26673812      1.60597837
H      -0.41561383      0.26901107      0.75102447
7
Frame 220  Energy = -245.1626165332 Hartree
C      -0.54611798     -0.80013809      0.62420133
N      -1.84898658     -0.94306415     -0.00046332
O      -2.49727942     -1.96005813      0.33916822
O      -2.19715539     -0.16748729     -0.90708170
H       0.22843544     -1.24561609     -0.00131262
H      -0.54339105     -1.25967412      1.60838349
H      -0.41455596      0.26690633      0.74692198
7
Frame 225  Energy = -245.1626145051 Hartree
C      -0.54448291     -0.80011180      0.62704752
N      -1.84795592     -0.94248400     -0.00196061
O      -2.50160632     -1.95827085      0.34212488
O      -2.19498999     -0.17002639     -0.90955498
H       0.23191713     -1.23947820     -0.00030493
H      -0.54758156     -1.25286568      1.61017440
H      -0.41269151      0.26503084      0.74232214
7
Frame 230  Energy = -245.1627257455 Hartree
C      -0.54273150     -0.79987883      0.63000264
N      -1.84735816     -0.94223310     -0.00372298
O      -2.50573081     -1.95615583      0.34504499
O      -2.19269119     -0.17271149     -0.91168195
H       0.23471766     -1.23321189      0.00055956
H      -0.55210094     -1.24679997      1.61176011
H      -0.41009799      0.26355849      0.73768484
7
Frame 235  Energy = -245.1629310641 Hartree
C      -0.54084791     -0.79945685      0.63292474
N      -1.84722227     -0.94227641     -0.00571924
O      -2.50959259     -1.95360684      0.34790073
O      -2.19029744     -0.17551632     -0.91365269
H       0.23691508     -1.22667754      0.00159529
H      -0.55669599     -1.24153206      1.61275757
H      -0.40707629      0.26318487      0.73269624
7
Frame 240  Energy = -245.1629996200 Hartree
C      -0.53895228     -0.79888376      0.63585155
N      -1.84750812     -0.94278334     -0.00791436
O      -2.51320673     -1.95079142      0.35062591
O      -2.18774429     -0.17844462     -0.91539247
H       0.23861274     -1.22005830      0.00286395
H      -0.56150569     -1.23713375      1.61371008
H      -0.40310993      0.26369163      0.72765543
7
Frame 245  Energy = -245.1630133520 Hartree
C      -0.53699743     -0.79820558      0.63869859
N      -1.84816999     -0.94375982     -0.01033951
O      -2.51662974     -1.94755240      0.35336381
O      -2.18508067     -0.18145804     -0.91694186
H       0.23962504     -1.21341289      0.00395825
H      -0.56635277     -1.23384196      1.61531719
H      -0.39858472      0.26479757      0.72278560
7
Frame 250  Energy = -245.1628970046 Hartree
C      -0.53503725     -0.79733875      0.64158958
N      -1.84921193     -0.94511585     -0.01278398
O      -2.51980603     -1.94393707      0.35603145
O      -2.18236586     -0.18458725     -0.91831017
H       0.24034338     -1.20725797      0.00466825
H      -0.57155131     -1.23176113      1.61782687
H      -0.39341394      0.26663018      0.71793293
7
Frame 255  Energy = -245.1629320502 Hartree
C      -0.53303095     -0.79633599      0.64450347
N      -1.85060579     -0.94682830     -0.01527286
O      -2.52278309     -1.93990310      0.35855875
O      -2.17959772     -0.18781235     -0.91954724
H       0.24094525     -1.20157427      0.00535321
H      -0.57724666     -1.23079228      1.62086480
H      -0.38743312      0.26924312      0.71287591
7
Frame 260  Energy = -245.1627884411 Hartree
C      -0.53106669     -0.79509531      0.64733281
N      -1.85232219     -0.94884590     -0.01768926
O      -2.52560991     -1.93548398      0.36099410
O      -2.17670020     -0.19112335     -0.92065449
H       0.24111623     -1.19638031      0.00605042
H      -0.58315650     -1.23070709      1.62424942
H      -0.38113145      0.27270505      0.70846412
7
Frame 265  Energy = -245.1628454578 Hartree
C      -0.52925073     -0.79365562      0.65014956
N      -1.85422692     -0.95118994     -0.02013936
O      -2.52833962     -1.93071192      0.36333078
O      -2.17367372     -0.19455134     -0.92155020
H       0.24140733     -1.19177418      0.00687880
H      -0.58901572     -1.23103906      1.62801755
H      -0.37454096      0.27659804      0.70423979
7
Frame 270  Energy = -245.1626940695 Hartree
C      -0.52751701     -0.79197068      0.65300742
N      -1.85628426     -0.95383480     -0.02259512
O      -2.53098557     -1.92563332      0.36555796
O      -2.17061244     -0.19789185     -0.92231013
H       0.24146607     -1.18773065      0.00765470
H      -0.59468090     -1.23187453      1.63219249
H      -0.36793509      0.28038353      0.70049279
7
Frame 275  Energy = -245.1624881606 Hartree
C      -0.52591389     -0.79014627      0.65578992
N      -1.85851707     -0.95681597     -0.02502116
O      -2.53357409     -1.92018206      0.36773786
O      -2.16749117     -0.20119352     -0.92301747
H       0.24152687     -1.18441228      0.00866066
H      -0.59997575     -1.23308296      1.63656269
H      -0.36135300      0.28412462      0.69744644
7
Frame 280  Energy = -245.1622251866 Hartree
C      -0.52434456     -0.78812025      0.65846390
N      -1.86084239     -0.96005439     -0.02744762
O      -2.53615502     -1.91436493      0.36979114
O      -2.16432090     -0.20452346     -0.92367429
H       0.24202040     -1.18222701      0.00989828
H      -0.60458662     -1.23460022      1.64104435
H      -0.35472850      0.28755234      0.69474353
7
Frame 285  Energy = -245.1623097126 Hartree
C      -0.52299673     -0.78584346      0.66097307
N      -1.86322736     -0.96352893     -0.02974071
O      -2.53869962     -1.90828783      0.37168713
O      -2.16114159     -0.20784576     -0.92429037
H       0.24234903     -1.18078595      0.01089696
H      -0.60841160     -1.23640901      1.64505397
H      -0.34810600      0.29044240      0.69248860
7
Frame 290  Energy = -245.1624797623 Hartree
C      -0.52184218     -0.78338643      0.66335507
N      -1.86555478     -0.96715682     -0.03190984
O      -2.54111542     -1.90205296      0.37347573
O      -2.15799446     -0.21113257     -0.92488128
H       0.24278064     -1.18059434      0.01208144
H      -0.61170502     -1.23825044      1.64838288
H      -0.34207949      0.29259327      0.69100207
7
Frame 295  Energy = -245.1623018917 Hartree
C      -0.52081205     -0.78072339      0.66564298
N      -1.86773537     -0.97098350     -0.03396480
O      -2.54358836     -1.89574198      0.37522023
O      -2.15485972     -0.21444321     -0.92548310
H       0.24344313     -1.18154782      0.01320474
H      -0.61441314     -1.23974062      1.65089769
H      -0.33659128      0.29388634      0.68983287
7
Frame 300  Energy = -245.1622910855 Hartree
C      -0.51990623     -0.77798295      0.66787798
N      -1.86980752     -0.97500363     -0.03583570
O      -2.54608650     -1.88935092      0.37695967
O      -2.15184296     -0.21765076     -0.92611951
H       0.24399434     -1.18343479      0.01480180
H      -0.61617034     -1.24097142      1.65223675
H      -0.33171406      0.29486664      0.68906644
