7
Frame 5  Energy = -245.1591687907 Hartree
C      -0.61213824     -0.75028351      0.80219433
N      -1.84007113     -0.96250322      0.00198805
O      -2.85235733     -1.36988484      0.58492763
O      -1.86722439     -0.61011556     -1.18974581
H       0.18713947     -1.27676033      0.35048663
H      -0.71241322     -1.10325641      1.81991841
H      -0.45556355      0.32023273      0.84198238
7
Frame 10  Energy = -245.1589075736 Hartree
C      -0.61304905     -0.74980475      0.80405686
N      -1.84069918     -0.96481419      0.00245021
O      -2.85434888     -1.36424633      0.58498429
O      -1.86450983     -0.61330481     -1.19177900
H       0.18913302     -1.26831851      0.34461918
H      -0.71758025     -1.10631835      1.82494583
H      -0.44706427      0.32325217      0.83953506
7
Frame 15  Energy = -245.1590010340 Hartree
C      -0.61402147     -0.74930262      0.80602801
N      -1.84182146     -0.96705417      0.00269861
O      -2.85619628     -1.35856166      0.58498350
O      -1.86169783     -0.61667186     -1.19351659
H       0.19320181     -1.26060788      0.33755045
H      -0.72387049     -1.10959073      1.82914347
H      -0.43806762      0.32624573      0.83614075
7
Frame 20  Energy = -245.1590976939 Hartree
C      -0.61500039     -0.74881513      0.80808379
N      -1.84337005     -0.96919305      0.00265426
O      -2.85782355     -1.35292548      0.58496069
O      -1.85881575     -0.62025445     -1.19490754
H       0.19844461     -1.25317568      0.32960517
H      -0.73095520     -1.11292868      1.83240125
H      -0.42857709      0.32883231      0.83241820
7
Frame 25  Energy = -245.1589796564 Hartree
C      -0.61589762     -0.74836395      0.81014360
N      -1.84521275     -0.97118187      0.00246102
O      -2.85916783     -1.34722166      0.58494106
O      -1.85587513     -0.62397419     -1.19591305
H       0.20469651     -1.24614794      0.32087745
H      -0.73888797     -1.11634211      1.83446984
H      -0.41917188      0.33044342      0.82831582
7
Frame 30  Energy = -245.1588802401 Hartree
C      -0.61685931     -0.74791081      0.81222725
N      -1.84740931     -0.97297074      0.00210930
O      -2.86031827     -1.34144763      0.58482442
O      -1.85280951     -0.62784442     -1.19656528
H       0.21134645     -1.23945017      0.31175498
H      -0.74753941     -1.11969931      1.83541013
H      -0.41005964      0.33117059      0.82387541
7
Frame 35  Energy = -245.1589298163 Hartree
C      -0.61782131     -0.74734860      0.81429733
N      -1.84996464     -0.97456040      0.00153272
O      -2.86135427     -1.33570496      0.58466729
O      -1.84971448     -0.63186677     -1.19690607
H       0.21781873     -1.23281377      0.30258129
H      -0.75705164     -1.12303512      1.83517256
H      -0.40168645      0.33077305      0.81931970
7
Frame 40  Energy = -245.1588486616 Hartree
C      -0.61861478     -0.74682755      0.81633321
N      -1.85273950     -0.97601803      0.00075646
O      -2.86226271     -1.32993287      0.58447824
O      -1.84660879     -0.63590521     -1.19689171
H       0.22382746     -1.22616564      0.29357049
H      -0.76688653     -1.12596057      1.83324643
H      -0.39399299      0.32941165      0.81449087
7
Frame 45  Energy = -245.1590601711 Hartree
C      -0.61923980     -0.74639294      0.81831275
N      -1.85578686     -0.97723225     -0.00024314
O      -2.86307497     -1.32426735      0.58432142
O      -1.84341128     -0.63998213     -1.19657868
H       0.22890908     -1.21944542      0.28517308
H      -0.77689401     -1.12870971      1.83004357
H      -0.38717694      0.32721085      0.80966597
7
Frame 50  Energy = -245.1587625348 Hartree
C      -0.61966868     -0.74603266      0.82020737
N      -1.85897962     -0.97819315     -0.00151092
O      -2.86384903     -1.31860980      0.58420028
O      -1.84007364     -0.64425954     -1.19593474
H       0.23286573     -1.21286226      0.27834872
H      -0.78641878     -1.13124806      1.82549065
H      -0.38141144      0.32417546      0.80496009
7
Frame 55  Energy = -245.1586966267 Hartree
C      -0.61988142     -0.74571023      0.82193818
N      -1.86222623     -0.97892863     -0.00307195
O      -2.86454402     -1.31295953      0.58410059
O      -1.83669543     -0.64876574     -1.19501036
H       0.23538012     -1.20653066      0.27317607
H      -0.79587931     -1.13380477      1.82021185
H      -0.37696926      0.32051863      0.80053148
7
Frame 60  Energy = -245.1587517518 Hartree
C      -0.61986093     -0.74543466      0.82340441
N      -1.86557290     -0.97935998     -0.00485069
O      -2.86517545     -1.30736166      0.58402054
O      -1.83333068     -0.65337446     -1.19387208
H       0.23572239     -1.20017581      0.26941808
H      -0.80497973     -1.13645826      1.81457893
H      -0.37354258      0.31646388      0.79651468
7
Frame 65  Energy = -245.1590150109 Hartree
C      -0.61962217     -0.74521043      0.82466986
N      -1.86887381     -0.97943154     -0.00675819
O      -2.86585940     -1.30186957      0.58395200
O      -1.82994280     -0.65798491     -1.19259215
H       0.23383301     -1.19392721      0.26732849
H      -0.81350477     -1.13894170      1.80888798
H      -0.37144562      0.31206265      0.79318268
7
Frame 70  Energy = -245.1589881918 Hartree
C      -0.61926569     -0.74506378      0.82565920
N      -1.87218400     -0.97925172     -0.00876903
O      -2.86657646     -1.29648312      0.58401803
O      -1.82652001     -0.66264121     -1.19117063
H       0.23017866     -1.18771562      0.26697189
H      -0.82120612     -1.14124511      1.80338125
H      -0.37057111      0.30779509      0.79044373
7
Frame 75  Energy = -245.1589861108 Hartree
C      -0.61887014     -0.74507150      0.82635049
N      -1.87544269     -0.97877567     -0.01083011
O      -2.86729287     -1.29116278      0.58407825
O      -1.82305742     -0.66736859     -1.18959749
H       0.22485126     -1.18215243      0.26844520
H      -0.82823194     -1.14370868      1.79837801
H      -0.37082942      0.30380223      0.78853076
7
Frame 80  Energy = -245.1590802209 Hartree
C      -0.61846563     -0.74513851      0.82677608
N      -1.87856946     -0.97799452     -0.01298627
O      -2.86814218     -1.28590233      0.58410775
O      -1.81959495     -0.67213915     -1.18791633
H       0.21837277     -1.17765156      0.27111316
H      -0.83468599     -1.14632038      1.79390233
H      -0.37225802      0.30094034      0.78759562
7
Frame 85  Energy = -245.1590605823 Hartree
C      -0.61809829     -0.74527929      0.82687932
N      -1.88143602     -0.97702183     -0.01516574
O      -2.86907370     -1.28072843      0.58414334
O      -1.81627394     -0.67697120     -1.18618224
H       0.21146019     -1.17427090      0.27434698
H      -0.84057594     -1.14914987      1.79046045
H      -0.37497859      0.29938125      0.78777833
7
Frame 90  Energy = -245.1592412587 Hartree
C      -0.61773089     -0.74561521      0.82665411
N      -1.88401143     -0.97586033     -0.01723206
O      -2.87016246     -1.27559924      0.58431569
O      -1.81294249     -0.68185721     -1.18447350
H       0.20441182     -1.17224159      0.27793224
H      -0.84589558     -1.15225593      1.78823484
H      -0.37851692      0.29920355      0.78880847
7
Frame 95  Energy = -245.1593581066 Hartree
C      -0.61742225     -0.74600190      0.82606520
N      -1.88625176     -0.97449987     -0.01915600
O      -2.87131449     -1.27057784      0.58456590
O      -1.80954218     -0.68671812     -1.18290375
H       0.19776049     -1.17213308      0.28147515
H      -0.85064493     -1.15559673      1.78749037
H      -0.38309220      0.30006915      0.79058537
7
Frame 100  Energy = -245.1593372638 Hartree
C      -0.61725031     -0.74641940      0.82521379
N      -1.88816932     -0.97290676     -0.02089134
O      -2.87259752     -1.26563434      0.58492019
O      -1.80617470     -0.69157002     -1.18135950
H       0.19205242     -1.17389374      0.28496899
H      -0.85481615     -1.15876000      1.78767659
H      -0.38879086      0.30239397      0.79321003
7
Frame 105  Energy = -245.1591958638 Hartree
C      -0.61722493     -0.74686072      0.82418145
N      -1.88974538     -0.97104189     -0.02245743
O      -2.87402896     -1.26073038      0.58537531
O      -1.80286624     -0.69645989     -1.17999587
H       0.18740726     -1.17774775      0.28826733
H      -0.85810274     -1.16142010      1.78870549
H      -0.39556042      0.30608617      0.79674464
7
Frame 110  Energy = -245.1592620858 Hartree
C      -0.61739296     -0.74729361      0.82302508
N      -1.89092446     -0.96899775     -0.02388281
O      -2.87566076     -1.25591896      0.58592191
O      -1.79953147     -0.70132354     -1.17883367
H       0.18431302     -1.18372958      0.29063486
H      -0.86048490     -1.16388941      1.79020063
H      -0.40332968      0.31078829      0.80147755
7
Frame 115  Energy = -245.1593816368 Hartree
C      -0.61788829     -0.74778862      0.82179282
N      -1.89182205     -0.96679773     -0.02498018
O      -2.87749151     -1.25121299      0.58644484
O      -1.79611577     -0.70611305     -1.17786666
H       0.18289354     -1.19181178      0.29224697
H      -0.86168289     -1.16609587      1.79214557
H      -0.41184014      0.31614884      0.80720026
7
Frame 120  Energy = -245.1594937589 Hartree
C      -0.61865638     -0.74833130      0.82047399
N      -1.89238586     -0.96435098     -0.02570791
O      -2.87947515     -1.24660146      0.58699159
O      -1.79270641     -0.71085739     -1.17723794
H       0.18343011     -1.20169711      0.29308843
H      -0.86174279     -1.16806102      1.79420954
H      -0.42064651      0.32165637      0.81360166
7
Frame 125  Energy = -245.1593886372 Hartree
C      -0.61962507     -0.74883885      0.81907672
N      -1.89258706     -0.96169718     -0.02600367
O      -2.88167692     -1.24209650      0.58755900
O      -1.78933136     -0.71559153     -1.17701406
H       0.18567826     -1.21313259      0.29335418
H      -0.86084083     -1.16983949      1.79609309
H      -0.43010424      0.32698920      0.82024838
7
Frame 130  Energy = -245.1595246810 Hartree
C      -0.62080633     -0.74931417      0.81761568
N      -1.89245154     -0.95887561     -0.02590078
O      -2.88403374     -1.23771153      0.58822677
O      -1.78595362     -0.72028656     -1.17716792
H       0.18925157     -1.22575795      0.29311553
H      -0.85916075     -1.17118536      1.79770833
H      -0.44027084      0.33152326      0.82736799
7
Frame 135  Energy = -245.1597270195 Hartree
C      -0.62209242     -0.74975181      0.81612399
N      -1.89207386     -0.95599398     -0.02535131
O      -2.88654174     -1.23349773      0.58902362
O      -1.78263309     -0.72499131     -1.17767835
H       0.19326061     -1.23892939      0.29297743
H      -0.85667206     -1.17162133      1.79873590
H      -0.45074778      0.33501170      0.83482546
7
Frame 140  Energy = -245.1595424200 Hartree
C      -0.62357863     -0.75025192      0.81456425
N      -1.89151058     -0.95303449     -0.02433754
O      -2.88908419     -1.22936372      0.58988910
O      -1.77936903     -0.72969820     -1.17849894
H       0.19725480     -1.25209778      0.29326589
H      -0.85337191     -1.17140082      1.79892559
H      -0.46138190      0.33727805      0.84273428
7
Frame 145  Energy = -245.1595973102 Hartree
C      -0.62515591     -0.75087905      0.81294113
N      -1.89081236     -0.95002664     -0.02283343
O      -2.89172619     -1.22517860      0.59081488
O      -1.77610899     -0.73441191     -1.17960554
H       0.20080056     -1.26486015      0.29407705
H      -0.84942176     -1.17052627      1.79842665
H      -0.47222222      0.33840257      0.85097421
7
Frame 150  Energy = -245.1595344147 Hartree
C      -0.62674211     -0.75156924      0.81117104
N      -1.88987450     -0.94702859     -0.02093719
O      -2.89447279     -1.22106938      0.59167654
O      -1.77285698     -0.73911946     -1.18106440
H       0.20311447     -1.27670671      0.29569701
H      -0.84481894     -1.16883929      1.79706042
H      -0.48300216      0.33817409      0.85927286
7
Frame 155  Energy = -245.1597670078 Hartree
C      -0.62837395     -0.75232418      0.80935093
N      -1.88875887     -0.94397463     -0.01866353
O      -2.89728874     -1.21708718      0.59255008
O      -1.76965702     -0.74382514     -1.18282893
H       0.20428509     -1.28687796      0.29823700
H      -0.83922820     -1.16659736      1.79516912
H      -0.49343265      0.33658338      0.86713516
7
Frame 160  Energy = -245.1599476332 Hartree
C      -0.63000133     -0.75310367      0.80749162
N      -1.88752748     -0.94083830     -0.01604348
O      -2.90013353     -1.21322499      0.59344369
O      -1.76660043     -0.74859148     -1.18487593
H       0.20395883     -1.29499352      0.30214198
H      -0.83323300     -1.16428771      1.79288202
H      -0.50317441      0.33357141      0.87458661
7
Frame 165  Energy = -245.1598259983 Hartree
C      -0.63171248     -0.75404817      0.80563973
N      -1.88625072     -0.93776040     -0.01301607
O      -2.90303049     -1.20932231      0.59437137
O      -1.76362727     -0.75331344     -1.18710893
H       0.20155486     -1.30105147      0.30696220
H      -0.82706484     -1.16205775      1.79004222
H      -0.51216591      0.32966910      0.88175197
7
Frame 170  Energy = -245.1598336331 Hartree
C      -0.63353779     -0.75516819      0.80372095
N      -1.88489494     -0.93467591     -0.00975983
O      -2.90594485     -1.20543885      0.59528905
O      -1.76071663     -0.75797793     -1.18953436
H       0.19704942     -1.30499261      0.31239887
H      -0.82086701     -1.16018008      1.78707341
H      -0.52045331      0.32499751      0.88818676
7
Frame 175  Energy = -245.1598357747 Hartree
C      -0.63530537     -0.75641700      0.80182964
N      -1.88355083     -0.93160611     -0.00626675
O      -2.90882662     -1.20156469      0.59619789
O      -1.75783749     -0.76265517     -1.19211129
H       0.19141382     -1.30696997      0.31840513
H      -0.81483770     -1.15870004      1.78416705
H      -0.52735871      0.31965897      0.89422837
7
Frame 180  Energy = -245.1597245703 Hartree
C      -0.63706742     -0.75791137      0.80001800
N      -1.88211655     -0.92859289     -0.00270700
O      -2.91163163     -1.19769309      0.59697689
O      -1.75500421     -0.76735342     -1.19477315
H       0.18471176     -1.30697951      0.32460555
H      -0.80884628     -1.15727600      1.78123157
H      -0.53330892      0.31406999      0.89951845
7
Frame 185  Energy = -245.1598355827 Hartree
C      -0.63891742     -0.75954807      0.79821970
N      -1.88063852     -0.92565046      0.00091926
O      -2.91433120     -1.19382414      0.59762940
O      -1.75221639     -0.77207403     -1.19745580
H       0.17709734     -1.30549223      0.33067447
H      -0.80305101     -1.15646560      1.77903389
H      -0.53831375      0.30895035      0.90429531
7
Frame 190  Energy = -245.1597499532 Hartree
C      -0.64064895     -0.76128857      0.79653228
N      -1.87924625     -0.92278595      0.00457863
O      -2.91693029     -1.19005688      0.59825319
O      -1.74948505     -0.77687294     -1.20007843
H       0.16954019     -1.30315788      0.33643270
H      -0.79773300     -1.15631901      1.77793950
H      -0.54167682      0.30455569      0.90888292
7
Frame 195  Energy = -245.1597508329 Hartree
C      -0.64234972     -0.76314563      0.79507283
N      -1.87801155     -0.92000437      0.00818834
O      -2.91944783     -1.18623840      0.59881553
O      -1.74677644     -0.78165039     -1.20262938
H       0.16256876     -1.29999334      0.34131086
H      -0.79336830     -1.15718636      1.77808034
H      -0.54314323      0.30049250      0.91297323
7
Frame 200  Energy = -245.1596406174 Hartree
C      -0.64413555     -0.76500651      0.79380065
N      -1.87683964     -0.91735920      0.01167299
O      -2.92181575     -1.18225342      0.59932133
O      -1.74415551     -0.78647630     -1.20495508
H       0.15666670     -1.29623502      0.34484683
H      -0.79020449     -1.15902323      1.77919757
H      -0.54290971      0.29776589      0.91659878
7
Frame 205  Energy = -245.1594601949 Hartree
C      -0.64602250     -0.76683919      0.79275173
N      -1.87582752     -0.91482356      0.01501500
O      -2.92411010     -1.17816979      0.59965975
O      -1.74153776     -0.79137357     -1.20711002
H       0.15226186     -1.29249330      0.34648285
H      -0.78819015     -1.16150289      1.78088915
H      -0.54099519      0.29638477      0.91992740
7
Frame 210  Energy = -245.1594639843 Hartree
C      -0.64806033     -0.76862931      0.79196347
N      -1.87506192     -0.91239846      0.01810541
O      -2.92624511     -1.17394707      0.59990934
O      -1.73896291     -0.79628523     -1.20902475
H       0.14987868     -1.28858640      0.34596491
H      -0.78672425     -1.16452328      1.78295578
H      -0.53769756      0.29609046      0.92260643
7
Frame 215  Energy = -245.1595229309 Hartree
C      -0.65023185     -0.77037174      0.79159432
N      -1.87451953     -0.91015822      0.02088696
O      -2.92816471     -1.16969735      0.60008808
O      -1.73648212     -0.80124300     -1.21059604
H       0.14934162     -1.28506792      0.34323475
H      -0.78544658     -1.16819060      1.78537635
H      -0.53282369      0.29675787      0.92461208
7
Frame 220  Energy = -245.1593928585 Hartree
C      -0.65258231     -0.77203451      0.79166844
N      -1.87416270     -0.90810697      0.02325698
O      -2.92985915     -1.16535157      0.60020435
O      -1.73396381     -0.80621250     -1.21189742
H       0.15092689     -1.28178567      0.33844027
H      -0.78470375     -1.17247904      1.78825729
H      -0.52639794      0.29751616      0.92573368
7
Frame 225  Energy = -245.1594429193 Hartree
C      -0.65506699     -0.77362535      0.79219321
N      -1.87402023     -0.90624905      0.02518724
O      -2.93135771     -1.16093921      0.60026195
O      -1.73154650     -0.81114012     -1.21293329
H       0.15402994     -1.27897994      0.33162277
H      -0.78444548     -1.17725196      1.79113930
H      -0.51857453      0.29815263      0.92623919
7
Frame 230  Energy = -245.1593133982 Hartree
C      -0.65765866     -0.77508257      0.79313088
N      -1.87405221     -0.90459110      0.02665793
O      -2.93263290     -1.15643603      0.60027300
O      -1.72918736     -0.81609713     -1.21365783
H       0.15847403     -1.27611440      0.32311975
H      -0.78485230     -1.18219280      1.79397953
H      -0.50927179      0.29875400      0.92596163
7
Frame 235  Energy = -245.1593555327 Hartree
C      -0.66021626     -0.77642562      0.79444209
N      -1.87431358     -0.90316990      0.02765548
O      -2.93372755     -1.15179824      0.60023031
O      -1.72691896     -0.82103246     -1.21410291
H       0.16379885     -1.27329965      0.31306781
H      -0.78555030     -1.18704119      1.79601977
H      -0.49901912      0.29910894      0.92520335
7
Frame 240  Energy = -245.1594306884 Hartree
C      -0.66259893     -0.77771103      0.79613743
N      -1.87493160     -0.90200350      0.02821967
O      -2.93469847     -1.14705934      0.60014638
O      -1.72468719     -0.82592598     -1.21419439
H       0.16932170     -1.27043230      0.30183011
H      -0.78663192     -1.19155620      1.79723853
H      -0.48858114      0.29882137      0.92377767
7
Frame 245  Energy = -245.1593898959 Hartree
C      -0.66470095     -0.77890256      0.79817150
N      -1.87578847     -0.90104041      0.02832495
O      -2.93541875     -1.14226845      0.59990163
O      -1.72251935     -0.83083549     -1.21394916
H       0.17467561     -1.26721943      0.29022073
H      -0.78837223     -1.19574322      1.79738670
H      -0.47765377      0.29773415      0.92129187
7
Frame 250  Energy = -245.1593234521 Hartree
C      -0.66649317     -0.77993871      0.80048012
N      -1.87680843     -0.90028665      0.02794663
O      -2.93590880     -1.13738267      0.59942438
O      -1.72038980     -0.83573455     -1.21330181
H       0.17886659     -1.26333498      0.27848928
H      -0.79093960     -1.19965616      1.79668939
H      -0.46644722      0.29575209      0.91830665
7
Frame 255  Energy = -245.1592174263 Hartree
C      -0.66793814     -0.78091532      0.80312988
N      -1.87811594     -0.89970031      0.02712186
O      -2.93617465     -1.13234347      0.59877550
O      -1.71836977     -0.84062044     -1.21229735
H       0.18133511     -1.25884008      0.26705011
H      -0.79411196     -1.20334945      1.79549674
H      -0.45521263      0.29269462      0.91494046
7
Frame 260  Energy = -245.1590649556 Hartree
C      -0.66895786     -0.78186960      0.80591101
N      -1.87975566     -0.89928072      0.02589356
O      -2.93629849     -1.12721811      0.59804543
O      -1.71645673     -0.84550076     -1.21094132
H       0.18188409     -1.25346958      0.25606414
H      -0.79793942     -1.20700817      1.79376911
H      -0.44407949      0.28840466      0.91156854
7
Frame 265  Energy = -245.1590269691 Hartree
C      -0.66956889     -0.78278548      0.80886482
N      -1.88166706     -0.89904476      0.02423709
O      -2.93623077     -1.12211135      0.59730123
O      -1.71473267     -0.85035523     -1.20923883
H       0.18017426     -1.24690368      0.24609616
H      -0.80250360     -1.21110565      1.79182796
H      -0.43310802      0.28329296      0.90804137
7
Frame 270  Energy = -245.1588855290 Hartree
C      -0.66976388     -0.78371835      0.81185942
N      -1.88377304     -0.89893990      0.02216376
O      -2.93606358     -1.11690197      0.59647835
O      -1.71311333     -0.85515597     -1.20720283
H       0.17566002     -1.23960858      0.23754630
H      -0.80749810     -1.21566175      1.78975764
H      -0.42233636      0.27758217      0.90426630
7
Frame 275  Energy = -245.1590667826 Hartree
C      -0.66958107     -0.78462959      0.81483707
N      -1.88593346     -0.89895124      0.01977550
O      -2.93585303     -1.11167937      0.59553797
O      -1.71159720     -0.85982687     -1.20497634
H       0.16851889     -1.23188178      0.23043446
H      -0.81291950     -1.22055923      1.78772936
H      -0.41172179      0.27161264      0.90042675
7
Frame 280  Energy = -245.1592603493 Hartree
C      -0.66904662     -0.78546568      0.81767887
N      -1.88814614     -0.89905338      0.01712385
O      -2.93557256     -1.10647429      0.59458882
O      -1.71017495     -0.86443639     -1.20258444
H       0.15909919     -1.22397201      0.22487409
H      -0.81824435     -1.22592378      1.78578017
H      -0.40137101      0.26552746      0.89664265
7
Frame 285  Energy = -245.1594903419 Hartree
C      -0.66825731     -0.78613322      0.82043001
N      -1.89026660     -0.89926544      0.01425633
O      -2.93527209     -1.10127543      0.59362056
O      -1.70881826     -0.86893669     -1.20003850
H       0.14787454     -1.21648398      0.22074488
H      -0.82371455     -1.23187986      1.78417825
H      -0.39183786      0.25954724      0.89338313
7
Frame 290  Energy = -245.1596858306 Hartree
C      -0.66724142     -0.78676781      0.82301960
N      -1.89238320     -0.89965917      0.01124045
O      -2.93492816     -1.09609492      0.59265931
O      -1.70764716     -0.87334569     -1.19738613
H       0.13565908     -1.20968158      0.21775872
H      -0.82917794     -1.23821555      1.78290106
H      -0.38329488      0.25412421      0.89077885
7
Frame 295  Energy = -245.1595603031 Hartree
C      -0.66608292     -0.78732226      0.82548730
N      -1.89444132     -0.90019119      0.00804931
O      -2.93472102     -1.09093682      0.59162627
O      -1.70661389     -0.87778767     -1.19468231
H       0.12273577     -1.20369640      0.21549274
H      -0.83439133     -1.24451569      1.78199951
H      -0.37566886      0.24950390      0.88908329
7
Frame 300  Energy = -245.1598850662 Hartree
C      -0.66491877     -0.78775833      0.82789273
N      -1.89629895     -0.90080915      0.00485873
O      -2.93461712     -1.08572753      0.59053576
O      -1.70568620     -0.88210965     -1.19196585
H       0.10965793     -1.19888223      0.21380631
H      -0.83933779     -1.25084531      1.78185417
H      -0.36879667      0.24581428      0.88849527
