11
Frame 5  Energy = -268.3173547516 Hartree
C       0.76593425     -0.58204689     -0.51918903
C       0.39460141     -0.80522177     -1.97426523
C      -0.90827754     -1.55166517     -2.11014614
O      -1.61209448     -1.95624080     -1.19351289
O      -1.20483961     -1.73614325     -3.42267713
H       1.70920369     -0.04107432     -0.45276319
H       0.00085460      0.01377144     -0.00357289
H       0.88338305     -1.53479537     -0.01695418
H       0.30719974      0.15794021     -2.46951105
H       1.17459770     -1.39017725     -2.46896542
H      -0.52477585     -1.35433966     -4.01408384
11
Frame 10  Energy = -268.3171233034 Hartree
C       0.76294886     -0.58302038     -0.51843545
C       0.39709243     -0.80443256     -1.97433628
C      -0.90860051     -1.54727064     -2.10928395
O      -1.61313009     -1.95735923     -1.19325590
O      -1.20397117     -1.73742464     -3.42232648
H       1.70381852     -0.04670619     -0.45377997
H       0.00235763      0.02726377     -0.00727384
H       0.88339601     -1.53720962     -0.04208684
H       0.32487192      0.15551574     -2.46385910
H       1.16979066     -1.39560026     -2.47100279
H      -0.52570096     -1.36373946     -4.01725953
11
Frame 15  Energy = -268.3167829901 Hartree
C       0.75989224     -0.58386014     -0.51770356
C       0.39951405     -0.80371655     -1.97412732
C      -0.90895732     -1.54285370     -2.10842705
O      -1.61406910     -1.95840871     -1.19326797
O      -1.20333389     -1.73879165     -3.42185227
H       1.69914246     -0.05201278     -0.45490896
H       0.00396857      0.03985465     -0.01131021
H       0.88311881     -1.54093892     -0.06605253
H       0.34253882      0.15426309     -2.45922505
H       1.16524882     -1.40084645     -2.47313046
H      -0.52668218     -1.37301931     -4.01959921
11
Frame 20  Energy = -268.3169903021 Hartree
C       0.75677038     -0.58450316     -0.51703716
C       0.40192577     -0.80318430     -1.97370620
C      -0.90926251     -1.53844676     -2.10749751
O      -1.61493439     -1.95936787     -1.19354587
O      -1.20287187     -1.74026429     -3.42127366
H       1.69557632     -0.05709432     -0.45570314
H       0.00592471      0.05123753     -0.01529582
H       0.88277881     -1.54613833     -0.08763923
H       0.35975673      0.15406876     -2.45566492
H       1.16110831     -1.40657781     -2.47552055
H      -0.52729493     -1.38183329     -4.02099407
11
Frame 25  Energy = -268.3170704603 Hartree
C       0.75362455     -0.58500792     -0.51646094
C       0.40436972     -0.80271788     -1.97305522
C      -0.90958695     -1.53405214     -2.10652678
O      -1.61567942     -1.96018048     -1.19412563
O      -1.20263373     -1.74185373     -3.42063813
H       1.69357227     -0.06198864     -0.45633850
H       0.00798234      0.06099507     -0.01917422
H       0.88202012     -1.55315899     -0.10647857
H       0.37612039      0.15544447     -2.45405162
H       1.15746802     -1.41229700     -2.47784864
H      -0.52706294     -1.39012047     -4.02148810
11
Frame 30  Energy = -268.3171536571 Hartree
C       0.75046630     -0.58532910     -0.51605950
C       0.40678498     -0.80229619     -1.97228741
C      -0.90988597     -1.52971065     -2.10557036
O      -1.61626987     -1.96086785     -1.19504260
O      -1.20259874     -1.74358877     -3.41994280
H       1.69325075     -0.06622754     -0.45712251
H       0.01012378      0.06902446     -0.02283040
H       0.88065529     -1.56205226     -0.12262522
H       0.39201722      0.15823038     -2.45451708
H       1.15418578     -1.41781362     -2.48011679
H      -0.52582548     -1.39768015     -4.02135462
11
Frame 35  Energy = -268.3174947308 Hartree
C       0.74733054     -0.58552997     -0.51576160
C       0.40900050     -0.80185591     -1.97148783
C      -0.91025227     -1.52552493     -2.10469095
O      -1.61661111     -1.96150666     -1.19633332
O      -1.20280802     -1.74544206     -3.41919611
H       1.69447507     -0.07010771     -0.45763144
H       0.01224595      0.07498404     -0.02588583
H       0.87871629     -1.57245998     -0.13564118
H       0.40696941      0.16205189     -2.45672095
H       1.15178992     -1.42332263     -2.48220946
H      -0.52378181     -1.40456562     -4.02062238
11
Frame 40  Energy = -268.3175281671 Hartree
C       0.74434351     -0.58562953     -0.51555398
C       0.41113034     -0.80143677     -1.97055349
C      -0.91065789     -1.52152351     -2.10378778
O      -1.61672200     -1.96210089     -1.19799147
O      -1.20319824     -1.74747112     -3.41838824
H       1.69673312     -0.07345681     -0.45793672
H       0.01443928      0.07844298     -0.02875111
H       0.87594626     -1.58408669     -0.14570187
H       0.42115350      0.16657650     -2.46057832
H       1.14985217     -1.42869157     -2.48414487
H      -0.52094327     -1.41068331     -4.01960298
11
Frame 45  Energy = -268.3175485709 Hartree
C       0.74151064     -0.58564769     -0.51544417
C       0.41317535     -0.80103738     -1.96949381
C      -0.91113362     -1.51766659     -2.10289582
O      -1.61665996     -1.96261345     -1.20005592
O      -1.20373982     -1.74952694     -3.41749291
H       1.70000384     -0.07665459     -0.45767659
H       0.01654712      0.07986988     -0.03137868
H       0.87233293     -1.59634734     -0.15290965
H       0.43446601      0.17148732     -2.46547064
H       1.14807603     -1.43403544     -2.48546307
H      -0.51770122     -1.41627073     -4.01811488
11
Frame 50  Energy = -268.3175694511 Hartree
C       0.73880818     -0.58567307     -0.51533591
C       0.41506344     -0.80049813     -1.96833945
C      -0.91167888     -1.51401466     -2.10201041
O      -1.61650196     -1.96303093     -1.20238634
O      -1.20445541     -1.75166464     -3.41640328
H       1.70402642     -0.07973096     -0.45736404
H       0.01838899      0.07974053     -0.03360073
H       0.86784571     -1.60862862     -0.15735246
H       0.44682918      0.17636809     -2.47137252
H       1.14654548     -1.43926829     -2.48627836
H      -0.51366342     -1.42133952     -4.01611020
11
Frame 55  Energy = -268.3175778473 Hartree
C       0.73641821     -0.58576537     -0.51520489
C       0.41689094     -0.79985037     -1.96716722
C      -0.91218433     -1.51053514     -2.10111817
O      -1.61619076     -1.96324867     -1.20500846
O      -1.20530337     -1.75391273     -3.41525323
H       1.70868137     -0.08299280     -0.45701354
H       0.01977043      0.07834903     -0.03497955
H       0.86256543     -1.61995097     -0.15914992
H       0.45814926      0.18094846     -2.47773569
H       1.14548074     -1.44418063     -2.48662720
H      -0.50918436     -1.42566040     -4.01333908
11
Frame 60  Energy = -268.3175528610 Hartree
C       0.73430543     -0.58593808     -0.51501085
C       0.41868192     -0.79911281     -1.96597637
C      -0.91271273     -1.50722870     -2.10031455
O      -1.61568169     -1.96328893     -1.20794569
O      -1.20629968     -1.75625753     -3.41412051
H       1.71362600     -0.08656367     -0.45639208
H       0.02024877      0.07572707     -0.03502105
H       0.85645845     -1.63009080     -0.15817096
H       0.46845286      0.18504402     -2.48443810
H       1.14483329     -1.44889876     -2.48662561
H      -0.50457640     -1.42988881     -4.00988310
11
Frame 65  Energy = -268.3177550246 Hartree
C       0.73252598     -0.58621859     -0.51486328
C       0.42032513     -0.79819929     -1.96480227
C      -0.91330463     -1.50419910     -2.09958560
O      -1.61492230     -1.96310833     -1.21107240
O      -1.20744066     -1.75862659     -3.41297672
H       1.71832416     -0.09075483     -0.45546755
H       0.01946908      0.07195398     -0.03388108
H       0.84960459     -1.63804299     -0.15476305
H       0.47738487      0.18783945     -2.49154670
H       1.14471919     -1.45316103     -2.48593677
H      -0.50016239     -1.43358392     -4.00561967
11
Frame 70  Energy = -268.3179051154 Hartree
C       0.73106745     -0.58671675     -0.51483957
C       0.42185554     -0.79700050     -1.96361292
C      -0.91388167     -1.50141856     -2.09886754
O      -1.61398469     -1.96275191     -1.21441103
O      -1.20862596     -1.76100073     -3.41179466
H       1.72251646     -0.09545657     -0.45422118
H       0.01761296      0.06728883     -0.03171363
H       0.84176091     -1.64317361     -0.14935305
H       0.48473346      0.18888317     -2.49873319
H       1.14442703     -1.45722782     -2.48431900
H      -0.49573844     -1.43686735     -4.00087348
11
Frame 75  Energy = -268.3178971480 Hartree
C       0.72997129     -0.58741399     -0.51475426
C       0.42335378     -0.79566883     -1.96249057
C      -0.91442032     -1.49880116     -2.09836447
O      -1.61291648     -1.96228056     -1.21784968
O      -1.20989776     -1.76337948     -3.41063780
H       1.72612773     -0.10067509     -0.45235111
H       0.01485195      0.06201549     -0.02877360
H       0.83282380     -1.64518286     -0.14222704
H       0.49082431      0.18801998     -2.50540249
H       1.14423639     -1.46098935     -2.48155668
H      -0.49127598     -1.43989449     -3.99589315
11
Frame 80  Energy = -268.3179137790 Hartree
C       0.72925013     -0.58840966     -0.51464627
C       0.42478899     -0.79403856     -1.96147046
C      -0.91491775     -1.49630203     -2.09800093
O      -1.61175481     -1.96169523     -1.22136682
O      -1.21129558     -1.76573118     -3.40940476
H       1.72923185     -0.10630337     -0.44972510
H       0.01114728      0.05590904     -0.02481077
H       0.82263196     -1.64365310     -0.13326922
H       0.49538357      0.18510525     -2.51195526
H       1.14387452     -1.46437450     -2.47810770
H      -0.48741905     -1.44263826     -3.99035363
11
Frame 85  Energy = -268.3178165091 Hartree
C       0.72891853     -0.58955024     -0.51442093
C       0.42606093     -0.79225213     -1.96056602
C      -0.91538227     -1.49394799     -2.09775895
O      -1.61054442     -1.96095256     -1.22490523
O      -1.21267349     -1.76813837     -3.40823671
H       1.73110051     -0.11255838     -0.44645980
H       0.00649827      0.04882454     -0.01987402
H       0.81161490     -1.63900559     -0.12261122
H       0.49857068      0.18018895     -2.51805091
H       1.14350216     -1.46762211     -2.47351556
H      -0.48463028     -1.44557346     -3.98434654
11
Frame 90  Energy = -268.3179146644 Hartree
C       0.72893508     -0.59086929     -0.51421959
C       0.42726326     -0.79025818     -1.95977484
C      -0.91573056     -1.49167292     -2.09780526
O      -1.60926106     -1.96008468     -1.22854294
O      -1.21413836     -1.77047345     -3.40710449
H       1.73161243     -0.11979238     -0.44256520
H       0.00121369      0.04140967     -0.01449504
H       0.79986101     -1.63185199     -0.11061711
H       0.50061773      0.17341038     -2.52324473
H       1.14295141     -1.47025216     -2.46786047
H      -0.48266095     -1.44861736     -3.97833413
11
Frame 95  Energy = -268.3177387116 Hartree
C       0.72942474     -0.59230493     -0.51396567
C       0.42837757     -0.78826819     -1.95916384
C      -0.91593926     -1.48959070     -2.09816849
O      -1.60793178     -1.95913693     -1.23228668
O      -1.21562852     -1.77272430     -3.40594845
H       1.73090749     -0.12755561     -0.43792055
H      -0.00461671      0.03335906     -0.00853852
H       0.78728991     -1.62217981     -0.09752251
H       0.50178902      0.16537103     -2.52809763
H       1.14228345     -1.47235671     -2.46128398
H      -0.48147407     -1.45194521     -3.97178261
11
Frame 100  Energy = -268.3178941039 Hartree
C       0.73027567     -0.59388641     -0.51361084
C       0.42941543     -0.78634439     -1.95873048
C      -0.91593506     -1.48768230     -2.09880765
O      -1.60656603     -1.95805066     -1.23601050
O      -1.21706656     -1.77498671     -3.40473376
H       1.72940464     -0.13561532     -0.43227598
H      -0.01073513      0.02472360     -0.00205550
H       0.77423609     -1.61054436     -0.08337373
H       0.50222540      0.15653717     -2.53239793
H       1.14161489     -1.47376425     -2.45391077
H      -0.48080468     -1.45500608     -3.96530064
11
Frame 105  Energy = -268.3178370730 Hartree
C       0.73140090     -0.59553845     -0.51308283
C       0.43034297     -0.78451924     -1.95836876
C      -0.91581719     -1.48591070     -2.09972448
O      -1.60525813     -1.95683069     -1.23968635
O      -1.21857577     -1.77720656     -3.40357492
H       1.72733591     -0.14347290     -0.42560781
H      -0.01677148      0.01547955      0.00462323
H       0.76113653     -1.59777560     -0.06817388
H       0.50186377      0.14719342     -2.53631819
H       1.14101976     -1.47445980     -2.44582642
H      -0.48068849     -1.45776334     -3.95897645
11
Frame 110  Energy = -268.3180832404 Hartree
C       0.73271970     -0.59720069     -0.51248224
C       0.43112026     -0.78275975     -1.95809982
C      -0.91551986     -1.48423427     -2.10091626
O      -1.60399756     -1.95560094     -1.24318731
O      -1.22016686     -1.77924931     -3.40247095
H       1.72472319     -0.15138741     -0.41801158
H      -0.02245390      0.00572124      0.01118306
H       0.74769769     -1.58423057     -0.05221305
H       0.50011632      0.13790782     -2.53959770
H       1.14094672     -1.47444352     -2.43725295
H      -0.48143699     -1.46025377     -3.95333088
11
Frame 115  Energy = -268.3178349922 Hartree
C       0.73405801     -0.59888608     -0.51177568
C       0.43166935     -0.78106464     -1.95803934
C      -0.91499808     -1.48269637     -2.10244680
O      -1.60291029     -1.95431064     -1.24659840
O      -1.22178826     -1.78114016     -3.40128205
H       1.72217734     -0.15912335     -0.40949994
H      -0.02752634     -0.00404966      0.01769392
H       0.73400358     -1.57098605     -0.03542332
H       0.49784656      0.12951827     -2.54301943
H       1.14134200     -1.47443666     -2.42861611
H      -0.48250421     -1.46248513     -3.94834067
11
Frame 120  Energy = -268.3180457385 Hartree
C       0.73534324     -0.60055267     -0.51092206
C       0.43205986     -0.77953366     -1.95792258
C      -0.91425631     -1.48127996     -2.10425060
O      -1.60191538     -1.95293557     -1.24987167
O      -1.22337956     -1.78301805     -3.40012396
H       1.71993203     -0.16618487     -0.40028662
H      -0.03204979     -0.01365842      0.02377798
H       0.72043738     -1.55866586     -0.01794106
H       0.49531437      0.12244591     -2.54696774
H       1.14232181     -1.47451649     -2.42003274
H      -0.48373252     -1.46472689     -3.94396214
11
Frame 125  Energy = -268.3181997834 Hartree
C       0.73658127     -0.60215247     -0.50997616
C       0.43227699     -0.77817796     -1.95770435
C      -0.91343621     -1.47995499     -2.10632495
O      -1.60100539     -1.95153955     -1.25287295
O      -1.22494715     -1.78486842     -3.39891127
H       1.71866017     -0.17229269     -0.39045831
H      -0.03560063     -0.02287655      0.02945243
H       0.70717219     -1.54791593     -0.00000846
H       0.49223206      0.11669570     -2.55161095
H       1.14418730     -1.47463694     -2.41143287
H      -0.48520622     -1.46688485     -3.94026014
11
Frame 130  Energy = -268.3180621339 Hartree
C       0.73774328     -0.60375187     -0.50890321
C       0.43223530     -0.77702616     -1.95746464
C      -0.91253132     -1.47877070     -2.10872874
O      -1.60023140     -1.95013640     -1.25564822
O      -1.22657747     -1.78660976     -3.39769048
H       1.71839203     -0.17726430     -0.37998874
H      -0.03820380     -0.03142604      0.03444112
H       0.69424000     -1.53895048      0.01830881
H       0.48882448      0.11262163     -2.55669826
H       1.14668288     -1.47521906     -2.40287447
H      -0.48663740     -1.46866402     -3.93756446
11
Frame 135  Energy = -268.3177966560 Hartree
C       0.73879601     -0.60530153     -0.50764283
C       0.43194171     -0.77601695     -1.95711357
C      -0.91145036     -1.47781406     -2.11151715
O      -1.59962121     -1.94870044     -1.25819293
O      -1.22833626     -1.78834510     -3.39643789
H       1.71920761     -0.18122061     -0.36879441
H      -0.03979424     -0.03936246      0.03810698
H       0.68141586     -1.53188909      0.03660251
H       0.48498625      0.11044004     -2.56281279
H       1.15036134     -1.47591893     -2.39426294
H      -0.48782482     -1.47066613     -3.93649026
11
Frame 140  Energy = -268.3177937685 Hartree
C       0.73969083     -0.60673447     -0.50619906
C       0.43146837     -0.77519481     -1.95672587
C      -0.91014205     -1.47701007     -2.11456131
O      -1.59914643     -1.94721324     -1.26058556
O      -1.23016323     -1.79006514     -3.39518887
H       1.72091651     -0.18404232     -0.35708326
H      -0.04027548     -0.04668775      0.04005106
H       0.66901732     -1.52666871      0.05462230
H       0.48099069      0.11024959     -2.56948591
H       1.15475043     -1.47627388     -2.38589008
H      -0.48890426     -1.47252543     -3.93691532
11
Frame 145  Energy = -268.3178165287 Hartree
C       0.74046137     -0.60799561     -0.50463290
C       0.43082971     -0.77469130     -1.95629105
C      -0.90867445     -1.47643491     -2.11778062
O      -1.59873577     -1.94575414     -1.26280355
O      -1.23201023     -1.79172340     -3.39399736
H       1.72346552     -0.18581182     -0.34525795
H      -0.03993868     -0.05288782      0.04075930
H       0.65704250     -1.52345946      0.07232025
H       0.47663584      0.11132573     -2.57625992
H       1.15962390     -1.47656740     -2.37802310
H      -0.48981870     -1.47384181     -3.93864443
11
Frame 150  Energy = -268.3176723191 Hartree
C       0.74113041     -0.60910295     -0.50290453
C       0.43000348     -0.77441141     -1.95584728
C      -0.90720399     -1.47610746     -2.12132075
O      -1.59854193     -1.94429059     -1.26480853
O      -1.23392081     -1.79341846     -3.39282859
H       1.72686060     -0.18698365     -0.33352703
H      -0.03853772     -0.05766865      0.04037154
H       0.64575820     -1.52206947      0.08907567
H       0.47221883      0.11344132     -2.58297450
H       1.16519396     -1.47654249     -2.37062236
H      -0.49104294     -1.47464164     -3.94145606
11
Frame 155  Energy = -268.3175092573 Hartree
C       0.74170574     -0.61015777     -0.50094693
C       0.42909523     -0.77431751     -1.95542580
C      -0.90565485     -1.47603743     -2.12508287
O      -1.59844157     -1.94277721     -1.26657087
O      -1.23577465     -1.79508889     -3.39176497
H       1.73075773     -0.18743130     -0.32148422
H      -0.03650689     -0.06101983      0.03911034
H       0.63570242     -1.52199736      0.10471801
H       0.46746624      0.11631212     -2.58926906
H       1.17107466     -1.47684296     -2.36371672
H      -0.49311895     -1.47538696     -3.94550087
11
Frame 160  Energy = -268.3175325149 Hartree
C       0.74222755     -0.61110166     -0.49871101
C       0.42808470     -0.77443537     -1.95505644
C      -0.90410124     -1.47619301     -2.12903553
O      -1.59826818     -1.94123268     -1.26819749
O      -1.23764894     -1.79677682     -3.39087720
H       1.73470586     -0.18765654     -0.30938372
H      -0.03422262     -0.06226929      0.03695823
H       0.62723447     -1.52299420      0.11864998
H       0.46251297      0.11973118     -2.59499376
H       1.17701105     -1.47692297     -2.35770750
H      -0.49587603     -1.47611028     -3.95028758
11
Frame 165  Energy = -268.3175785981 Hartree
C       0.74270999     -0.61204383     -0.49611121
C       0.42702211     -0.77477523     -1.95468657
C      -0.90259138     -1.47658530     -2.13306169
O      -1.59810660     -1.93959388     -1.26964510
O      -1.23942039     -1.79838672     -3.39020103
H       1.73815551     -0.18788118     -0.29737688
H      -0.03158016     -0.06078095      0.03405683
H       0.62043103     -1.52484556      0.13009257
H       0.45737098      0.12320770     -2.59971183
H       1.18259458     -1.47649430     -2.35222069
H      -0.49968831     -1.47713125     -3.95566614
11
Frame 170  Energy = -268.3176012432 Hartree
C       0.74303729     -0.61300213     -0.49313320
C       0.42584700     -0.77535575     -1.95427851
C      -0.90105060     -1.47717946     -2.13696736
O      -1.59785930     -1.93780799     -1.27089149
O      -1.24106210     -1.79991728     -3.38970010
H       1.74082697     -0.18812611     -0.28567769
H      -0.02901509     -0.05645676      0.03051597
H       0.61537705     -1.52688592      0.13869861
H       0.45221919      0.12662983     -2.60326894
H       1.18796663     -1.47578039     -2.34718168
H      -0.50492872     -1.47830840     -3.96172650
11
Frame 175  Energy = -268.3173780754 Hartree
C       0.74334256     -0.61390567     -0.48981763
C       0.42468663     -0.77609777     -1.95392725
C      -0.89937683     -1.47807520     -2.14084085
O      -1.59759963     -1.93589433     -1.27200674
O      -1.24260413     -1.80130991     -3.38942158
H       1.74231559     -0.18836507     -0.27436892
H      -0.02677184     -0.04920017      0.02645773
H       0.61158733     -1.52880039      0.14463352
H       0.44715696      0.12950855     -2.60520163
H       1.19318555     -1.47467926     -2.34296516
H      -0.51164443     -1.47961581     -3.96832556
11
Frame 180  Energy = -268.3176401615 Hartree
C       0.74363872     -0.61477708     -0.48611269
C       0.42366665     -0.77700963     -1.95356392
C      -0.89777543     -1.47916756     -2.14460755
O      -1.59728323     -1.93383163     -1.27298836
O      -1.24398673     -1.80253659     -3.38937660
H       1.74281026     -0.18901714     -0.26348651
H      -0.02466475     -0.03913458      0.02177802
H       0.60908938     -1.53028267      0.14761172
H       0.44221505      0.13157161     -2.60531105
H       1.19808870     -1.47335392     -2.33977941
H      -0.51931481     -1.48134872     -3.97524698
11
Frame 185  Energy = -268.3176930785 Hartree
C       0.74390780     -0.61563686     -0.48208747
C       0.42281000     -0.77799975     -1.95315805
C      -0.89628799     -1.48047732     -2.14825134
O      -1.59691216     -1.93168921     -1.27384834
O      -1.24516265     -1.80363395     -3.38958351
H       1.74242473     -0.18988994     -0.25361965
H      -0.02270973     -0.02673514      0.01682076
H       0.60799894     -1.53168874      0.14770420
H       0.43773596      0.13285770     -2.60326541
H       1.20271896     -1.47196836     -2.33783708
H      -0.52792670     -1.48367106     -3.98254947
11
Frame 190  Energy = -268.3176333666 Hartree
C       0.74411297     -0.61656951     -0.47775601
C       0.42202559     -0.77912143     -1.95276339
C      -0.89479326     -1.48204925     -2.15168371
O      -1.59655500     -1.92949687     -1.27461207
O      -1.24619992     -1.80463079     -3.39001039
H       1.74087100     -0.19118721     -0.24445018
H      -0.02096447     -0.01202935      0.01171490
H       0.60816140     -1.53327068      0.14498264
H       0.43346020      0.13305269     -2.59925320
H       1.20674818     -1.47000210     -2.33715544
H      -0.53734929     -1.48624665     -3.99021419
11
Frame 195  Energy = -268.3174438618 Hartree
C       0.74415610     -0.61753560     -0.47313369
C       0.42141960     -0.78028716     -1.95239405
C      -0.89334210     -1.48383810     -2.15496412
O      -1.59620495     -1.92721926     -1.27534054
O      -1.24705571     -1.80548000     -3.39062792
H       1.73840520     -0.19295514     -0.23610465
H      -0.01971389      0.00465485      0.00627833
H       0.60914166     -1.53504601      0.14003901
H       0.42967417      0.13237978     -2.59336036
H       1.21001927     -1.46748573     -2.33746987
H      -0.54754752     -1.48896957     -3.99860682
11
Frame 200  Energy = -268.3174450304 Hartree
C       0.74401952     -0.61846140     -0.46813491
C       0.42103442     -0.78155087     -1.95219028
C      -0.89193831     -1.48598909     -2.15804239
O      -1.59577914     -1.92490461     -1.27595408
O      -1.24777956     -1.80628446     -3.39146904
H       1.73512666     -0.19516334     -0.22866228
H      -0.01812277      0.02260471      0.00041791
H       0.61092963     -1.53662580      0.13267285
H       0.42634218      0.13104851     -2.58573665
H       1.21190385     -1.46426423     -2.33868390
H      -0.55806179     -1.49166008     -4.00733354
11
Frame 205  Energy = -268.3175319019 Hartree
C       0.74371756     -0.61926239     -0.46291916
C       0.42072264     -0.78298370     -1.95203469
C      -0.89064174     -1.48846969     -2.16091881
O      -1.59531420     -1.92252433     -1.27653848
O      -1.24843386     -1.80713181     -3.39255100
H       1.73103774     -0.19762992     -0.22240822
H      -0.01594603      0.04145508     -0.00589707
H       0.61351951     -1.53829317      0.12360521
H       0.42354251      0.12909033     -2.57689754
H       1.21290361     -1.46046944     -2.34073366
H      -0.56816183     -1.49443623     -4.01633578
11
Frame 210  Energy = -268.3174939662 Hartree
C       0.74326410     -0.61986246     -0.45767086
C       0.42054211     -0.78458132     -1.95185618
C      -0.88947481     -1.49122146     -2.16350719
O      -1.59485132     -1.92012499     -1.27703894
O      -1.24909105     -1.80801808     -3.39374849
H       1.72695644     -0.20033296     -0.21720549
H      -0.01347417      0.06073156     -0.01235958
H       0.61678406     -1.54014060      0.11302117
H       0.42124683      0.12701040     -2.56680226
H       1.21312618     -1.45587564     -2.34343013
H      -0.57799838     -1.49693837     -4.02578888
11
Frame 215  Energy = -268.3172270958 Hartree
C       0.74256989     -0.62022570     -0.45222031
C       0.42051997     -0.78636572     -1.95160440
C      -0.88826286     -1.49415550     -2.16569507
O      -1.59437858     -1.91754778     -1.27743672
O      -1.24975086     -1.80902365     -3.39513129
H       1.72287976     -0.20299533     -0.21316976
H      -0.00996890      0.07972986     -0.01931272
H       0.62054714     -1.54250247      0.10154374
H       0.41931277      0.12465420     -2.55545611
H       1.21282668     -1.45040628     -2.34683897
H      -0.58750408     -1.49935839     -4.03545097
11
Frame 220  Energy = -268.3172254674 Hartree
C       0.74157992     -0.62028798     -0.44671087
C       0.42061899     -0.78833044     -1.95116337
C      -0.88706088     -1.49734026     -2.16751400
O      -1.59393387     -1.91492887     -1.27778013
O      -1.25044144     -1.81002907     -3.39672560
H       1.71901383     -0.20589924     -0.21016304
H      -0.00519886      0.09761329     -0.02633892
H       0.62416164     -1.54587103      0.08974693
H       0.41790424      0.12279778     -2.54346548
H       1.21210442     -1.44436429     -2.35138084
H      -0.59681253     -1.50121484     -4.04512355
11
Frame 225  Energy = -268.3174762300 Hartree
C       0.74030173     -0.62004169     -0.44119861
C       0.42088291     -0.79041688     -1.95064907
C      -0.88595702     -1.50067773     -2.16900691
O      -1.59354739     -1.91229658     -1.27800624
O      -1.25114348     -1.81095444     -3.39853232
H       1.71639626     -0.20881207     -0.20803332
H       0.00056492      0.11419849     -0.03350391
H       0.62782919     -1.55026024      0.07819849
H       0.41647789      0.12194333     -2.53131977
H       1.21100229     -1.43831068     -2.35663998
H      -0.60548140     -1.50279052     -4.05500448
11
Frame 230  Energy = -268.3173584634 Hartree
C       0.73878730     -0.61943840     -0.43581775
C       0.42128404     -0.79269045     -1.95001880
C      -0.88501294     -1.50417320     -2.17012922
O      -1.59320065     -1.90960725     -1.27815039
O      -1.25183526     -1.81183047     -3.40052163
H       1.71503525     -0.21170992     -0.20670533
H       0.00710940      0.12959031     -0.04067868
H       0.63108485     -1.55599040      0.06749558
H       0.41542010      0.12232276     -2.51900724
H       1.20988171     -1.43210166     -2.36219458
H      -0.61349198     -1.50415282     -4.06515189
11
Frame 235  Energy = -268.3174562685 Hartree
C       0.73706734     -0.61841889     -0.43058579
C       0.42174430     -0.79506288     -1.94918188
C      -0.88407155     -1.50778391     -2.17100024
O      -1.59293357     -1.90686140     -1.27821939
O      -1.25265127     -1.81276424     -3.40278589
H       1.71496326     -0.21442673     -0.20615825
H       0.01460843      0.14308505     -0.04803823
H       0.63384586     -1.56286121      0.05767643
H       0.41491938      0.12417685     -2.50684215
H       1.20872825     -1.42624979     -2.36822738
H      -0.62097102     -1.50496228     -4.07553267
11
Frame 240  Energy = -268.3175159826 Hartree
C       0.73503811     -0.61712227     -0.42562745
C       0.42231652     -0.79747116     -1.94815056
C      -0.88310046     -1.51146994     -2.17157996
O      -1.59263135     -1.90408681     -1.27818885
O      -1.25352063     -1.81368314     -3.40530801
H       1.71622429     -0.21679510     -0.20669010
H       0.02292164      0.15463526     -0.05536741
H       0.63580539     -1.57096877      0.04973683
H       0.41484697      0.12791974     -2.49555454
H       1.20796257     -1.42058149     -2.37485198
H      -0.62818144     -1.50553696     -4.08600301
11
Frame 245  Energy = -268.3171750155 Hartree
C       0.73269577     -0.61554482     -0.42097032
C       0.42309649     -0.79999609     -1.94693608
C      -0.88211545     -1.51529144     -2.17185300
O      -1.59221893     -1.90140072     -1.27803700
O      -1.25444572     -1.81456160     -3.40806727
H       1.71876229     -0.21911664     -0.20822504
H       0.03169595      0.16444444     -0.06201442
H       0.63676642     -1.58007092      0.04316394
H       0.41487695      0.13344560     -2.48483682
H       1.20795340     -1.41504461     -2.38240791
H      -0.63480317     -1.50597403     -4.09630249
11
Frame 250  Energy = -268.3172715186 Hartree
C       0.73016988     -0.61376724     -0.41656689
C       0.42397125     -0.80271796     -1.94541784
C      -0.88115375     -1.51912522     -2.17191194
O      -1.59182090     -1.89880500     -1.27771258
O      -1.25533421     -1.81546872     -3.41104549
H       1.72242364     -0.22164779     -0.21060561
H       0.04044143      0.17232346     -0.06770459
H       0.63695161     -1.58982519      0.03761577
H       0.41519864      0.14044133     -2.47456746
H       1.20888453     -1.40957679     -2.39064508
H      -0.64094857     -1.50570857     -4.10631421
11
Frame 255  Energy = -268.3174056571 Hartree
C       0.72763180     -0.61182732     -0.41256651
C       0.42493207     -0.80549964     -1.94357410
C      -0.88014005     -1.52295468     -2.17194133
O      -1.59147700     -1.89623082     -1.27730692
O      -1.25620358     -1.81651763     -3.41420930
H       1.72691739     -0.22435157     -0.21367999
H       0.04916198      0.17846971     -0.07229233
H       0.63610121     -1.59963642      0.03363700
H       0.41580857      0.14835708     -2.46486240
H       1.21065137     -1.40425285     -2.39940634
H      -0.64670153     -1.50540534     -4.11593650
11
Frame 260  Energy = -268.3174797355 Hartree
C       0.72502469     -0.60983432     -0.40899291
C       0.42613044     -0.80837586     -1.94153830
C      -0.87906586     -1.52673205     -2.17182147
O      -1.59121847     -1.89360751     -1.27689722
O      -1.25711267     -1.81761098     -3.41752995
H       1.73184288     -0.22750309     -0.21782143
H       0.05717138      0.18278269     -0.07520378
H       0.63424879     -1.60860206      0.03096833
H       0.41632698      0.15685416     -2.45581478
H       1.21300212     -1.39952225     -2.40867248
H      -0.65217966     -1.50523370     -4.12447019
11
Frame 265  Energy = -268.3170944228 Hartree
C       0.72239335     -0.60782161     -0.40580118
C       0.42749123     -0.81123929     -1.93945856
C      -0.87783759     -1.53046074     -2.17152573
O      -1.59110730     -1.89094817     -1.27646708
O      -1.25812745     -1.81868574     -3.42110208
H       1.73750666     -0.23116899     -0.22295548
H       0.06436390      0.18559821     -0.07632555
H       0.63160447     -1.61628713      0.02995875
H       0.41695023      0.16536807     -2.44707336
H       1.21630647     -1.39536163     -2.41837736
H      -0.65742899     -1.50502653     -4.13196734
11
Frame 270  Energy = -268.3169745274 Hartree
C       0.71981538     -0.60595384     -0.40291262
C       0.42899948     -0.81406413     -1.93729172
C      -0.87655133     -1.53420763     -2.17117436
O      -1.59105311     -1.88838979     -1.27591815
O      -1.25920084     -1.81981273     -3.42485408
H       1.74359864     -0.23579027     -0.22890010
H       0.07012126      0.18781128     -0.07549442
H       0.62786965     -1.62234780      0.03040697
H       0.41711102      0.17364350     -2.43859710
H       1.22026533     -1.39178656     -2.42847220
H      -0.66261797     -1.50492549     -4.13820039
11
Frame 275  Energy = -268.3169235772 Hartree
C       0.71743959     -0.60412227     -0.40042254
C       0.43070964     -0.81679547     -1.93505036
C      -0.87515521     -1.53790925     -2.17080943
O      -1.59111597     -1.88586710     -1.27529030
O      -1.26026641     -1.82101438     -3.42872338
H       1.74963097     -0.24108055     -0.23547047
H       0.07416778      0.18932983     -0.07273305
H       0.62335553     -1.62609193      0.03218288
H       0.41713435      0.18104967     -2.43029453
H       1.22464936     -1.38841132     -2.43850882
H      -0.66742829     -1.50469309     -4.14311326
11
Frame 280  Energy = -268.3168920497 Hartree
C       0.71521723     -0.60240204     -0.39838648
C       0.43251724     -0.81933095     -1.93258429
C      -0.87356035     -1.54156753     -2.17046723
O      -1.59122774     -1.88334201     -1.27454434
O      -1.26129250     -1.82225890     -3.43272450
H       1.75503881     -0.24692722     -0.24263443
H       0.07636680      0.19074522     -0.06818963
H       0.61817581     -1.62727295      0.03493574
H       0.41649313      0.18707253     -2.42163270
H       1.22870339     -1.38484748     -2.44816282
H      -0.67150121     -1.50427825     -4.14646483
11
Frame 285  Energy = -268.3170871832 Hartree
C       0.71324644     -0.60103367     -0.39675283
C       0.43443255     -0.82160660     -1.93003939
C      -0.87178757     -1.54514022     -2.17019464
O      -1.59128946     -1.88085803     -1.27376990
O      -1.26237442     -1.82355265     -3.43670372
H       1.75951768     -0.25356788     -0.25011910
H       0.07688955      0.19215207     -0.06179558
H       0.61226940     -1.62562683      0.03855542
H       0.41517221      0.19139228     -2.41259802
H       1.23225812     -1.38110168     -2.45706591
H      -0.67457110     -1.50354891     -4.14871726
11
Frame 290  Energy = -268.3171084614 Hartree
C       0.71154400     -0.59996719     -0.39560437
C       0.43649104     -0.82362713     -1.92743871
C      -0.86992717     -1.54862180     -2.16992516
O      -1.59136572     -1.87843301     -1.27295369
O      -1.26349172     -1.82492845     -3.44065520
H       1.76290271     -0.26136963     -0.25777465
H       0.07551875      0.19369776     -0.05347929
H       0.60579854     -1.62103889      0.04309144
H       0.41319698      0.19406326     -2.40374537
H       1.23545050     -1.37742774     -2.46463880
H      -0.67686344     -1.50208301     -4.14979275
11
Frame 295  Energy = -268.3172035832 Hartree
C       0.71015071     -0.59919427     -0.39481049
C       0.43864073     -0.82533143     -1.92489656
C      -0.86789124     -1.55200458     -2.16971431
O      -1.59150930     -1.87597346     -1.27205220
O      -1.26463070     -1.82632120     -3.44452411
H       1.76496993     -0.26991027     -0.26583973
H       0.07240469      0.19533005     -0.04340557
H       0.59868991     -1.61381651      0.04861209
H       0.41094907      0.19467251     -2.39503150
H       1.23839665     -1.37366733     -2.47130243
H      -0.67834128     -1.50017467     -4.15003024
11
Frame 300  Energy = -268.3172752401 Hartree
C       0.70905052     -0.59868943     -0.39434967
C       0.44088992     -0.82679793     -1.92240809
C      -0.86568494     -1.55524072     -2.16966323
O      -1.59174263     -1.87353739     -1.27107340
O      -1.26582726     -1.82777986     -3.44835863
H       1.76565442     -0.27895692     -0.27379045
H       0.06757943      0.19644244     -0.03146540
H       0.59078340     -1.60468123      0.05520464
H       0.40880841      0.19341440     -2.38647322
H       1.24119342     -1.36974643     -2.47657871
H      -0.67890866     -1.49771692     -4.14943977
