11
Frame 5  Energy = -268.2989635069 Hartree
C       0.70025563     -0.72010598     -0.32307757
C       0.52905626     -1.07794530     -1.84413518
C      -0.87319427     -1.61725210     -2.12069461
O      -1.72586487     -1.94879160     -1.32998440
O      -1.06517426     -1.97165088     -3.43214249
H       1.57552832     -0.09378176     -0.17061768
H      -0.21137174     -0.18264790     -0.04809061
H       0.68884949     -1.65777042      0.26685262
H       0.72734621     -0.29810706     -2.57317294
H       1.19727908     -1.92946644     -2.05594920
H      -0.28001970     -1.81124277     -3.97392758
11
Frame 10  Energy = -268.2987173682 Hartree
C       0.69901223     -0.72319046     -0.32483941
C       0.52947720     -1.07789547     -1.84451708
C      -0.87584384     -1.61678468     -2.12271125
O      -1.72569651     -1.94977282     -1.32773938
O      -1.06152071     -1.97227263     -3.42966386
H       1.58207430     -0.09871182     -0.17817604
H      -0.21802335     -0.19895960     -0.04489085
H       0.67658609     -1.66184030      0.27675032
H       0.72954069     -0.30861121     -2.57531925
H       1.19278552     -1.92882253     -2.05156403
H      -0.27705520     -1.81316290     -3.97116482
11
Frame 15  Energy = -268.2983975717 Hartree
C       0.69769230     -0.72643980     -0.32680197
C       0.52968735     -1.07804723     -1.84463909
C      -0.87845020     -1.61669220     -2.12468028
O      -1.72543238     -1.95071876     -1.32540558
O      -1.05781385     -1.97292757     -3.42718738
H       1.58856439     -0.10404180     -0.18492978
H      -0.22400299     -0.21452944     -0.04090946
H       0.66495709     -1.66440824      0.28562033
H       0.73217168     -0.31743050     -2.57719529
H       1.18848019     -1.92800236     -2.04773857
H      -0.27404414     -1.81492021     -3.96831888
11
Frame 20  Energy = -268.2984581559 Hartree
C       0.69617976     -0.72989568     -0.32903826
C       0.52973345     -1.07844004     -1.84447111
C      -0.88107164     -1.61699513     -2.12662959
O      -1.72512050     -1.95156868     -1.32321781
O      -1.05413481     -1.97363889     -3.42471342
H       1.59457527     -0.10992104     -0.19107196
H      -0.22953677     -0.22899887     -0.03623418
H       0.65410390     -1.66550916      0.29319220
H       0.73555378     -0.32429382     -2.57936017
H       1.18427389     -1.92739098     -2.04461177
H      -0.27079393     -1.81635903     -3.96531332
11
Frame 25  Energy = -268.2985659589 Hartree
C       0.69453744     -0.73339640     -0.33149082
C       0.52957416     -1.07902887     -1.84392962
C      -0.88359405     -1.61765222     -2.12844347
O      -1.72472016     -1.95220937     -1.32111488
O      -1.05054881     -1.97432643     -3.42228634
H       1.59968995     -0.11609476     -0.19630338
H      -0.23458153     -0.24188429     -0.03091878
H       0.64456377     -1.66500256      0.29874309
H       0.73949570     -0.32888177     -2.58171257
H       1.18043446     -1.92723886     -2.04219572
H      -0.26737423     -1.81704814     -3.96226753
11
Frame 30  Energy = -268.2985644364 Hartree
C       0.69280017     -0.73705058     -0.33396719
C       0.52915268     -1.07983741     -1.84306590
C      -0.88598809     -1.61869146     -2.13011596
O      -1.72412170     -1.95265480     -1.31902732
O      -1.04702106     -1.97502739     -3.41993307
H       1.60363781     -0.12294943     -0.20091910
H      -0.23919931     -0.25315348     -0.02551776
H       0.63624917     -1.66252408      0.30248472
H       0.74408721     -0.33134699     -2.58441780
H       1.17755644     -1.92787316     -2.04079231
H      -0.26365047     -1.81702859     -3.95908039
11
Frame 35  Energy = -268.2985206525 Hartree
C       0.69081972     -0.74080582     -0.33656655
C       0.52851083     -1.08087928     -1.84192036
C      -0.88824252     -1.62007961     -2.13170857
O      -1.72336056     -1.95288386     -1.31695750
O      -1.04353383     -1.97570976     -3.41764007
H       1.60620628     -0.13020099     -0.20464063
H      -0.24290184     -0.26290728     -0.01996366
H       0.62975225     -1.65823707      0.30448387
H       0.74914902     -0.33175646     -2.58711539
H       1.17581652     -1.92926887     -2.04014622
H      -0.26003585     -1.81622794     -3.95555659
11
Frame 40  Energy = -268.2985173461 Hartree
C       0.68873135     -0.74460776     -0.33920977
C       0.52764953     -1.08205244     -1.84047073
C      -0.89033390     -1.62174770     -2.13320875
O      -1.72246421     -1.95293272     -1.31487151
O      -1.04017125     -1.97643379     -3.41548889
H       1.60736876     -0.13806585     -0.20741238
H      -0.24589831     -0.27108284     -0.01438523
H       0.62499961     -1.65290647      0.30463085
H       0.75506814     -0.33044987     -2.58993858
H       1.17506324     -1.93144023     -2.04044731
H      -0.25595912     -1.81464967     -3.95184221
11
Frame 45  Energy = -268.2984757912 Hartree
C       0.68655820     -0.74841862     -0.34198318
C       0.52639201     -1.08344672     -1.83885138
C      -0.89230572     -1.62366589     -2.13453559
O      -1.72143857     -1.95281757     -1.31279230
O      -1.03698665     -1.97717927     -3.41355451
H       1.60753158     -0.14653865     -0.20924067
H      -0.24778419     -0.27730591     -0.00889377
H       0.62218764     -1.64671077      0.30303468
H       0.76159568     -0.32810382     -2.59248082
H       1.17558652     -1.93436891     -2.04181579
H      -0.25144602     -1.81210542     -3.94783320
11
Frame 50  Energy = -268.2986108015 Hartree
C       0.68431848     -0.75216071     -0.34486022
C       0.52482137     -1.08498138     -1.83713947
C      -0.89414598     -1.62584982     -2.13566349
O      -1.72032534     -1.95256023     -1.31082962
O      -1.03400762     -1.97796377     -3.41171840
H       1.60665073     -0.15537243     -0.21008939
H      -0.24840625     -0.28149438     -0.00317281
H       0.62112900     -1.64030243      0.29996379
H       0.76839847     -0.32491453     -2.59406504
H       1.17728473     -1.93787197     -2.04402352
H      -0.24657403     -1.80877371     -3.94345027
11
Frame 55  Energy = -268.2985156153 Hartree
C       0.68198159     -0.75587279     -0.34773009
C       0.52305975     -1.08663911     -1.83533041
C      -0.89578549     -1.62817377     -2.13654628
O      -1.71916785     -1.95216852     -1.30898777
O      -1.03116201     -1.97877518     -3.41009570
H       1.60424921     -0.16471036     -0.20980872
H      -0.24789138     -0.28345461      0.00241112
H       0.62160707     -1.63424087      0.29563378
H       0.77538323     -0.32089053     -2.59429896
H       1.17980154     -1.94198093     -2.04669146
H      -0.24147490     -1.80492305     -3.93849840
11
Frame 60  Energy = -268.2985135979 Hartree
C       0.67953305     -0.75940709     -0.35061716
C       0.52113371     -1.08839064     -1.83339626
C      -0.89726176     -1.63062653     -2.13708851
O      -1.71799987     -1.95158382     -1.30724270
O      -1.02838288     -1.97963651     -3.40866323
H       1.60055914     -0.17438341     -0.20854396
H      -0.24607876     -0.28329032      0.00775622
H       0.62395252     -1.62930096      0.29024802
H       0.78244593     -0.31692448     -2.59253324
H       1.18262952     -1.94626220     -2.05024391
H      -0.23570433     -1.80089446     -3.93276862
11
Frame 65  Energy = -268.2985320459 Hartree
C       0.67698101     -0.76278202     -0.35366056
C       0.51915368     -1.09027105     -1.83143189
C      -0.89843133     -1.63332778     -2.13741550
O      -1.71675771     -1.95088485     -1.30556725
O      -1.02578509     -1.98053993     -3.40742742
H       1.59594328     -0.18404547     -0.20617995
H      -0.24321092     -0.28090482      0.01265809
H       0.62851740     -1.62622105      0.28472096
H       0.78922600     -0.31316976     -2.58861692
H       1.18535213     -1.94996697     -2.05440756
H      -0.22983179     -1.79678807     -3.92658366
11
Frame 70  Energy = -268.2986923768 Hartree
C       0.67426041     -0.76596617     -0.35673516
C       0.51711755     -1.09241421     -1.82949053
C      -0.89928853     -1.63619761     -2.13753754
O      -1.71547244     -1.95007470     -1.30396458
O      -1.02332219     -1.98146697     -3.40640326
H       1.59081405     -0.19340680     -0.20256027
H      -0.23910228     -0.27651309      0.01694177
H       0.63485950     -1.62516792      0.27928591
H       0.79510603     -0.30989509     -2.58244650
H       1.18770410     -1.95318356     -2.05866654
H      -0.22417737     -1.79242293     -3.92014022
11
Frame 75  Energy = -268.2988734207 Hartree
C       0.67142362     -0.76892706     -0.35973397
C       0.51498801     -1.09467213     -1.82761630
C      -0.89985953     -1.63914215     -2.13732831
O      -1.71404261     -1.94913669     -1.30250337
O      -1.02111643     -1.98241727     -3.40561327
H       1.58536543     -0.20254847     -0.19810043
H      -0.23375513     -0.27065267      0.02061512
H       0.64278169     -1.62661171      0.27390349
H       0.80016307     -0.30723500     -2.57416428
H       1.18973393     -1.95534650     -2.06323288
H      -0.21904569     -1.78775663     -3.91322597
11
Frame 80  Energy = -268.2991268000 Hartree
C       0.66850708     -0.77162695     -0.36268712
C       0.51278692     -1.09712209     -1.82578868
C      -0.90011644     -1.64216252     -2.13678927
O      -1.71253654     -1.94804204     -1.30123392
O      -1.01910171     -1.98339920     -3.40511569
H       1.57985885     -0.21136763     -0.19315166
H      -0.22750743     -0.26313795      0.02346026
H       0.65199788     -1.63093262      0.26889728
H       0.80425738     -0.30527542     -2.56399444
H       1.19150000     -1.95612100     -2.06766727
H      -0.21438266     -1.78278068     -3.90581514
11
Frame 85  Energy = -268.2990734212 Hartree
C       0.66546321     -0.77400800     -0.36558844
C       0.51054844     -1.09971649     -1.82404848
C      -0.90003478     -1.64517701     -2.13597130
O      -1.71111560     -1.94687679     -1.29999936
O      -1.01723311     -1.98443135     -3.40491128
H       1.57474909     -0.21952414     -0.18774317
H      -0.22057852     -0.25422947      0.02539454
H       0.66212226     -1.63786555      0.26446027
H       0.80719290     -0.30352432     -2.55206218
H       1.19285034     -1.95569397     -2.07167859
H      -0.21008232     -1.77733404     -3.89801147
11
Frame 90  Energy = -268.2991215284 Hartree
C       0.66221768     -0.77619765     -0.36847006
C       0.50831978     -1.10249394     -1.82247500
C      -0.89950784     -1.64828369     -2.13477672
O      -1.70974956     -1.94561791     -1.29875673
O      -1.01549089     -1.98562695     -3.40498093
H       1.57020543     -0.22656701     -0.18155638
H      -0.21256784     -0.24395055      0.02656357
H       0.67296913     -1.64749215      0.26025755
H       0.80939750     -0.30199636     -2.53869912
H       1.19347442     -1.95444052     -2.07543042
H      -0.20605636     -1.77163410     -3.89018839
11
Frame 95  Energy = -268.2993921584 Hartree
C       0.65892487     -0.77827290     -0.37116278
C       0.50614305     -1.10544943     -1.82103541
C      -0.89846378     -1.65150624     -2.13331066
O      -1.70844824     -1.94425003     -1.29750045
O      -1.01393467     -1.98690005     -3.40534983
H       1.56691353     -0.23211767     -0.17507592
H      -0.20403398     -0.23269851      0.02686247
H       0.68431768     -1.65898391      0.25648135
H       0.81070693     -0.30134163     -2.52429497
H       1.19359877     -1.95197960     -2.07898245
H      -0.20239733     -1.76599462     -3.88240144
11
Frame 100  Energy = -268.2995722473 Hartree
C       0.65549909     -0.78024833     -0.37369415
C       0.50409611     -1.10844436     -1.81978141
C      -0.89707184     -1.65481208     -2.13163248
O      -1.70719953     -1.94278492     -1.29630717
O      -1.01246395     -1.98823633     -3.40588755
H       1.56429029     -0.23642082     -0.16822039
H      -0.19553994     -0.22072621      0.02634767
H       0.69543586     -1.67155971      0.25260915
H       0.81098698     -0.30105415     -2.50893723
H       1.19316718     -1.94799588     -2.08217329
H      -0.19881043     -1.76018288     -3.87479991
11
Frame 105  Energy = -268.2995964578 Hartree
C       0.65204167     -0.78231181     -0.37602440
C       0.50212730     -1.11161009     -1.81874224
C      -0.89531426     -1.65812336     -2.12972799
O      -1.70600857     -1.94124948     -1.29510098
O      -1.01110309     -1.98958324     -3.40665364
H       1.56261583     -0.23967555     -0.16119916
H      -0.18710637     -0.20830252      0.02539054
H       0.70658510     -1.68447355      0.24866024
H       0.81037206     -0.30040242     -2.49321040
H       1.19252572     -1.94297224     -2.08508801
H      -0.19549237     -1.75433545     -3.86732669
11
Frame 110  Energy = -268.2997297651 Hartree
C       0.64865843     -0.78446770     -0.37803255
C       0.50022361     -1.11483711     -1.81781739
C      -0.89322806     -1.66141126     -2.12767156
O      -1.70487562     -1.93968850     -1.29385340
O      -1.00985752     -1.99093802     -3.40755798
H       1.56195309     -0.24227104     -0.15453130
H      -0.17902058     -0.19568696      0.02405567
H       0.71720621     -1.69746017      0.24431382
H       0.80838241     -0.29917417     -2.47755582
H       1.19177786     -1.93702201     -2.08780435
H      -0.19266478     -1.74825454     -3.86025186
11
Frame 115  Energy = -268.2994514944 Hartree
C       0.64542949     -0.78674709     -0.37966574
C       0.49822564     -1.11809235     -1.81691986
C      -0.89074460     -1.66475812     -2.12545093
O      -1.70378187     -1.93811890     -1.29257985
O      -1.00873535     -1.99233343     -3.40855411
H       1.56188226     -0.24388827     -0.14825985
H      -0.17127503     -0.18260041      0.02237281
H       0.72699925     -1.71018392      0.23938367
H       0.80531612     -0.29736254     -2.46204491
H       1.19127931     -1.93071970     -2.09046733
H      -0.19000980     -1.74209190     -3.85391016
11
Frame 120  Energy = -268.2994605386 Hartree
C       0.64224950     -0.78905321     -0.38091525
C       0.49622048     -1.12143262     -1.81601157
C      -0.88811161     -1.66804238     -2.12311414
O      -1.70281296     -1.93657556     -1.29122826
O      -1.00768957     -1.99381529     -3.40970487
H       1.56232126     -0.24461724     -0.14293004
H      -0.16369049     -0.16959489      0.02063171
H       0.73578685     -1.72162488      0.23372929
H       0.80139410     -0.29499639     -2.44720076
H       1.19111886     -1.92412517     -2.09301906
H      -0.18780263     -1.73553736     -3.84856280
11
Frame 125  Energy = -268.2992955367 Hartree
C       0.63903718     -0.79139190     -0.38164262
C       0.49433578     -1.12483458     -1.81523190
C      -0.88524623     -1.67129534     -2.12075008
O      -1.70185659     -1.93507492     -1.28981378
O      -1.00681449     -1.99536918     -3.41096045
H       1.56301934     -0.24506448     -0.13861825
H      -0.15662339     -0.15697214      0.01879162
H       0.74345296     -1.73162975      0.22711296
H       0.79643083     -0.29129612     -2.43301058
H       1.19140470     -1.91754424     -2.09544263
H      -0.18633365     -1.72938056     -3.84392851
11
Frame 130  Energy = -268.2989049129 Hartree
C       0.63602663     -0.79379787     -0.38191277
C       0.49251337     -1.12830562     -1.81437792
C      -0.88213584     -1.67463329     -2.11830093
O      -1.70095196     -1.93349615     -1.28843107
O      -1.00605543     -1.99693874     -3.41231403
H       1.56380852     -0.24570040     -0.13484886
H      -0.15004952     -0.14495598      0.01701384
H       0.74951462     -1.73993859      0.21963836
H       0.79058774     -0.28575684     -2.42011836
H       1.19258954     -1.91145588     -2.09805405
H      -0.18500986     -1.72345753     -3.84005137
11
Frame 135  Energy = -268.2987992976 Hartree
C       0.63329863     -0.79629655     -0.38173110
C       0.49079799     -1.13181729     -1.81352496
C      -0.87874700     -1.67810474     -2.11587434
O      -1.70002783     -1.93193657     -1.28706637
O      -1.00534911     -1.99852490     -3.41375444
H       1.56428749     -0.24677293     -0.13216480
H      -0.14395703     -0.13395230      0.01535583
H       0.75385717     -1.74612030      0.21123275
H       0.78348187     -0.27865425     -2.40856294
H       1.19452344     -1.90635244     -2.10092842
H      -0.18408913     -1.71735484     -3.83711380
11
Frame 140  Energy = -268.2989929225 Hartree
C       0.63091192     -0.79879648     -0.38100196
C       0.48920367     -1.13519231     -1.81266238
C      -0.87514156     -1.68164161     -2.11349185
O      -1.69911320     -1.93028479     -1.28572625
O      -1.00470236     -2.00005600     -3.41525107
H       1.56425722     -0.24819127     -0.13067964
H      -0.13843326     -0.12415045      0.01386690
H       0.75613110     -1.75001283      0.20231434
H       0.77530275     -0.27038604     -2.39865258
H       1.19754566     -1.90229448     -2.10407282
H      -0.18370830     -1.71120685     -3.83552731
11
Frame 145  Energy = -268.2989080914 Hartree
C       0.62885855     -0.80135072     -0.37971646
C       0.48764523     -1.13847555     -1.81171996
C      -0.87130139     -1.68520491     -2.11127207
O      -1.69829041     -1.92861763     -1.28440278
O      -1.00414717     -2.00154628     -3.41686379
H       1.56377686     -0.24982762     -0.13111985
H      -0.13366814     -0.11615372      0.01173373
H       0.75658542     -1.75176706      0.19278081
H       0.76643878     -0.26099509     -2.39081551
H       1.20158116     -1.89951449     -2.10729199
H      -0.18394498     -1.70528900     -3.83491102
11
Frame 150  Energy = -268.2990536981 Hartree
C       0.62719210     -0.80394724     -0.37794895
C       0.48613968     -1.14167605     -1.81075727
C      -0.86739201     -1.68880459     -2.10913754
O      -1.69765225     -1.92699770     -1.28295540
O      -1.00362315     -2.00297768     -3.41850702
H       1.56296919     -0.25181953     -0.13314432
H      -0.12960014     -0.11014438      0.00921992
H       0.75533857     -1.75170976      0.18331050
H       0.75648119     -0.25089268     -2.38473739
H       1.20651962     -1.89744195     -2.11036435
H      -0.18493896     -1.69950450     -3.83504805
11
Frame 155  Energy = -268.2991462981 Hartree
C       0.62589867     -0.80645691     -0.37581973
C       0.48485931     -1.14473048     -1.80986358
C      -0.86340121     -1.69248959     -2.10719112
O      -1.69705779     -1.92539157     -1.28152672
O      -1.00310053     -2.00441010     -3.42013613
H       1.56174158     -0.25443915     -0.13671105
H      -0.12679367     -0.10592281      0.00654015
H       0.75237578     -1.75025168      0.17424960
H       0.74580348     -0.24063150     -2.38001733
H       1.21210535     -1.89615038     -2.11337501
H      -0.18615489     -1.69428368     -3.83642421
11
Frame 160  Energy = -268.2991443780 Hartree
C       0.62488294     -0.80883606     -0.37341018
C       0.48382053     -1.14751935     -1.80901863
C      -0.85933582     -1.69622492     -2.10534577
O      -1.69654975     -1.92380712     -1.28021029
O      -1.00254595     -2.00584884     -3.42171920
H       1.55961396     -0.25820855     -0.14174135
H      -0.12515447     -0.10327003      0.00396110
H       0.74742358     -1.74817381      0.16607276
H       0.73415912     -0.23062095     -2.37662516
H       1.21828697     -1.89563327     -2.11630659
H      -0.18777304     -1.68921470     -3.83907920
11
Frame 165  Energy = -268.2991704143 Hartree
C       0.62423490     -0.81105083     -0.37063305
C       0.48293935     -1.15012429     -1.80830408
C      -0.85527079     -1.70008958     -2.10361735
O      -1.69616680     -1.92223046     -1.27901106
O      -1.00199162     -2.00725773     -3.42325574
H       1.55745469     -0.26295303     -0.14767921
H      -0.12470061     -0.10286784      0.00137171
H       0.74059708     -1.74575668      0.15970790
H       0.72152774     -0.22119923     -2.37451798
H       1.22506331     -1.89547523     -2.11904751
H      -0.19002851     -1.68459414     -3.84284586
11
Frame 170  Energy = -268.2990402879 Hartree
C       0.62389371     -0.81317132     -0.36767527
C       0.48233308     -1.15250165     -1.80762737
C      -0.85123062     -1.70398571     -2.10206959
O      -1.69588615     -1.92074723     -1.27786079
O      -1.00147250     -2.00864713     -3.42473451
H       1.55539499     -0.26831924     -0.15468301
H      -0.12507418     -0.10431868     -0.00159849
H       0.73189836     -1.74367678      0.15571895
H       0.70764288     -0.21306386     -2.37315554
H       1.23172638     -1.89526192     -2.12182224
H      -0.19321277     -1.68073060     -3.84751686
11
Frame 175  Energy = -268.2989000351 Hartree
C       0.62386727     -0.81526072     -0.36456443
C       0.48204702     -1.15458245     -1.80693294
C      -0.84726274     -1.70800688     -2.10073042
O      -1.69568658     -1.91934162     -1.27681519
O      -1.00093567     -2.00998336     -3.42620670
H       1.55380040     -0.27420610     -0.16247460
H      -0.12655436     -0.10719793     -0.00419007
H       0.72172696     -1.74291361      0.15411727
H       0.69217305     -0.20663569     -2.37182281
H       1.23840258     -1.89510965     -2.12434779
H      -0.19719901     -1.67712296     -3.85295924
11
Frame 180  Energy = -268.2988825870 Hartree
C       0.62409614     -0.81725558     -0.36136036
C       0.48199746     -1.15625765     -1.80626407
C      -0.84341038     -1.71216869     -2.09959199
O      -1.69554065     -1.91802804     -1.27586884
O      -1.00052086     -2.01126353     -3.42757967
H       1.55294201     -0.28037529     -0.17060908
H      -0.12930899     -0.11197816     -0.00647409
H       0.71027296     -1.74354775      0.15548757
H       0.67503816     -0.20202862     -2.37036687
H       1.24475218     -1.89474131     -2.12689293
H      -0.20184315     -1.67375165     -3.85898135
11
Frame 185  Energy = -268.2990984724 Hartree
C       0.62441955     -0.81915411     -0.35814490
C       0.48226229     -1.15756648     -1.80563752
C      -0.83979452     -1.71636124     -2.09864531
O      -1.69539811     -1.91673220     -1.27505850
O      -1.00020074     -2.01262015     -3.42876753
H       1.55323011     -0.28673367     -0.17920558
H      -0.13298740     -0.11838759     -0.00865240
H       0.69771355     -1.74577040      0.15967319
H       0.65717657     -0.19929011     -2.36887002
H       1.25041185     -1.89367069     -2.12930878
H      -0.20697897     -1.67077415     -3.86599658
11
Frame 190  Energy = -268.2988090354 Hartree
C       0.62481856     -0.82084018     -0.35490242
C       0.48285798     -1.15852179     -1.80499723
C      -0.83634838     -1.72066628     -2.09789096
O      -1.69520314     -1.91546272     -1.27438785
O      -1.00002764     -2.01405053     -3.42986303
H       1.55505910     -0.29323487     -0.18781063
H      -0.13783027     -0.12610054     -0.01025183
H       0.68390110     -1.74971940      0.16674107
H       0.63851448     -0.19855857     -2.36725113
H       1.25536818     -1.89177795     -2.13173922
H      -0.21266372     -1.66861646     -3.87370507
11
Frame 195  Energy = -268.2986954493 Hartree
C       0.62540877     -0.82244409     -0.35161763
C       0.48374694     -1.15928102     -1.80432262
C      -0.83309614     -1.72513598     -2.09727703
O      -1.69498902     -1.91421206     -1.27382388
O      -0.99989900     -2.01546664     -3.43083071
H       1.55843265     -0.29998412     -0.19644308
H      -0.14392661     -0.13455737     -0.01116813
H       0.66906767     -1.75492486      0.17675019
H       0.61945555     -0.19979075     -2.36576735
H       1.25987694     -1.88868980     -2.13400719
H      -0.21869662     -1.66695518     -3.88212006
11
Frame 200  Energy = -268.2984915742 Hartree
C       0.62616052     -0.82399060     -0.34841706
C       0.48496699     -1.15977551     -1.80363187
C      -0.83007623     -1.72964973     -2.09692002
O      -1.69463479     -1.91301957     -1.27333338
O      -0.99981753     -2.01688392     -3.43161221
H       1.56308362     -0.30692614     -0.20493409
H      -0.15103891     -0.14360351     -0.01162430
H       0.65329631     -1.76082582      0.18946859
H       0.60036602     -0.20257355     -2.36420573
H       1.26376733     -1.88402375     -2.13590803
H      -0.22483228     -1.66594426     -3.89172322
11
Frame 205  Energy = -268.2986318909 Hartree
C       0.62705615     -0.82551816     -0.34522585
C       0.48648529     -1.16002721     -1.80287570
C      -0.82730693     -1.73423575     -2.09676321
O      -1.69427496     -1.91185605     -1.27293842
O      -0.99977879     -2.01835462     -3.43230656
H       1.56893247     -0.31380646     -0.21318230
H      -0.15906354     -0.15332322     -0.01103824
H       0.63677379     -1.76680702      0.20417186
H       0.58129553     -0.20694905     -2.36281088
H       1.26708771     -1.87823954     -2.13743120
H      -0.23094952     -1.66596310     -3.90177662
11
Frame 210  Energy = -268.2985361602 Hartree
C       0.62818894     -0.82709291     -0.34205756
C       0.48822972     -1.16014545     -1.80210069
C      -0.82489336     -1.73895172     -2.09664354
O      -1.69391408     -1.91072147     -1.27260645
O      -0.99975626     -2.01987877     -3.43293697
H       1.57585755     -0.32028389     -0.22040083
H      -0.16768609     -0.16358906     -0.01037623
H       0.62018129     -1.77209522      0.21976664
H       0.56231443     -0.21255935     -2.36209075
H       1.26987659     -1.87135604     -2.13893546
H      -0.23720197     -1.66681421     -3.91188877
11
Frame 215  Energy = -268.2985704652 Hartree
C       0.62945570     -0.82883928     -0.33897597
C       0.49016209     -1.16013043     -1.80131467
C      -0.82281427     -1.74385179     -2.09658556
O      -1.69346882     -1.90959908     -1.27248462
O      -0.99980150     -2.02140866     -3.43346241
H       1.58357520     -0.32651142     -0.22669754
H      -0.17662229     -0.17432045     -0.00894001
H       0.60405945     -1.77629922      0.23583552
H       0.54393893     -0.21887849     -2.36231017
H       1.27235195     -1.86319323     -2.14001889
H      -0.24391251     -1.66842682     -3.92214304
11
Frame 220  Energy = -268.2984908353 Hartree
C       0.63075203     -0.83074413     -0.33582587
C       0.49228243     -1.16001046     -1.80045465
C      -0.82102540     -1.74870404     -2.09666513
O      -1.69296393     -1.90844837     -1.27264032
O      -0.99990470     -2.02289864     -3.43389672
H       1.59215567     -0.33250009     -0.23197465
H      -0.18540560     -0.18526134     -0.00699227
H       0.58800661     -1.77930853      0.25185601
H       0.52603553     -0.22534230     -2.36286645
H       1.27476798     -1.85378506     -2.14095890
H      -0.25063758     -1.67035224     -3.93247681
11
Frame 225  Energy = -268.2984010774 Hartree
C       0.63212002     -0.83285936     -0.33260662
C       0.49459575     -1.15981661     -1.79955781
C      -0.81951652     -1.75348821     -2.09680528
O      -1.69241707     -1.90728266     -1.27304689
O      -1.00009430     -2.02439813     -3.43418694
H       1.60101547     -0.33822581     -0.23596995
H      -0.19384943     -0.19598262     -0.00507148
H       0.57211859     -1.78039555      0.26767417
H       0.50902381     -0.23181253     -2.36422947
H       1.27705184     -1.84366681     -2.14231964
H      -0.25690219     -1.67272413     -3.94285352
11
Frame 230  Energy = -268.2980997958 Hartree
C       0.63356468     -0.83512765     -0.32932404
C       0.49692953     -1.15959942     -1.79859679
C      -0.81834471     -1.75832233     -2.09706784
O      -1.69174832     -1.90613855     -1.27356379
O      -1.00029942     -2.02597072     -3.43433442
H       1.60995222     -0.34389778     -0.23834031
H      -0.20211170     -0.20674987     -0.00287059
H       0.55680466     -1.77959456      0.28284605
H       0.49295045     -0.23774435     -2.36650989
H       1.28000737     -1.83303578     -2.14394087
H      -0.26301652     -1.67524940     -3.95316138
11
Frame 235  Energy = -268.2982832135 Hartree
C       0.63505606     -0.83757896     -0.32596857
C       0.49924699     -1.15931527     -1.79753301
C      -0.81751766     -1.76308631     -2.09748702
O      -1.69100273     -1.90501789     -1.27424245
O      -1.00062463     -2.02762996     -3.43439010
H       1.61893162     -0.34963899     -0.23899022
H      -0.20936197     -0.21725497     -0.00054043
H       0.54277235     -1.77675695      0.29679791
H       0.47788360     -0.24250724     -2.36939357
H       1.28376163     -1.82232269     -2.14592451
H      -0.26950736     -1.67803004     -3.96322075
11
Frame 240  Energy = -268.2983461735 Hartree
C       0.63661265     -0.84022079     -0.32260130
C       0.50149923     -1.15898751     -1.79647531
C      -0.81684724     -1.76779506     -2.09802112
O      -1.69027845     -1.90400884     -1.27506593
O      -1.00099914     -2.02937349     -3.43439050
H       1.62716513     -0.35527128     -0.23774084
H      -0.21527100     -0.22716564      0.00208770
H       0.52999760     -1.77182079      0.30899890
H       0.46399690     -0.24577326     -2.37275570
H       1.28863240     -1.81162246     -2.14831078
H      -0.27613771     -1.68113103     -3.97277677
11
Frame 245  Energy = -268.2983776489 Hartree
C       0.63810447     -0.84303498     -0.31918893
C       0.50363258     -1.15868759     -1.79527878
C      -0.81638599     -1.77243109     -2.09863025
O      -1.68955764     -1.90305049     -1.27598912
O      -1.00142027     -2.03123247     -3.43430604
H       1.63399239     -0.36112210     -0.23443857
H      -0.22001447     -0.23609232      0.00478426
H       0.51877147     -1.76501562      0.31982375
H       0.45155489     -0.24734285     -2.37681124
H       1.29477265     -1.80101074     -2.15089496
H      -0.28292838     -1.68442348     -3.98165743
11
Frame 250  Energy = -268.2982663299 Hartree
C       0.63951923     -0.84601830     -0.31567010
C       0.50557550     -1.15837891     -1.79399621
C      -0.81609255     -1.77705259     -2.09920965
O      -1.68888125     -1.90216303     -1.27696107
O      -1.00196895     -2.03317624     -3.43416555
H       1.63901935     -0.36733747     -0.22910989
H      -0.22353659     -0.24394693      0.00736658
H       0.50921877     -1.75633822      0.32908174
H       0.44053559     -0.24750661     -2.38184734
H       1.30209410     -1.79083754     -2.15374459
H      -0.28934825     -1.68833542     -3.98977174
11
Frame 255  Energy = -268.2982947968 Hartree
C       0.64089610     -0.84902433     -0.31202122
C       0.50727317     -1.15815517     -1.79270868
C      -0.81574111     -1.78165379     -2.09993445
O      -1.68819454     -1.90138927     -1.27810661
O      -1.00264859     -2.03520485     -3.43396373
H       1.64239450     -0.37399526     -0.22206343
H      -0.22566894     -0.25059129      0.00950419
H       0.50124681     -1.74652435      0.33691708
H       0.43097996     -0.24629685     -2.38710220
H       1.31069413     -1.78116478     -2.15708930
H      -0.29535533     -1.69249819     -3.99724351
11
Frame 260  Energy = -268.2983782319 Hartree
C       0.64225182     -0.85188747     -0.30828088
C       0.50882737     -1.15797023     -1.79133630
C      -0.81547553     -1.78616795     -2.10090265
O      -1.68755361     -1.90065753     -1.27940957
O      -1.00337858     -2.03725702     -3.43367874
H       1.64421838     -0.38087409     -0.21271525
H      -0.22647809     -0.25548314      0.01127314
H       0.49550185     -1.73586096      0.34319206
H       0.42326168     -0.24400553     -2.39212940
H       1.32037970     -1.77230591     -2.16094008
H      -0.30098912     -1.69709747     -4.00353768
11
Frame 265  Energy = -268.2981632471 Hartree
C       0.64370764     -0.85468389     -0.30438595
C       0.51022574     -1.15783008     -1.78985839
C      -0.81517470     -1.79042422     -2.10205565
O      -1.68684877     -1.89995428     -1.28083378
O      -1.00428730     -2.03940801     -3.43326093
H       1.64391641     -0.38809782     -0.20115782
H      -0.22600081     -0.25867429      0.01254132
H       0.49178315     -1.72514944      0.34820278
H       0.41689825     -0.24081530     -2.39662277
H       1.33100400     -1.76362208     -2.16539611
H      -0.30597624     -1.70176218     -4.00894358
11
Frame 270  Energy = -268.2981581623 Hartree
C       0.64511123     -0.85734343     -0.30056576
C       0.51153071     -1.15769170     -1.78821110
C      -0.81494234     -1.79464388     -2.10322756
O      -1.68614206     -1.89931370     -1.28243819
O      -1.00534702     -2.04170567     -3.43280192
H       1.64159452     -0.39525639     -0.18795722
H      -0.22420797     -0.26044083      0.01319836
H       0.48995865     -1.71506322      0.35212591
H       0.41216253     -0.23708247     -2.40063431
H       1.34202625     -1.75502661     -2.17017641
H      -0.31028084     -1.70693361     -4.01352607
11
Frame 275  Energy = -268.2983177112 Hartree
C       0.64651750     -0.85989654     -0.29680580
C       0.51270942     -1.15757066     -1.78654214
C      -0.81472551     -1.79863143     -2.10448074
O      -1.68546638     -1.89874548     -1.28407786
O      -1.00646166     -2.04406647     -3.43221160
H       1.63797870     -0.40223045     -0.17316642
H      -0.22115283     -0.26044902      0.01336882
H       0.48977791     -1.70617020      0.35543054
H       0.40913171     -0.23333308     -2.40375454
H       1.35321048     -1.74640687     -2.17550490
H      -0.31382592     -1.71197778     -4.01748932
11
Frame 280  Energy = -268.2983291968 Hartree
C       0.64778299     -0.86236165     -0.29317357
C       0.51390278     -1.15745672     -1.78491280
C      -0.81443637     -1.80240567     -2.10574632
O      -1.68485869     -1.89831859     -1.28571560
O      -1.00767313     -2.04646930     -3.43154883
H       1.63337675     -0.40882754     -0.15667749
H      -0.21649074     -0.25874453      0.01331272
H       0.49076028     -1.69966551      0.35860117
H       0.40760785     -0.23003500     -2.40528060
H       1.36423942     -1.73786225     -2.18148100
H      -0.31648451     -1.71729405     -4.02032106
11
Frame 285  Energy = -268.2983678605 Hartree
C       0.64891969     -0.86469735     -0.28966085
C       0.51506416     -1.15732756     -1.78338847
C      -0.81408089     -1.80593187     -2.10695153
O      -1.68430621     -1.89800561     -1.28742736
O      -1.00901235     -2.04901561     -3.43087234
H       1.62823444     -0.41442420     -0.13896217
H      -0.21065295     -0.25541203      0.01281654
H       0.49281008     -1.69590652      0.36193841
H       0.40778675     -0.22745278     -2.40539780
H       1.37477621     -1.72917249     -2.18792126
H      -0.31811307     -1.72276122     -4.02203004
11
Frame 290  Energy = -268.2982795990 Hartree
C       0.64995033     -0.86681230     -0.28623961
C       0.51624914     -1.15719878     -1.78199404
C      -0.81365560     -1.80922834     -2.10818955
O      -1.68381260     -1.89778398     -1.28924568
O      -1.01051144     -2.05166151     -3.43009913
H       1.62290234     -0.41925463     -0.12002297
H      -0.20399047     -0.25032795      0.01243732
H       0.49605529     -1.69547570      0.36513250
H       0.40969438     -0.22550725     -2.40367591
H       1.38443995     -1.72004018     -2.19416028
H      -0.31915463     -1.72866440     -4.02250846
11
Frame 295  Energy = -268.2983955318 Hartree
C       0.65086164     -0.86868793     -0.28304993
C       0.51747444     -1.15709346     -1.78085663
C      -0.81297781     -1.81227908     -2.10950277
O      -1.68336579     -1.89765140     -1.29112450
O      -1.01217566     -2.05446445     -3.42925368
H       1.61765246     -0.42312703     -0.10018669
H      -0.19695405     -0.24364559      0.01157998
H       0.49996507     -1.69833694      0.36882266
H       0.41293356     -0.22411900     -2.39972433
H       1.39321066     -1.70991190     -2.19976710
H      -0.31972568     -1.73477125     -4.02206477
11
Frame 300  Energy = -268.2984745097 Hartree
C       0.65167973     -0.87035544     -0.28015515
C       0.51875245     -1.15698114     -1.77989666
C      -0.81210042     -1.81496271     -2.11091983
O      -1.68302722     -1.89765058     -1.29301236
O      -1.01399215     -2.05745392     -3.42837750
H       1.61321820     -0.42579058     -0.07969368
H      -0.18908851     -0.23561157      0.01096959
H       0.50466326     -1.70447662      0.37293701
H       0.41751829     -0.22313261     -2.39412117
H       1.40040909     -1.69925046     -2.20485435
H      -0.31999424     -1.74109063     -4.02047436
