11
Frame 5  Energy = -268.3088792424 Hartree
C       0.66723817     -0.61031532     -0.45959255
C       0.47742265     -0.88810834     -1.94000985
C      -0.85877328     -1.52603264     -2.13199695
O      -1.63161987     -1.88255149     -1.28686903
O      -1.15311347     -1.85063560     -3.42058789
H       1.71800633     -0.31927610     -0.27577334
H      -0.05240203      0.02892186      0.00763685
H       0.43954128     -1.51649572      0.16552801
H       0.59302016      0.02506432     -2.54645436
H       1.13707572     -1.64532740     -2.40222207
H      -0.44080102     -1.58281678     -4.01927971
11
Frame 10  Energy = -268.3090065163 Hartree
C       0.66576083     -0.61238070     -0.46265297
C       0.47827097     -0.88893358     -1.94000531
C      -0.85971225     -1.52332442     -2.12867579
O      -1.63317870     -1.88429201     -1.28785498
O      -1.15091151     -1.85116239     -3.42019221
H       1.71599846     -0.31783246     -0.27355477
H      -0.05335210      0.03114818      0.01044888
H       0.44846269     -1.51447479      0.16459771
H       0.59729134      0.02494506     -2.55328477
H       1.13979645     -1.65548101     -2.39251309
H      -0.43094765     -1.58248450     -4.01108030
11
Frame 15  Energy = -268.3090720025 Hartree
C       0.66454275     -0.61473175     -0.46547553
C       0.47899556     -0.88984309     -1.93992046
C      -0.86073551     -1.52085145     -2.12567398
O      -1.63474839     -1.88593876     -1.28879521
O      -1.14867607     -1.85168741     -3.41984082
H       1.71292496     -0.31609983     -0.27086851
H      -0.05488328      0.03621437      0.01187645
H       0.45874597     -1.51222241      0.16190196
H       0.60147484      0.02391205     -2.55949637
H       1.14351506     -1.66458889     -2.38116153
H      -0.42122396     -1.58212016     -4.00289334
11
Frame 20  Energy = -268.3091657355 Hartree
C       0.66352757     -0.61746448     -0.46793275
C       0.47964648     -0.89074864     -1.93991262
C      -0.86174308     -1.51846044     -2.12290552
O      -1.63641636     -1.88759331     -1.28955228
O      -1.14647757     -1.85219461     -3.41953985
H       1.70860971     -0.31405406     -0.26785561
H      -0.05700090      0.04343241      0.01192442
H       0.47034261     -1.50990704      0.15727526
H       0.60553692      0.02221896     -2.56501981
H       1.14801008     -1.67206900     -2.36850349
H      -0.41161763     -1.58143370     -3.99487044
11
Frame 25  Energy = -268.3091201854 Hartree
C       0.66268325     -0.62042282     -0.47003767
C       0.48021927     -0.89160935     -1.93997305
C      -0.86285154     -1.51625206     -2.12046118
O      -1.63813590     -1.88924350     -1.29007320
O      -1.14431347     -1.85266271     -3.41923063
H       1.70304410     -0.31163211     -0.26457393
H      -0.05928025      0.05250560      0.01034543
H       0.48269741     -1.50762728      0.15093292
H       0.60921146      0.01975943     -2.56999320
H       1.15281768     -1.67825383     -2.35467184
H      -0.40261575     -1.58075230     -3.98719886
11
Frame 30  Energy = -268.3092499692 Hartree
C       0.66205601     -0.62349061     -0.47175616
C       0.48072565     -0.89238428     -1.93999605
C      -0.86405680     -1.51427460     -2.11840177
O      -1.63988480     -1.89095148     -1.29041089
O      -1.14211337     -1.85309568     -3.41890584
H       1.69685692     -0.30845029     -0.26154465
H      -0.06128321      0.06291049      0.00717821
H       0.49560950     -1.50606944      0.14312504
H       0.61260054      0.01652601     -2.57425215
H       1.15808755     -1.68300404     -2.33973020
H      -0.39401938     -1.58031809     -3.97980593
11
Frame 35  Energy = -268.3091986312 Hartree
C       0.66172541     -0.62663433     -0.47314498
C       0.48115329     -0.89318257     -1.93999767
C      -0.86537903     -1.51256195     -2.11674170
O      -1.64160302     -1.89264577     -1.29053227
O      -1.13993604     -1.85347568     -3.41860230
H       1.69032786     -0.30436179     -0.25833889
H      -0.06241208      0.07385415      0.00239629
H       0.50908156     -1.50594908      0.13438794
H       0.61547005      0.01233841     -2.57757740
H       1.16383054     -1.68633709     -2.32395903
H      -0.38568103     -1.58027849     -3.97253356
11
Frame 40  Energy = -268.3093802022 Hartree
C       0.66154457     -0.62965804     -0.47421196
C       0.48148701     -0.89405678     -1.94002219
C      -0.86672936     -1.51117691     -2.11558099
O      -1.64340100     -1.89421893     -1.29043782
O      -1.13776729     -1.85381470     -3.41837431
H       1.68350147     -0.29968765     -0.25485386
H      -0.06239838      0.08472759     -0.00439094
H       0.52259251     -1.50751748      0.12528733
H       0.61791757      0.00727487     -2.58000237
H       1.16963214     -1.68805503     -2.30748273
H      -0.37777535     -1.58034436     -3.96538213
11
Frame 45  Energy = -268.3093880995 Hartree
C       0.66139001     -0.63242962     -0.47496214
C       0.48174937     -0.89484091     -1.93991383
C      -0.86814189     -1.51011146     -2.11481580
O      -1.64514363     -1.89567788     -1.29017327
O      -1.13554253     -1.85408637     -3.41812943
H       1.67636622     -0.29413829     -0.25156335
H      -0.06085112      0.09511822     -0.01317446
H       0.53562864     -1.51125905      0.11623818
H       0.61999730      0.00112843     -2.58140807
H       1.17571486     -1.68837089     -2.29049373
H      -0.37051106     -1.58048703     -3.95825615
11
Frame 50  Energy = -268.3093581922 Hartree
C       0.66122759     -0.63498075     -0.47549526
C       0.48197029     -0.89555345     -1.93962989
C      -0.86975562     -1.50938049     -2.11442164
O      -1.64691182     -1.89706773     -1.28986063
O      -1.13326227     -1.85427962     -3.41782070
H       1.66950806     -0.28805339     -0.24850026
H      -0.05772680      0.10456931     -0.02372639
H       0.54824705     -1.51744935      0.10768455
H       0.62230440     -0.00581788     -2.58197627
H       1.18173144     -1.68756067     -2.27317884
H      -0.36413863     -1.58063062     -3.95126652
11
Frame 55  Energy = -268.3092532626 Hartree
C       0.66120894     -0.63712837     -0.47589480
C       0.48215454     -0.89638254     -1.93922293
C      -0.87157796     -1.50890078     -2.11445041
O      -1.64876284     -1.89830212     -1.28956424
O      -1.13100002     -1.85431285     -3.41743365
H       1.66316129     -0.28148952     -0.24593308
H      -0.05349108      0.11288570     -0.03568067
H       0.56030135     -1.52655541      0.09991584
H       0.62496116     -0.01356452     -2.58204168
H       1.18764553     -1.68574294     -2.25545638
H      -0.35864464     -1.58089752     -3.94459199
11
Frame 60  Energy = -268.3092093776 Hartree
C       0.66128845     -0.63886160     -0.47612087
C       0.48240021     -0.89729711     -1.93878316
C      -0.87351429     -1.50871643     -2.11480554
O      -1.65054546     -1.89945857     -1.28922341
O      -1.12864316     -1.85428035     -3.41695567
H       1.65775199     -0.27445814     -0.24344223
H      -0.04829085      0.11949753     -0.04922179
H       0.57145262     -1.53794281      0.09299518
H       0.62740487     -0.02179327     -2.58167532
H       1.19376588     -1.68329483     -2.23778996
H      -0.35363004     -1.58123183     -3.93860543
11
Frame 65  Energy = -268.3091258756 Hartree
C       0.66138621     -0.64019888     -0.47621362
C       0.48256058     -0.89819687     -1.93825876
C      -0.87554628     -1.50874360     -2.11549497
O      -1.65231687     -1.90054553     -1.28873495
O      -1.12628220     -1.85418114     -3.41641501
H       1.65378242     -0.26676182     -0.24107283
H      -0.04203420      0.12453004     -0.06424926
H       0.58159119     -1.55125091      0.08707940
H       0.62966535     -0.03018118     -2.58077662
H       1.20026168     -1.68044394     -2.22040384
H      -0.34913897     -1.58159560     -3.93337804
11
Frame 70  Energy = -268.3090747902 Hartree
C       0.66151227     -0.64112639     -0.47607743
C       0.48263027     -0.89912826     -1.93749437
C      -0.87760429     -1.50913457     -2.11657728
O      -1.65405862     -1.90156693     -1.28819017
O      -1.12389028     -1.85406982     -3.41592653
H       1.65075081     -0.25826404     -0.23898693
H      -0.03508924      0.12808224     -0.08050224
H       0.59042417     -1.56571521      0.08233129
H       0.63201291     -0.03790706     -2.57969211
H       1.20691555     -1.67697511     -2.20355106
H      -0.34477638     -1.58214072     -3.92911978
11
Frame 75  Energy = -268.3089535933 Hartree
C       0.66176434     -0.64166842     -0.47565775
C       0.48258698     -0.90020722     -1.93656291
C      -0.87970759     -1.50989439     -2.11796123
O      -1.65573410     -1.90244027     -1.28758043
O      -1.12154268     -1.85395032     -3.41543585
H       1.64869519     -0.24929877     -0.23721119
H      -0.02801244      0.13008540     -0.09731554
H       0.59834254     -1.58069242      0.07852798
H       0.63443530     -0.04489491     -2.57882612
H       1.21408785     -1.67336634     -2.18768971
H      -0.34082801     -1.58286080     -3.92597754
11
Frame 80  Energy = -268.3089711168 Hartree
C       0.66221592     -0.64187268     -0.47496548
C       0.48254427     -0.90140623     -1.93542905
C      -0.88180913     -1.51107520     -2.11962212
O      -1.65737202     -1.90327188     -1.28686063
O      -1.11918014     -1.85381893     -3.41500015
H       1.64780522     -0.24019171     -0.23588537
H      -0.02116373      0.13099362     -0.11421465
H       0.60523688     -1.59499073      0.07475238
H       0.63712676     -0.05088323     -2.57876980
H       1.22130828     -1.66985252     -2.17269337
H      -0.33745404     -1.58385489     -3.92420234
11
Frame 85  Energy = -268.3090337424 Hartree
C       0.66283204     -0.64198848     -0.47400064
C       0.48246086     -0.90269608     -1.93404215
C      -0.88387048     -1.51252372     -2.12148137
O      -1.65897062     -1.90403635     -1.28607811
O      -1.11677081     -1.85370138     -3.41456887
H       1.64763681     -0.23095294     -0.23503548
H      -0.01509235      0.13092527     -0.13018908
H       0.61111669     -1.60785169      0.07113341
H       0.63971975     -0.05579977     -2.57953519
H       1.22841971     -1.66679466     -2.15923939
H      -0.33455912     -1.58517546     -3.92396353
11
Frame 90  Energy = -268.3092368706 Hartree
C       0.66365414     -0.64215441     -0.47277869
C       0.48244606     -0.90419720     -1.93240446
C      -0.88596045     -1.51427886     -2.12346820
O      -1.66055586     -1.90465769     -1.28528135
O      -1.11433819     -1.85349688     -3.41413472
H       1.64829548     -0.22176020     -0.23455085
H      -0.01080268      0.13001574     -0.14470928
H       0.61573775     -1.61863441      0.06763257
H       0.64236066     -0.05909702     -2.58109452
H       1.23562289     -1.66439208     -2.14749311
H      -0.33240400     -1.58676416     -3.92466007
11
Frame 95  Energy = -268.3091536974 Hartree
C       0.66467187     -0.64231008     -0.47140349
C       0.48247755     -0.90596075     -1.93056920
C      -0.88817625     -1.51640537     -2.12556156
O      -1.66207530     -1.90514000     -1.28439795
O      -1.11196917     -1.85321727     -3.41368689
H       1.64980112     -0.21316791     -0.23494951
H      -0.00845807      0.12905789     -0.15756164
H       0.61897488     -1.62703299      0.06416117
H       0.64529195     -0.06075347     -2.58334743
H       1.24277412     -1.66244090     -2.13756727
H      -0.33089587     -1.58835730     -3.92609909
11
Frame 100  Energy = -268.3091191366 Hartree
C       0.66600110     -0.64248473     -0.46980863
C       0.48247175     -0.90783556     -1.92844929
C      -0.89033456     -1.51880323     -2.12790129
O      -1.66344770     -1.90556017     -1.28357355
O      -1.10969003     -1.85290911     -3.41332767
H       1.65170774     -0.20519329     -0.23573671
H      -0.00827425      0.12818196     -0.16862732
H       0.62083858     -1.63273169      0.06061680
H       0.64818094     -0.06087112     -2.58658798
H       1.25014639     -1.66122773     -2.12940370
H      -0.32987451     -1.58993785     -3.92828481
11
Frame 105  Energy = -268.3090402778 Hartree
C       0.66764204     -0.64264319     -0.46810869
C       0.48237875     -0.90981470     -1.92607405
C      -0.89249358     -1.52157349     -2.13029302
O      -1.66476982     -1.90592093     -1.28276970
O      -1.10752488     -1.85251545     -3.41301157
H       1.65350928     -0.19776649     -0.23721108
H      -0.01069625      0.12736208     -0.17730713
H       0.62118848     -1.63533193      0.05733310
H       0.65121183     -0.06002484     -2.59006539
H       1.25729615     -1.66087310     -2.12302493
H      -0.32905601     -1.59155921     -3.93122761
11
Frame 110  Energy = -268.3089026507 Hartree
C       0.66946209     -0.64280753     -0.46624898
C       0.48222839     -0.91183733     -1.92356005
C      -0.89459139     -1.52468294     -2.13271524
O      -1.66615145     -1.90626786     -1.28199114
O      -1.10546676     -1.85206684     -3.41289341
H       1.65504944     -0.19125153     -0.23940878
H      -0.01607656      0.12698424     -0.18383182
H       0.62047772     -1.63472384      0.05404912
H       0.65394401     -0.05878812     -2.59355317
H       1.26427910     -1.66135763     -2.11832025
H      -0.32837070     -1.59293653     -3.93475576
11
Frame 115  Energy = -268.3087853950 Hartree
C       0.67158360     -0.64302957     -0.46419475
C       0.48213029     -0.91388258     -1.92090976
C      -0.89645505     -1.52808141     -2.13512784
O      -1.66761032     -1.90653062     -1.28133323
O      -1.10347639     -1.85165159     -3.41301618
H       1.65653510     -0.18581568     -0.24250549
H      -0.02431189      0.12685564     -0.18793050
H       0.61897395     -1.63143356      0.05091843
H       0.65627627     -0.05772256     -2.59651192
H       1.27116534     -1.66223652     -2.11556825
H      -0.32796666     -1.59416685     -3.93859907
11
Frame 120  Energy = -268.3087062095 Hartree
C       0.67409757     -0.64326773     -0.46198068
C       0.48211291     -0.91601821     -1.91830646
C      -0.89817223     -1.53166424     -2.13759183
O      -1.66904320     -1.90670262     -1.28075943
O      -1.10156630     -1.85128536     -3.41333551
H       1.65744841     -0.18137790     -0.24622361
H      -0.03465499      0.12648949     -0.18941747
H       0.61669780     -1.62579100      0.04824606
H       0.65829606     -0.05691780     -2.59856119
H       1.27734362     -1.66319746     -2.11488740
H      -0.32835387     -1.59553087     -3.94222298
11
Frame 125  Energy = -268.3086094751 Hartree
C       0.67694401     -0.64349954     -0.45960724
C       0.48225248     -0.91825512     -1.91559993
C      -0.89973437     -1.53550445     -2.13996944
O      -1.67031672     -1.90683182     -1.28017671
O      -1.09981774     -1.85095028     -3.41384050
H       1.65837277     -0.17820047     -0.25035031
H      -0.04661109      0.12560480     -0.18832667
H       0.61369394     -1.61788921      0.04632600
H       0.65969918     -0.05697073     -2.59921538
H       1.28216128     -1.66442507     -2.11625775
H      -0.32902343     -1.59661707     -3.94581171
11
Frame 130  Energy = -268.3086658025 Hartree
C       0.67994426     -0.64349736     -0.45713617
C       0.48257325     -0.92058211     -1.91286576
C      -0.90103346     -1.53956786     -2.14219100
O      -1.67146976     -1.90684758     -1.27966164
O      -1.09826356     -1.85063274     -3.41450934
H       1.65877761     -0.17580937     -0.25485598
H      -0.05958454      0.12379895     -0.18493074
H       0.60991032     -1.60848547      0.04540386
H       0.66058234     -0.05767876     -2.59864369
H       1.28533863     -1.66575052     -2.11932194
H      -0.32989805     -1.59722604     -3.94981260
11
Frame 135  Energy = -268.3087407575 Hartree
C       0.68300897     -0.64308807     -0.45471984
C       0.48306639     -0.92296987     -1.91017642
C      -0.90200868     -1.54377862     -2.14422295
O      -1.67250562     -1.90678903     -1.27918866
O      -1.09694914     -1.85040727     -3.41530024
H       1.65860777     -0.17409336     -0.25989238
H      -0.07282897      0.12100742     -0.17977995
H       0.60513686     -1.59840787      0.04602559
H       0.66064995     -0.05902615     -2.59711214
H       1.28722085     -1.66701814     -2.12407292
H      -0.33083681     -1.59745918     -3.95392510
11
Frame 140  Energy = -268.3085709103 Hartree
C       0.68614399     -0.64227741     -0.45231256
C       0.48380427     -0.92555600     -1.90748970
C      -0.90268457     -1.54811081     -2.14595599
O      -1.67346721     -1.90665676     -1.27884656
O      -1.09576778     -1.85027142     -3.41630092
H       1.65845339     -0.17313304     -0.26515387
H      -0.08567342      0.11652472     -0.17311273
H       0.59954045     -1.58848884      0.04868776
H       0.66003247     -0.06145667     -2.59423117
H       1.28789369     -1.66781078     -2.13062451
H      -0.33184352     -1.59746968     -3.95782183
11
Frame 145  Energy = -268.3084229631 Hartree
C       0.68922698     -0.64103058     -0.44983686
C       0.48471655     -0.92830401     -1.90486769
C      -0.90310448     -1.55255193     -2.14736445
O      -1.67428585     -1.90642297     -1.27858497
O      -1.09481775     -1.85026200     -3.41752841
H       1.65895377     -0.17296306     -0.27036125
H      -0.09761792      0.10996693     -0.16527699
H       0.59318807     -1.57899691      0.05326313
H       0.65837953     -0.06505530     -2.59007826
H       1.28693709     -1.66819696     -2.13881017
H      -0.33283948     -1.59721449     -3.96164877
11
Frame 150  Energy = -268.3086113200 Hartree
C       0.69214017     -0.63918696     -0.44739769
C       0.48582159     -0.93122850     -1.90235995
C      -0.90323900     -1.55706451     -2.14847607
O      -1.67491962     -1.90613964     -1.27847844
O      -1.09405835     -1.85039123     -3.41901381
H       1.66013361     -0.17319705     -0.27528242
H      -0.10805985      0.10181499     -0.15666986
H       0.58661993     -1.57039674      0.06017052
H       0.65597104     -0.06939126     -2.58472573
H       1.28444311     -1.66837741     -2.14817121
H      -0.33399673     -1.59670199     -3.96530615
11
Frame 155  Energy = -268.3085638884 Hartree
C       0.69488230     -0.63694945     -0.44505647
C       0.48697737     -0.93430238     -1.89994450
C      -0.90304478     -1.56159076     -2.14930695
O      -1.67546818     -1.90581693     -1.27857327
O      -1.09355554     -1.85058409     -3.42077372
H       1.66188851     -0.17345556     -0.27978694
H      -0.11681515      0.09193914     -0.14734913
H       0.57981243     -1.56300170      0.06925283
H       0.65284925     -0.07419868     -2.57827224
H       1.28065501     -1.66878560     -2.15873121
H      -0.33506294     -1.59605642     -3.96844726
11
Frame 160  Energy = -268.3086592525 Hartree
C       0.69742447     -0.63433014     -0.44284690
C       0.48817142     -0.93744958     -1.89763364
C      -0.90255099     -1.56612485     -2.14993516
O      -1.67594387     -1.90532317     -1.27893482
O      -1.09323838     -1.85081907     -3.42281439
H       1.66453535     -0.17371741     -0.28359514
H      -0.12336387      0.08033870     -0.13743972
H       0.57328645     -1.55728228      0.08054097
H       0.64924483     -0.07935088     -2.57075618
H       1.27575049     -1.66908681     -2.17057631
H      -0.33596003     -1.59534651     -3.97134252
11
Frame 165  Energy = -268.3087536088 Hartree
C       0.69960693     -0.63129622     -0.44075440
C       0.48941586     -0.94074434     -1.89546048
C      -0.90184873     -1.57063895     -2.15015163
O      -1.67637777     -1.90468873     -1.27944440
O      -1.09306169     -1.85114890     -3.42509922
H       1.66794745     -0.17404212     -0.28660503
H      -0.12792108      0.06727526     -0.12697917
H       0.56732935     -1.55292740      0.09334949
H       0.64484401     -0.08478351     -2.56230808
H       1.26953939     -1.66929225     -2.18310286
H      -0.33670488     -1.59463487     -3.97404380
11
Frame 170  Energy = -268.3087310517 Hartree
C       0.70143497     -0.62794552     -0.43871579
C       0.49062545     -0.94415949     -1.89325721
C      -0.90082678     -1.57513779     -2.15008356
O      -1.67683369     -1.90394833     -1.27997216
O      -1.09304032     -1.85158144     -3.42759642
H       1.67224278     -0.17455589     -0.28901744
H      -0.13043523      0.05307871     -0.11615731
H       0.56180348     -1.55025449      0.10781188
H       0.63957473     -0.08968727     -2.55371598
H       1.26245192     -1.66952755     -2.19610187
H      -0.33732696     -1.59394570     -3.97663759
11
Frame 175  Energy = -268.3084591655 Hartree
C       0.70290942     -0.62445818     -0.43671468
C       0.49188010     -0.94769786     -1.89111073
C      -0.89947379     -1.57963391     -2.14970143
O      -1.67728240     -1.90317877     -1.28060162
O      -1.09330339     -1.85216101     -3.43028414
H       1.67715218     -0.17478428     -0.29075717
H      -0.13111212      0.03819718     -0.10543748
H       0.55701619     -1.54795360      0.12378940
H       0.63359568     -0.09355388     -2.54553084
H       1.25508940     -1.66999750     -2.20996094
H      -0.33768569     -1.59296291     -3.97892130
11
Frame 180  Energy = -268.3085112479 Hartree
C       0.70416533     -0.62088459     -0.43476829
C       0.49299603     -0.95141583     -1.88890212
C      -0.89776898     -1.58422220     -2.14910351
O      -1.67768132     -1.90244464     -1.28137741
O      -1.09381850     -1.85280358     -3.43314795
H       1.68250959     -0.17458922     -0.29190428
H      -0.13010063      0.02304986     -0.09479131
H       0.55326623     -1.54534185      0.14049786
H       0.62710941     -0.09603500     -2.53751981
H       1.24789765     -1.67090691     -2.22404672
H      -0.33738724     -1.59180063     -3.98126225
11
Frame 185  Energy = -268.3083148792 Hartree
C       0.70517449     -0.61738428     -0.43282113
C       0.49396343     -0.95531460     -1.88668990
C      -0.89581677     -1.58877293     -2.14820200
O      -1.67804368     -1.90172283     -1.28230496
O      -1.09450663     -1.85358784     -3.43617705
H       1.68816068     -0.17419964     -0.29224644
H      -0.12775412      0.00823048     -0.08437411
H       0.55066294     -1.54207236      0.15751945
H       0.62053038     -0.09703109     -2.52995096
H       1.24064322     -1.67227122     -2.23810266
H      -0.33691404     -1.59055239     -3.98330704
11
Frame 190  Energy = -268.3084794944 Hartree
C       0.70602869     -0.61397648     -0.43080804
C       0.49467871     -0.95933670     -1.88447507
C      -0.89361525     -1.59327680     -2.14713938
O      -1.67847979     -1.90092555     -1.28334310
O      -1.09543132     -1.85443676     -3.43939566
H       1.69394781     -0.17364644     -0.29159038
H      -0.12425114     -0.00545373     -0.07418468
H       0.54932710     -1.53771840      0.17403891
H       0.61370095     -0.09643074     -2.52302456
H       1.23384421     -1.67421458     -2.25200059
H      -0.33661543     -1.58963058     -3.98491814
11
Frame 195  Energy = -268.3083433215 Hartree
C       0.70681564     -0.61075128     -0.42862876
C       0.49512919     -0.96345077     -1.88214318
C      -0.89106692     -1.59768816     -2.14590183
O      -1.67901053     -1.90004640     -1.28447728
O      -1.09654816     -1.85524561     -3.44271184
H       1.69973873     -0.17287954     -0.28977485
H      -0.12014557     -0.01710740     -0.06418791
H       0.54947120     -1.53252167      0.18983823
H       0.60647323     -0.09452554     -2.51684905
H       1.22794026     -1.67634154     -2.26543028
H      -0.33643114     -1.58834375     -3.98609793
11
Frame 200  Energy = -268.3084047240 Hartree
C       0.70759730     -0.60778319     -0.42627449
C       0.49530297     -0.96764410     -1.87983235
C      -0.88807929     -1.60200455     -2.14451492
O      -1.67957318     -1.89917450     -1.28566112
O      -1.09777994     -1.85602566     -3.44605968
H       1.70505521     -0.17178104     -0.28721868
H      -0.11616587     -0.02621848     -0.05446879
H       0.55148617     -1.52620618      0.20462058
H       0.59878799     -0.09137705     -2.51123289
H       1.22264838     -1.67887858     -2.27883155
H      -0.33638311     -1.58712740     -3.98685587
11
Frame 205  Energy = -268.3085661665 Hartree
C       0.70834934     -0.60520678     -0.42379974
C       0.49530235     -0.97186709     -1.87754525
C      -0.88477573     -1.60623395     -2.14308221
O      -1.68009674     -1.89835315     -1.28687889
O      -1.09910441     -1.85685968     -3.44942570
H       1.70927513     -0.17070844     -0.28438090
H      -0.11258478     -0.03273961     -0.04471770
H       0.55559386     -1.51846688      0.21833368
H       0.59094097     -0.08733486     -2.50630158
H       1.21797128     -1.68188900     -2.29178260
H      -0.33636360     -1.58577683     -3.98750592
11
Frame 210  Energy = -268.3085318238 Hartree
C       0.70906439     -0.60307578     -0.42124815
C       0.49504949     -0.97605288     -1.87534080
C      -0.88129957     -1.61038271     -2.14158303
O      -1.68060531     -1.89756734     -1.28809516
O      -1.10062464     -1.85774100     -3.45276649
H       1.71236332     -0.16968247     -0.28097389
H      -0.10997747     -0.03678486     -0.03492823
H       0.56191692     -1.50941788      0.23059587
H       0.58285954     -0.08254442     -2.50197555
H       1.21357479     -1.68495778     -2.30372818
H      -0.33635876     -1.58423324     -3.98745166
11
Frame 215  Energy = -268.3084772902 Hartree
C       0.70981609     -0.60144819     -0.41859310
C       0.49456242     -0.98022234     -1.87311392
C      -0.87761597     -1.61445527     -2.14008520
O      -1.68113758     -1.89671903     -1.28937917
O      -1.10230928     -1.85879863     -3.45611388
H       1.71412620     -0.16880666     -0.27686652
H      -0.10837325     -0.03750127     -0.02523740
H       0.56992148     -1.49902244      0.24093865
H       0.57440445     -0.07697307     -2.49785553
H       1.20960549     -1.68825371     -2.31491197
H      -0.33608571     -1.58262294     -3.98696336
11
Frame 220  Energy = -268.3086184887 Hartree
C       0.71066930     -0.60025170     -0.41586707
C       0.49386428     -0.98442659     -1.87098193
C      -0.87368996     -1.61845899     -2.13858837
O      -1.68167488     -1.89590940     -1.29071157
O      -1.10400647     -1.85997208     -3.45941215
H       1.71456885     -0.16783268     -0.27181889
H      -0.10759265     -0.03475515     -0.01604867
H       0.57953861     -1.48797761      0.24952917
H       0.56567551     -0.07136728     -2.49360359
H       1.20631494     -1.69141523     -2.32474170
H      -0.33560622     -1.58097150     -3.98626397
11
Frame 225  Energy = -268.3088005220 Hartree
C       0.71157196     -0.59944910     -0.41307475
C       0.49297171     -0.98863280     -1.86888506
C      -0.86961076     -1.62233918     -2.13720815
O      -1.68213923     -1.89504762     -1.29210312
O      -1.10571733     -1.86113374     -3.46262130
H       1.71379490     -0.16694386     -0.26632706
H      -0.10750992     -0.02922425     -0.00744110
H       0.59078953     -1.47671835      0.25627982
H       0.55662768     -0.06635289     -2.48920527
H       1.20366641     -1.69395871     -2.33326765
H      -0.33507841     -1.57936021     -3.98533129
11
Frame 230  Energy = -268.3088298140 Hartree
C       0.71252597     -0.59893079     -0.41007445
C       0.49198703     -0.99271047     -1.86693936
C      -0.86549089     -1.62602760     -2.13591548
O      -1.68258039     -1.89413049     -1.29346207
O      -1.10743818     -1.86227477     -3.46572933
H       1.71197474     -0.16609145     -0.26037512
H      -0.10799714     -0.02105230      0.00005899
H       0.60344294     -1.46546276      0.26179875
H       0.54751038     -0.06239429     -2.48462341
H       1.20177511     -1.69586417     -2.34034288
H      -0.33457454     -1.57763616     -3.98448604
11
Frame 235  Energy = -268.3089585791 Hartree
C       0.71350857     -0.59870586     -0.40694680
C       0.49091825     -0.99666217     -1.86502806
C      -0.86131697     -1.62957866     -2.13475257
O      -1.68289863     -1.89320939     -1.29488856
O      -1.10920061     -1.86344633     -3.46879057
H       1.70931601     -0.16448084     -0.25427134
H      -0.10832862     -0.01050832      0.00642464
H       0.61737144     -1.45473886      0.26706825
H       0.53892523     -0.05979989     -2.47976822
H       1.20076092     -1.69742370     -2.34577172
H      -0.33426761     -1.57584406     -3.98372129
11
Frame 240  Energy = -268.3087876525 Hartree
C       0.71448412     -0.59875677     -0.40376668
C       0.48975092     -1.00044618     -1.86314392
C      -0.85721748     -1.63304496     -2.13366880
O      -1.68315188     -1.89225212     -1.29630043
O      -1.11095128     -1.86464337     -3.47172944
H       1.70605639     -0.16231493     -0.24814458
H      -0.10782290      0.00167856      0.01154162
H       0.63220618     -1.44523432      0.27207480
H       0.53046434     -0.05863858     -2.47436710
H       1.20083223     -1.69797453     -2.35006359
H      -0.33401755     -1.57426522     -3.98289349
11
Frame 245  Energy = -268.3085489679 Hartree
C       0.71544874     -0.59904517     -0.40053523
C       0.48865943     -1.00421297     -1.86145652
C      -0.85316020     -1.63651399     -2.13271738
O      -1.68336242     -1.89131941     -1.29765703
O      -1.11270866     -1.86583411     -3.47453204
H       1.70194015     -0.15937059     -0.24183726
H      -0.10622469      0.01513306      0.01504996
H       0.64790437     -1.43700662      0.27677707
H       0.52171978     -0.05894614     -2.46829748
H       1.20190831     -1.69805942     -2.35254674
H      -0.33428313     -1.57281889     -3.98193842
11
Frame 250  Energy = -268.3088260954 Hartree
C       0.71639641     -0.59958668     -0.39736335
C       0.48749993     -1.00781492     -1.85992539
C      -0.84923095     -1.63997787     -2.13183972
O      -1.68353689     -1.89035469     -1.29904873
O      -1.11448450     -1.86696477     -3.47716909
H       1.69755039     -0.15541310     -0.23576282
H      -0.10338681      0.02937906      0.01705352
H       0.66387345     -1.43066574      0.28149809
H       0.51311024     -0.06097605     -2.46135978
H       1.20349511     -1.69701412     -2.35297167
H      -0.33486712     -1.57140848     -3.98102231
11
Frame 255  Energy = -268.3087785169 Hartree
C       0.71727706     -0.60021025     -0.39414119
C       0.48625181     -1.01129077     -1.85848573
C      -0.84558732     -1.64348774     -2.13108685
O      -1.68372720     -1.88933526     -1.30051501
O      -1.11627213     -1.86801364     -3.47958413
H       1.69315459     -0.15054664     -0.23004132
H      -0.09870888      0.04381972      0.01699642
H       0.67978655     -1.42692082      0.28640743
H       0.50487482     -0.06438239     -2.45428548
H       1.20574537     -1.69491002     -2.35192622
H      -0.33551868     -1.57007378     -3.98000675
11
Frame 260  Energy = -268.3088074045 Hartree
C       0.71797657     -0.60086430     -0.39082149
C       0.48498905     -1.01457615     -1.85714534
C      -0.84223199     -1.64708840     -2.13051977
O      -1.68384424     -1.88831552     -1.30215468
O      -1.11804654     -1.86901549     -3.48178676
H       1.68893987     -0.14475414     -0.22484953
H      -0.09260511      0.05802747      0.01483908
H       0.69599614     -1.42589026      0.29168291
H       0.49708254     -0.06857246     -2.44687579
H       1.20861236     -1.69202103     -2.34928964
H      -0.33651098     -1.56909852     -3.97891233
11
Frame 265  Energy = -268.3086023879 Hartree
C       0.71847074     -0.60149484     -0.38737265
C       0.48370606     -1.01766231     -1.85583844
C      -0.83908873     -1.65069875     -2.13006267
O      -1.68383107     -1.88728824     -1.30389834
O      -1.11974074     -1.87001931     -3.48381681
H       1.68528237     -0.13783770     -0.22018816
H      -0.08478398      0.07168395      0.01080508
H       0.71235103     -1.42775655      0.29754290
H       0.48983233     -0.07393177     -2.43953739
H       1.21223045     -1.68828368     -2.34515015
H      -0.33792302     -1.56833941     -3.97805938
11
Frame 270  Energy = -268.3087064393 Hartree
C       0.71883150     -0.60214256     -0.38393831
C       0.48244757     -1.02056589     -1.85450035
C      -0.83617419     -1.65423512     -2.12974988
O      -1.68378052     -1.88626165     -1.30564211
O      -1.12143963     -1.87095928     -3.48564083
H       1.68223723     -0.13015384     -0.21606313
H      -0.07564500      0.08448065      0.00477402
H       0.72833277     -1.43174053      0.30373632
H       0.48322794     -0.07990457     -2.43271110
H       1.21676017     -1.68376265     -2.33981631
H      -0.33975935     -1.56760578     -3.97753188
11
Frame 275  Energy = -268.3087493930 Hartree
C       0.71905731     -0.60278678     -0.38056790
C       0.48119257     -1.02332338     -1.85311086
C      -0.83359023     -1.65787380     -2.12968897
O      -1.68369846     -1.88530442     -1.30755323
O      -1.12309569     -1.87189819     -3.48728355
H       1.67975255     -0.12177365     -0.21293971
H      -0.06545991      0.09597777     -0.00289459
H       0.74359844     -1.43726866      0.31002171
H       0.47735978     -0.08641275     -2.42621482
H       1.22235988     -1.67884751     -2.33316326
H      -0.34183506     -1.56693483     -3.97763358
11
Frame 280  Energy = -268.3084688204 Hartree
C       0.71906716     -0.60353719     -0.37714063
C       0.47990643     -1.02591023     -1.85180859
C      -0.83132054     -1.66159385     -2.12972460
O      -1.68364538     -1.88439741     -1.30952764
O      -1.12464651     -1.87293506     -3.48875616
H       1.67774801     -0.11276477     -0.21093380
H      -0.05444778      0.10624937     -0.01164885
H       0.75802758     -1.44397436      0.31611046
H       0.47188987     -0.09284704     -2.42024942
H       1.22922082     -1.67358084     -2.32515667
H      -0.34407630     -1.56633265     -3.97824701
11
Frame 285  Energy = -268.3084123390 Hartree
C       0.71896645     -0.60437551     -0.37367959
C       0.47872082     -1.02832555     -1.85047456
C      -0.82943737     -1.66541324     -2.12990652
O      -1.68353378     -1.88358615     -1.31163010
O      -1.12609951     -1.87403481     -3.48996885
H       1.67627848     -0.10333261     -0.21026673
H      -0.04289504      0.11547368     -0.02134382
H       0.77166725     -1.45163629      0.32205384
H       0.46673303     -0.09896035     -2.41513761
H       1.23685476     -1.66772590     -2.31597020
H      -0.34657423     -1.56572953     -3.97988465
11
Frame 290  Energy = -268.3081345094 Hartree
C       0.71884422     -0.60524943     -0.37019677
C       0.47771362     -1.03056900     -1.84906341
C      -0.82802505     -1.66938768     -2.13031886
O      -1.68333123     -1.88287327     -1.31378833
O      -1.12747452     -1.87518565     -3.49087150
H       1.67487961     -0.09380223     -0.21077538
H      -0.03135872      0.12364877     -0.03164615
H       0.78406492     -1.45962576      0.32773232
H       0.46169788     -0.10429572     -2.41100308
H       1.24517335     -1.66153791     -2.30580394
H      -0.34958166     -1.56551289     -3.98280577
11
Frame 295  Energy = -268.3081069724 Hartree
C       0.71870224     -0.60618845     -0.36681279
C       0.47684782     -1.03265813     -1.84747322
C      -0.82693033     -1.67342052     -2.13090276
O      -1.68305750     -1.88222372     -1.31601698
O      -1.12869724     -1.87639342     -3.49151002
H       1.67397718     -0.08411451     -0.21274247
H      -0.02043856      0.13098440     -0.04233682
H       0.79558650     -1.46763863      0.33254287
H       0.45700706     -0.10862035     -2.40779096
H       1.25457695     -1.65544718     -2.29514554
H      -0.35241638     -1.56558325     -3.98648638
11
Frame 300  Energy = -268.3080491639 Hartree
C       0.71866185     -0.60727262     -0.36348075
C       0.47609078     -1.03460476     -1.84571799
C      -0.82620878     -1.67742202     -2.13167633
O      -1.68279505     -1.88161417     -1.31820783
O      -1.12990291     -1.87762970     -3.49193398
H       1.67352563     -0.07466845     -0.21632480
H      -0.01051557      0.13784275     -0.05319089
H       0.80577956     -1.47456100      0.33625362
H       0.45297387     -0.11146530     -2.40561811
H       1.26521868     -1.64940177     -2.28409732
H      -0.35525737     -1.56579676     -3.99075492
