11
Frame 5  Energy = -268.3134153586 Hartree
C       0.70824041     -0.59831450     -0.39421218
C       0.44329154     -0.82803133     -1.92006690
C      -0.86342603     -1.55832264     -2.16978242
O      -1.59212839     -1.87120714     -1.27005954
O      -1.26705253     -1.82923657     -3.45201325
H       1.76536924     -0.28820736     -0.28178214
H       0.06182969      0.19686571     -0.01853776
H       0.58206597     -1.59339735      0.06257201
H       0.40648609      0.19045874     -2.37811784
H       1.24333571     -1.36545342     -2.48086991
H      -0.67835384     -1.49443864     -4.14811287
11
Frame 10  Energy = -268.3131837089 Hartree
C       0.70763952     -0.59809291     -0.39437534
C       0.44584324     -0.82917576     -1.91793234
C      -0.86118432     -1.56126199     -2.17003871
O      -1.59254633     -1.86897927     -1.26901592
O      -1.26836609     -1.83057569     -3.45562477
H       1.76437018     -0.29763940     -0.28957084
H       0.05550567      0.19669778     -0.00509480
H       0.57294158     -1.58021488      0.07093220
H       0.40381800      0.18599933     -2.37021531
H       1.24492376     -1.36071257     -2.48366132
H      -0.67682360     -1.49037412     -4.14621452
11
Frame 15  Energy = -268.3134950248 Hartree
C       0.70721680     -0.59802067     -0.39473387
C       0.44840907     -0.83007838     -1.91590772
C      -0.85893662     -1.56408821     -2.17033725
O      -1.59297449     -1.86682257     -1.26786723
O      -1.26980077     -1.83185949     -3.45913175
H       1.76265257     -0.30680426     -0.29723244
H       0.04923284      0.19552078      0.00830232
H       0.56365411     -1.56604769      0.08034686
H       0.40099926      0.18047724     -2.36285316
H       1.24603802     -1.35548801     -2.48489781
H      -0.67468401     -1.48633312     -4.14370850
11
Frame 20  Energy = -268.3134041429 Hartree
C       0.70692959     -0.59808476     -0.39528893
C       0.45104382     -0.83073517     -1.91393239
C      -0.85668708     -1.56676172     -2.17072612
O      -1.59347626     -1.86478680     -1.26662470
O      -1.27127448     -1.83319098     -3.46256748
H       1.76048169     -0.31551657     -0.30444160
H       0.04353523      0.19292064      0.02110164
H       0.55444338     -1.55163057      0.09134783
H       0.39801556      0.17421291     -2.35627189
H       1.24677268     -1.35010971     -2.48424415
H      -0.67178064     -1.48209758     -4.14067743
11
Frame 25  Energy = -268.3137459313 Hartree
C       0.70668344     -0.59816395     -0.39607998
C       0.45370248     -0.83132347     -1.91193582
C      -0.85459367     -1.56931585     -2.17115076
O      -1.59399443     -1.86285854     -1.26537502
O      -1.27275902     -1.83443882     -3.46592854
H       1.75807645     -0.32390978     -0.31063401
H       0.03853505      0.18891328      0.03290296
H       0.54514366     -1.53746767      0.10381393
H       0.39483875      0.16785219     -2.35114240
H       1.24742179     -1.34478265     -2.48209069
H      -0.66785726     -1.47726553     -4.13722574
11
Frame 30  Energy = -268.3137789694 Hartree
C       0.70639432     -0.59817779     -0.39717159
C       0.45625401     -0.83189032     -1.91011558
C      -0.85270135     -1.57168777     -2.17164723
O      -1.59450122     -1.86101050     -1.26410546
O      -1.27420388     -1.83556768     -3.46912940
H       1.75581746     -0.33186655     -0.31580605
H       0.03469521      0.18339144      0.04328703
H       0.53592516     -1.52426720      0.11799999
H       0.39129227      0.16215508     -2.34722719
H       1.24846310     -1.33928883     -2.47899641
H      -0.66335697     -1.47220045     -4.13344567
11
Frame 35  Energy = -268.3136184654 Hartree
C       0.70599872     -0.59823411     -0.39846232
C       0.45861203     -0.83246231     -1.90833862
C      -0.85100782     -1.57397032     -2.17224913
O      -1.59497294     -1.85923487     -1.26285625
O      -1.27560443     -1.83666568     -3.47217072
H       1.75404805     -0.33918235     -0.32001841
H       0.03232451      0.17656543      0.05194432
H       0.52670866     -1.51195944      0.13361774
H       0.38711352      0.15710830     -2.34462735
H       1.24988209     -1.33363487     -2.47475326
H      -0.65811545     -1.46697821     -4.12907428
11
Frame 40  Energy = -268.3135639331 Hartree
C       0.70546803     -0.59827680     -0.39995408
C       0.46071512     -0.83295228     -1.90657012
C      -0.84951130     -1.57622574     -2.17284557
O      -1.59537373     -1.85748335     -1.26170164
O      -1.27691441     -1.83788639     -3.47504080
H       1.75292505     -0.34585438     -0.32313574
H       0.03136218      0.16835311      0.05911383
H       0.51760637     -1.50094449      0.15015920
H       0.38231003      0.15276850     -2.34315506
H       1.25210768     -1.32818781     -2.46958496
H      -0.65203956     -1.46143915     -4.12415735
11
Frame 45  Energy = -268.3134036497 Hartree
C       0.70481786     -0.59823631     -0.40162104
C       0.46258336     -0.83331575     -1.90485768
C      -0.84814061     -1.57837292     -2.17332526
O      -1.59572707     -1.85573506     -1.26072774
O      -1.27805961     -1.83909957     -3.47770651
H       1.75260912     -0.35148370     -0.32508501
H       0.03150605      0.15901792      0.06459819
H       0.50884566     -1.49143502      0.16733224
H       0.37705441      0.14948054     -2.34324784
H       1.25515387     -1.32311670     -2.46372703
H      -0.64525284     -1.45573762     -4.11845029
11
Frame 50  Energy = -268.3133297468 Hartree
C       0.70405898     -0.59829339     -0.40345492
C       0.46425224     -0.83369183     -1.90319186
C      -0.84704996     -1.58035716     -2.17375163
O      -1.59604838     -1.85401963     -1.25983283
O      -1.27903731     -1.84023608     -3.48011305
H       1.75284391     -0.35597460     -0.32577527
H       0.03329843      0.14899919      0.06835686
H       0.50063762     -1.48305668      0.18503810
H       0.37115123      0.14742433     -2.34480942
H       1.25951202     -1.31845418     -2.45728208
H      -0.63822308     -1.45003361     -4.11204338
11
Frame 55  Energy = -268.3132640506 Hartree
C       0.70316824     -0.59842034     -0.40536261
C       0.46552531     -0.83411044     -1.90155447
C      -0.84620083     -1.58225228     -2.17408468
O      -1.59612614     -1.85228921     -1.25910273
O      -1.27981844     -1.84134964     -3.48235863
H       1.75416429     -0.35906220     -0.32538085
H       0.03652809      0.13885200      0.07027069
H       0.49298712     -1.47573590      0.20271355
H       0.36457620      0.14680994     -2.34758281
H       1.26519556     -1.31448869     -2.45035478
H      -0.63126829     -1.44482895     -4.10501769
11
Frame 60  Energy = -268.3133193879 Hartree
C       0.70222994     -0.59868398     -0.40736351
C       0.46658258     -0.83447955     -1.90000081
C      -0.84540547     -1.58407064     -2.17438810
O      -1.59607783     -1.85058281     -1.25853034
O      -1.28033276     -1.84242581     -3.48429743
H       1.75652889     -0.36086892     -0.32355957
H       0.04056882      0.12928367      0.07040087
H       0.48598361     -1.46973520      0.22019331
H       0.35793688      0.14748030     -2.35147623
H       1.27253655     -1.31157885     -2.44308469
H      -0.62486328     -1.43977663     -4.09788611
11
Frame 65  Energy = -268.3133143375 Hartree
C       0.70131718     -0.59909439     -0.40937109
C       0.46741439     -0.83487633     -1.89860795
C      -0.84475391     -1.58580071     -2.17472939
O      -1.59592716     -1.84891842     -1.25804499
O      -1.28057343     -1.84339809     -3.48598657
H       1.75944022     -0.36168220     -0.31980380
H       0.04499919      0.12076430      0.06888180
H       0.47986868     -1.46463311      0.23647476
H       0.35128099      0.14917829     -2.35661015
H       1.28109923     -1.30938831     -2.43588023
H      -0.61916200     -1.43538847     -4.09060418
11
Frame 70  Energy = -268.3131735017 Hartree
C       0.70048897     -0.59979175     -0.41131747
C       0.46790606     -0.83533943     -1.89739255
C      -0.84426560     -1.58749563     -2.17501111
O      -1.59565521     -1.84729240     -1.25774764
O      -1.28057736     -1.84432328     -3.48749499
H       1.76238364     -0.36161457     -0.31488244
H       0.04948982      0.11395779      0.06593186
H       0.47487138     -1.46002156      0.25150526
H       0.34464918      0.15126867     -2.36255219
H       1.29046007     -1.30772231     -2.42819147
H      -0.61396957     -1.43213540     -4.08283126
11
Frame 75  Energy = -268.3130081436 Hartree
C       0.69972454     -0.60075462     -0.41315348
C       0.46807560     -0.83581888     -1.89631557
C      -0.84398849     -1.58919323     -2.17534383
O      -1.59534602     -1.84577578     -1.25764171
O      -1.28030208     -1.84524329     -3.48883021
H       1.76513333     -0.36070090     -0.30878121
H       0.05394401      0.10930684      0.06181719
H       0.47099259     -1.45592211      0.26483946
H       0.33828270      0.15342604     -2.36869720
H       1.30064414     -1.30703607     -2.42025913
H      -0.60945580     -1.42962611     -4.07476818
11
Frame 80  Energy = -268.3129536855 Hartree
C       0.69902583     -0.60199678     -0.41493659
C       0.46795156     -0.83624930     -1.89545294
C      -0.84396241     -1.59086538     -2.17569000
O      -1.59506198     -1.84438339     -1.25765211
O      -1.27987963     -1.84617602     -3.49001099
H       1.76739951     -0.35889221     -0.30165449
H       0.05769894      0.10764745      0.05666942
H       0.46841824     -1.45219796      0.27609395
H       0.33211189      0.15528887     -2.37508859
H       1.31143490     -1.30710064     -2.41173471
H      -0.60548165     -1.42754219     -4.06662279
11
Frame 85  Energy = -268.3129369416 Hartree
C       0.69835279     -0.60349524     -0.41657131
C       0.46747072     -0.83663962     -1.89469252
C      -0.84414326     -1.59250384     -2.17592560
O      -1.59475483     -1.84301695     -1.25782578
O      -1.27927028     -1.84701371     -3.49102506
H       1.76902545     -0.35662758     -0.29348467
H       0.06049552      0.10903342      0.05083255
H       0.46746477     -1.44868357      0.28471513
H       0.32664358      0.15628754     -2.38133329
H       1.32204867     -1.30715045     -2.40261331
H      -0.60192026     -1.42603260     -4.05888436
11
Frame 90  Energy = -268.3130129865 Hartree
C       0.69789730     -0.60525455     -0.41797984
C       0.46682642     -0.83703678     -1.89416197
C      -0.84455243     -1.59416000     -2.17602014
O      -1.59450150     -1.84171989     -1.25818819
O      -1.27840727     -1.84773686     -3.49179200
H       1.76969247     -0.35403256     -0.28462306
H       0.06191980      0.11369680      0.04448872
H       0.46777735     -1.44516491      0.29053378
H       0.32181652      0.15647534     -2.38757850
H       1.33231793     -1.30717048     -2.39316563
H      -0.59852956     -1.42494541     -4.05176301
11
Frame 95  Energy = -268.3130601892 Hartree
C       0.69773651     -0.60738731     -0.41918484
C       0.46592917     -0.83737171     -1.89399615
C      -0.84517087     -1.59567017     -2.17613986
O      -1.59427716     -1.84048804     -1.25863099
O      -1.27733762     -1.84835185     -3.49227083
H       1.76909794     -0.35105026     -0.27523172
H       0.06177019      0.12140608      0.03780992
H       0.46922947     -1.44158399      0.29345802
H       0.31767163      0.15608270     -2.39383182
H       1.34193701     -1.30738674     -2.38355857
H      -0.59485332     -1.42448283     -4.04554014
11
Frame 100  Energy = -268.3130659571 Hartree
C       0.69779513     -0.60980731     -0.42023460
C       0.46491092     -0.83770071     -1.89412729
C      -0.84600953     -1.59704303     -2.17614174
O      -1.59398234     -1.83933640     -1.25915709
O      -1.27611279     -1.84887874     -3.49242905
H       1.76665118     -0.34765064     -0.26558197
H       0.06052209      0.13162585      0.03049289
H       0.47159629     -1.43829109      0.29370644
H       0.31428360      0.15460034     -2.39952584
H       1.35060684     -1.30792996     -2.37368112
H      -0.59133197     -1.42458002     -4.03996638
11
Frame 105  Energy = -268.3132191723 Hartree
C       0.69803251     -0.61226333     -0.42101183
C       0.46384958     -0.83808358     -1.89455145
C      -0.84703677     -1.59824046     -2.17615715
O      -1.59359202     -1.83825667     -1.25973735
O      -1.27464984     -1.84933003     -3.49234998
H       1.76252971     -0.34413493     -0.25557302
H       0.05854236      0.14405621      0.02226210
H       0.47465340     -1.43543692      0.29120998
H       0.31160186      0.15160344     -2.40449583
H       1.35776142     -1.30857340     -2.36369058
H      -0.58797342     -1.42473015     -4.03551523
11
Frame 110  Energy = -268.3132162561 Hartree
C       0.69848421     -0.61460763     -0.42150359
C       0.46275185     -0.83850446     -1.89529232
C      -0.84819758     -1.59920467     -2.17614332
O      -1.59307262     -1.83735765     -1.26040094
O      -1.27295001     -1.84971111     -3.49206830
H       1.75731943     -0.34007120     -0.24511453
H       0.05607792      0.15775520      0.01305737
H       0.47860368     -1.43320601      0.28613313
H       0.30972853      0.14759071     -2.40876275
H       1.36335971     -1.30911697     -2.35369139
H      -0.58473513     -1.42508124     -4.03247674
11
Frame 115  Energy = -268.3130751820 Hartree
C       0.69904346     -0.61682979     -0.42175527
C       0.46164212     -0.83895326     -1.89633252
C      -0.84952389     -1.60004879     -2.17614826
O      -1.59250381     -1.83656806     -1.26116583
O      -1.27099554     -1.85007473     -3.49161374
H       1.75054962     -0.33582503     -0.23459321
H       0.05390170      0.17197450      0.00262443
H       0.48302778     -1.43188594      0.27894980
H       0.30875194      0.14250234     -2.41223487
H       1.36756735     -1.30972258     -2.34356961
H      -0.58126678     -1.42588865     -4.03074564
11
Frame 120  Energy = -268.3131707460 Hartree
C       0.69956235     -0.61896654     -0.42171200
C       0.46053312     -0.83949646     -1.89757099
C      -0.85098202     -1.60086522     -2.17620432
O      -1.59200176     -1.83587349     -1.26204606
O      -1.26878746     -1.85035102     -3.49089559
H       1.74299478     -0.33126649     -0.22455049
H       0.05261297      0.18609044     -0.00876671
H       0.48796164     -1.43170593      0.26964984
H       0.30893241      0.13641319     -2.41467142
H       1.37023971     -1.31037190     -2.33332514
H      -0.57788136     -1.42696790     -4.03065041
11
Frame 125  Energy = -268.3131660156 Hartree
C       0.70005687     -0.62084228     -0.42145978
C       0.45941314     -0.84020150     -1.89898297
C      -0.85261697     -1.60168959     -2.17628472
O      -1.59156308     -1.83535459     -1.26299974
O      -1.26650016     -1.85053136     -3.48981320
H       1.73534400     -0.32668479     -0.21517319
H       0.05204670      0.19970195     -0.02142540
H       0.49293559     -1.43340435      0.25887335
H       0.31010171      0.12987378     -2.41628799
H       1.37084707     -1.31093685     -2.32317075
H      -0.57465747     -1.42837647     -4.03155518
11
Frame 130  Energy = -268.3131859993 Hartree
C       0.70053880     -0.62244590     -0.42109115
C       0.45826933     -0.84102193     -1.90056182
C      -0.85434303     -1.60241097     -2.17649517
O      -1.59113920     -1.83498901     -1.26390390
O      -1.26403712     -1.85058686     -3.48844145
H       1.72773831     -0.32195327     -0.20640366
H       0.05255189      0.21170391     -0.03512430
H       0.49727031     -1.43730288      0.24734259
H       0.31211394      0.12304717     -2.41729788
H       1.36982567     -1.31177294     -2.31332302
H      -0.57140568     -1.42995662     -4.03346473
11
Frame 135  Energy = -268.3132730157 Hartree
C       0.70089075     -0.62364430     -0.42051871
C       0.45716622     -0.84197252     -1.90229079
C      -0.85603011     -1.60300522     -2.17690529
O      -1.59074794     -1.83469976     -1.26480536
O      -1.26144278     -1.85058321     -3.48681469
H       1.72034637     -0.31709370     -0.19820105
H       0.05434661      0.22201078     -0.04971459
H       0.50138748     -1.44340358      0.23583813
H       0.31520761      0.11652807     -2.41815615
H       1.36750379     -1.31300306     -2.30439903
H      -0.56850107     -1.43194763     -4.03607621
11
Frame 140  Energy = -268.3132339591 Hartree
C       0.70118851     -0.62444273     -0.41972693
C       0.45602849     -0.84291397     -1.90417341
C      -0.85768054     -1.60341054     -2.17736243
O      -1.59055523     -1.83453125     -1.26559999
O      -1.25877927     -1.85045981     -3.48496604
H       1.71363850     -0.31196886     -0.19046741
H       0.05773511      0.23026565     -0.06494727
H       0.50500785     -1.45199752      0.22474224
H       0.31919729      0.11036724     -2.41893728
H       1.36406138     -1.31450677     -2.29685643
H      -0.56579959     -1.43433274     -4.03952041
11
Frame 145  Energy = -268.3132590338 Hartree
C       0.70137442     -0.62472687     -0.41881443
C       0.45491082     -0.84413289     -1.90609815
C      -0.85917527     -1.60358907     -2.17791630
O      -1.59051223     -1.83462526     -1.26633395
O      -1.25594070     -1.85022516     -3.48294155
H       1.70810037     -0.30652683     -0.18358569
H       0.06199449      0.23657672     -0.08069161
H       0.50760085     -1.46299172      0.21401768
H       0.32389212      0.10486041     -2.42012257
H       1.35959408     -1.31698130     -2.29081230
H      -0.56326717     -1.43699870     -4.04351347
11
Frame 150  Energy = -268.3134238399 Hartree
C       0.70137652     -0.62458260     -0.41779871
C       0.45379281     -0.84559709     -1.90792901
C      -0.86052397     -1.60362500     -2.17859169
O      -1.59064927     -1.83490358     -1.26702690
O      -1.25293195     -1.84988954     -3.48076196
H       1.70411988     -0.30072331     -0.17809667
H       0.06703147      0.24064047     -0.09613900
H       0.50890930     -1.47603672      0.20396917
H       0.32931089      0.10032098     -2.42201660
H       1.35465172     -1.32016338     -2.28639545
H      -0.56093324     -1.44004723     -4.04766951
11
Frame 155  Energy = -268.3133073445 Hartree
C       0.70120269     -0.62401768     -0.41664681
C       0.45270811     -0.84721042     -1.90963704
C      -0.86157400     -1.60345881     -2.17931114
O      -1.59094939     -1.83526821     -1.26767202
O      -1.24971198     -1.84950364     -3.47839765
H       1.70185701     -0.29476230     -0.17338795
H       0.07256090      0.24245019     -0.11151624
H       0.50924221     -1.49029352      0.19444937
H       0.33539054      0.09689819     -2.42455026
H       1.34938821     -1.32412529     -2.28369819
H      -0.55954590     -1.44380265     -4.05187346
11
Frame 160  Energy = -268.3132613044 Hartree
C       0.70085339     -0.62306046     -0.41551061
C       0.45170988     -0.84885489     -1.91133340
C      -0.86242904     -1.60317184     -2.18005182
O      -1.59136369     -1.83572031     -1.26817765
O      -1.24621098     -1.84910418     -3.47585899
H       1.70130419     -0.28909264     -0.16921232
H       0.07801136      0.24205879     -0.12631496
H       0.50876462     -1.50521038      0.18559018
H       0.34210498      0.09482253     -2.42765561
H       1.34420253     -1.32945903     -2.28294121
H      -0.55891746     -1.44852846     -4.05581036
11
Frame 165  Energy = -268.3132644028 Hartree
C       0.70033684     -0.62189164     -0.41438972
C       0.45076790     -0.85050542     -1.91294440
C      -0.86308439     -1.60270815     -2.18089614
O      -1.59197914     -1.83634137     -1.26857135
O      -1.24255282     -1.84873048     -3.47322934
H       1.70202146     -0.28370316     -0.16572406
H       0.08326314      0.23983577     -0.13993239
H       0.50728330     -1.52023968      0.17691439
H       0.34966596      0.09417293     -2.43130169
H       1.33942046     -1.33630859     -2.28385750
H      -0.55881119     -1.45418513     -4.05953179
11
Frame 170  Energy = -268.3133934031 Hartree
C       0.69972385     -0.62055122     -0.41335418
C       0.44990568     -0.85220888     -1.91438482
C      -0.86356868     -1.60198988     -2.18177218
O      -1.59269350     -1.83714311     -1.26884558
O      -1.23877764     -1.84842577     -3.47054183
H       1.70395508     -0.27824637     -0.16328641
H       0.08733358      0.23637019     -0.15214407
H       0.50523976     -1.53455061      0.16810821
H       0.35774011      0.09442823     -2.43538769
H       1.33521658     -1.34460396     -2.28623265
H      -0.55935495     -1.46028572     -4.06304323
11
Frame 175  Energy = -268.3134607573 Hartree
C       0.69901200     -0.61915018     -0.41244711
C       0.44903959     -0.85395006     -1.91569406
C      -0.86388962     -1.60104966     -2.18266800
O      -1.59352651     -1.83803436     -1.26896815
O      -1.23493451     -1.84807453     -3.46779582
H       1.70689449     -0.27348533     -0.16189950
H       0.08969946      0.23279438     -0.16282701
H       0.50291110     -1.54774251      0.15914646
H       0.36642001      0.09556270     -2.43998402
H       1.33155557     -1.35415199     -2.29032958
H      -0.56004494     -1.46670648     -4.06608246
11
Frame 180  Energy = -268.3133142247 Hartree
C       0.69825097     -0.61780497     -0.41159012
C       0.44822627     -0.85576236     -1.91687780
C      -0.86407504     -1.59990106     -2.18368385
O      -1.59448775     -1.83906431     -1.26896512
O      -1.23110796     -1.84776529     -3.46498132
H       1.71043791     -0.26950097     -0.16160335
H       0.09002396      0.22937436     -0.17170708
H       0.50042047     -1.55901805      0.14995985
H       0.37542575      0.09770457     -2.44515108
H       1.32822407     -1.36502947     -2.29601945
H      -0.56108634     -1.47386068     -4.06907432
11
Frame 185  Energy = -268.3131860888 Hartree
C       0.69755396     -0.61653146     -0.41081983
C       0.44753677     -0.85767554     -1.91801300
C      -0.86403439     -1.59851622     -2.18468152
O      -1.59560333     -1.84020430     -1.26886531
O      -1.22723331     -1.84739604     -3.46208827
H       1.71381523     -0.26634720     -0.16235222
H       0.08779899      0.22628912     -0.17823793
H       0.49755053     -1.56804242      0.14076798
H       0.38525812      0.09988667     -2.45063796
H       1.32526450     -1.37706007     -2.30334475
H      -0.56229100     -1.48136200     -4.07204505
11
Frame 190  Energy = -268.3133123487 Hartree
C       0.69690388     -0.61548691     -0.41010489
C       0.44700937     -0.85950389     -1.91917851
C      -0.86390589     -1.59685884     -2.18552110
O      -1.59690876     -1.84145693     -1.26872077
O      -1.22334363     -1.84699900     -3.45917668
H       1.71698360     -0.26430940     -0.16431074
H       0.08319862      0.22405114     -0.18228130
H       0.49416814     -1.57449479      0.13157900
H       0.39554417      0.10215601     -2.45630039
H       1.32249150     -1.38981550     -2.31246314
H      -0.56359029     -1.48884148     -4.07500927
11
Frame 195  Energy = -268.3133158421 Hartree
C       0.69633002     -0.61466010     -0.40960562
C       0.44656625     -0.86128115     -1.92042172
C      -0.86366679     -1.59491574     -2.18611554
O      -1.59830458     -1.84276603     -1.26861982
O      -1.21944810     -1.84664345     -3.45626522
H       1.71978270     -0.26327270     -0.16759447
H       0.07596498      0.22244806     -0.18375306
H       0.49065049     -1.57830368      0.12229503
H       0.40613584      0.10419783     -2.46173106
H       1.31900095     -1.40313637     -2.32258513
H      -0.56427773     -1.49598677     -4.07813652
11
Frame 200  Energy = -268.3132565916 Hartree
C       0.69586058     -0.61398434     -0.40930850
C       0.44638104     -0.86303011     -1.92158606
C      -0.86325870     -1.59287872     -2.18652660
O      -1.59982331     -1.84416976     -1.26857461
O      -1.21564907     -1.84635024     -3.45337640
H       1.72163389     -0.26311863     -0.17167010
H       0.06591497      0.22183635     -0.18261256
H       0.48743986     -1.57927932      0.11274275
H       0.41686455      0.10596736     -2.46687564
H       1.31442227     -1.41677001     -2.33370678
H      -0.56403218     -1.50247762     -4.08138880
11
Frame 205  Energy = -268.3131019617 Hartree
C       0.69542609     -0.61353740     -0.40924508
C       0.44651682     -0.86488364     -1.92269557
C      -0.86269325     -1.59057642     -2.18683248
O      -1.60144262     -1.84564553     -1.26857463
O      -1.21183728     -1.84604902     -3.45049869
H       1.72289777     -0.26407367     -0.17704506
H       0.05399023      0.22147622     -0.17927639
H       0.48394804     -1.57750772      0.10369166
H       0.42784911      0.10688088     -2.47128116
H       1.30874623     -1.43065404     -2.34520640
H      -0.56301195     -1.50842935     -4.08478380
11
Frame 210  Energy = -268.3133135496 Hartree
C       0.69510056     -0.61324196     -0.40943925
C       0.44686060     -0.86674876     -1.92372316
C      -0.86206684     -1.58800801     -2.18696858
O      -1.60311254     -1.84712175     -1.26858159
O      -1.20813023     -1.84581362     -3.44767456
H       1.72339713     -0.26601780     -0.18324604
H       0.04064146      0.22105786     -0.17349422
H       0.48019442     -1.57321812      0.09552199
H       0.43904966      0.10675897     -2.47514670
H       1.30162518     -1.44466577     -2.35675758
H      -0.56102915     -1.51406994     -4.08831231
11
Frame 215  Energy = -268.3131867552 Hartree
C       0.69483987     -0.61301452     -0.40986829
C       0.44744462     -0.86856444     -1.92477183
C      -0.86144190     -1.58515330     -2.18673854
O      -1.60483464     -1.84857776     -1.26869340
O      -1.20451858     -1.84560510     -3.44485762
H       1.72289035     -0.26879592     -0.19002168
H       0.02644656      0.22009630     -0.16556768
H       0.47616291     -1.56696170      0.08829453
H       0.45026153      0.10546422     -2.47856499
H       1.29298355     -1.45805225     -2.36799320
H      -0.55819624     -1.51936508     -4.09164549
11
Frame 220  Energy = -268.3132876742 Hartree
C       0.69447516     -0.61278102     -0.41057679
C       0.44837671     -0.87025577     -1.92584863
C      -0.86075436     -1.58213921     -2.18613017
O      -1.60660178     -1.85008408     -1.26892765
O      -1.20096613     -1.84541924     -3.44210179
H       1.72191549     -0.27240198     -0.19740278
H       0.01181220      0.21792793     -0.15599826
H       0.47185023     -1.55911868      0.08215452
H       0.46143702      0.10282210     -2.48103032
H       1.28297697     -1.47043364     -2.37849785
H      -0.55474505     -1.52450541     -4.09499043
11
Frame 225  Energy = -268.3132364247 Hartree
C       0.69407301     -0.61244873     -0.41160019
C       0.44964205     -0.87180355     -1.92691123
C      -0.86005081     -1.57893798     -2.18518508
O      -1.60838648     -1.85165798     -1.26926494
O      -1.19746684     -1.84524404     -3.43952964
H       1.72012436     -0.27686110     -0.20543060
H      -0.00252873      0.21406193     -0.14497569
H       0.46729084     -1.55071295      0.07722407
H       0.47196144      0.09872651     -2.48284035
H       1.27154457     -1.48197554     -2.38808882
H      -0.55064110     -1.52938879     -4.09811376
11
Frame 230  Energy = -268.3131378183 Hartree
C       0.69351031     -0.61208159     -0.41299247
C       0.45120205     -0.87316369     -1.92797533
C      -0.85926134     -1.57563722     -2.18384830
O      -1.61018960     -1.85327574     -1.26970948
O      -1.19407184     -1.84513834     -3.43714844
H       1.71788369     -0.28160654     -0.21422718
H      -0.01616791      0.20807590     -0.13302563
H       0.46260945     -1.54219086      0.07406202
H       0.48231246      0.09344306     -2.48428756
H       1.25883966     -1.49295540     -2.39677578
H      -0.54600051     -1.53422847     -4.10038148
11
Frame 235  Energy = -268.3130436228 Hartree
C       0.69274130     -0.61165525     -0.41465299
C       0.45299775     -0.87444644     -1.92917727
C      -0.85847740     -1.57234410     -2.18217715
O      -1.61192242     -1.85508778     -1.27025860
O      -1.19076080     -1.84509880     -3.43487243
H       1.71528540     -0.28663564     -0.22352550
H      -0.02860032      0.20012510     -0.12043564
H       0.45783267     -1.53400740      0.07323791
H       0.49258678      0.08708067     -2.48542337
H       1.24523113     -1.50313271     -2.40423117
H      -0.54121703     -1.53899042     -4.10161981
11
Frame 240  Energy = -268.3129834747 Hartree
C       0.69179679     -0.61113227     -0.41663113
C       0.45497259     -0.87567337     -1.93045413
C      -0.85772892     -1.56889210     -2.18021024
O      -1.61355812     -1.85691494     -1.27105073
O      -1.18749492     -1.84523735     -3.43284500
H       1.71286554     -0.29177649     -0.23269019
H      -0.03941947      0.19001656     -0.10717422
H       0.45284152     -1.52690059      0.07472893
H       0.50246151      0.07984760     -2.48649171
H       1.23106204     -1.51231732     -2.41064487
H      -0.53587672     -1.54349167     -4.10183041
11
Frame 245  Energy = -268.3129685881 Hartree
C       0.69069294     -0.61051689     -0.41892473
C       0.45709722     -0.87677859     -1.93179090
C      -0.85696537     -1.56535802     -2.17788563
O      -1.61508531     -1.85877456     -1.27194997
O      -1.18422368     -1.84546675     -3.43108098
H       1.71093448     -0.29704352     -0.24110410
H      -0.04847621      0.17782657     -0.09399218
H       0.44770307     -1.52122915      0.07839710
H       0.51200469      0.07198036     -2.48747983
H       1.21659917     -1.52075057     -2.41609265
H      -0.53011386     -1.54826236     -4.10072228
11
Frame 250  Energy = -268.3130500417 Hartree
C       0.68937758     -0.60979824     -0.42150350
C       0.45926930     -0.87779173     -1.93319030
C      -0.85639151     -1.56187566     -2.17508965
O      -1.61656700     -1.86065773     -1.27290869
O      -1.18103109     -1.84573840     -3.42952361
H       1.70930117     -0.30214639     -0.24863672
H      -0.05535273      0.16356655     -0.08122828
H       0.44250793     -1.51732821      0.08405790
H       0.52100280      0.06400409     -2.48884518
H       1.20222655     -1.52884673     -2.42062564
H      -0.52418021     -1.55319274     -4.09826632
11
Frame 255  Energy = -268.3127436207 Hartree
C       0.68779498     -0.60899355     -0.42449206
C       0.46142985     -0.87878756     -1.93454159
C      -0.85590909     -1.55840752     -2.17185149
O      -1.61797582     -1.86255211     -1.27402290
O      -1.17800027     -1.84603056     -3.42813046
H       1.70843333     -0.30664865     -0.25556311
H      -0.06011708      0.14801055     -0.06860320
H       0.43729159     -1.51477166      0.09133393
H       0.52932234      0.05639122     -2.49083054
H       1.18833340     -1.53668623     -2.42426635
H      -0.51833342     -1.55828239     -4.09451279
11
Frame 260  Energy = -268.3127278962 Hartree
C       0.68591862     -0.60819532     -0.42776536
C       0.46359134     -0.87979139     -1.93575051
C      -0.85557724     -1.55496281     -2.16826444
O      -1.61943597     -1.86450321     -1.27519019
O      -1.17509143     -1.84638331     -3.42690143
H       1.70842933     -0.31075648     -0.26200906
H      -0.06331177      0.13160449     -0.05675653
H       0.43251305     -1.51354178      0.10006558
H       0.53697736      0.04930638     -2.49339946
H       1.17542081     -1.54496764     -2.42704821
H      -0.51240841     -1.56310166     -4.08924008
11
Frame 265  Energy = -268.3128093063 Hartree
C       0.68389244     -0.60739056     -0.43116630
C       0.46568573     -0.88067434     -1.93681306
C      -0.85545919     -1.55151584     -2.16439104
O      -1.62088580     -1.86655023     -1.27645633
O      -1.17225962     -1.84682960     -3.42589435
H       1.70952612     -0.31407614     -0.26736739
H      -0.06478953      0.11459644     -0.04568023
H       0.42853232     -1.51367933      0.10952373
H       0.54392927      0.04285713     -2.49665923
H       1.16409037     -1.55401052     -2.42899047
H      -0.50639360     -1.56768177     -4.08271650
11
Frame 270  Energy = -268.3127875174 Hartree
C       0.68175761     -0.60674845     -0.43469418
C       0.46768347     -0.88154988     -1.93778531
C      -0.85552221     -1.54800489     -2.16038875
O      -1.62236322     -1.86859631     -1.27778575
O      -1.16953893     -1.84730076     -3.42501673
H       1.71108615     -0.31689411     -0.27149700
H      -0.06462029      0.09756679     -0.03596617
H       0.42525121     -1.51480720      0.11935596
H       0.55049135      0.03756258     -2.50093049
H       1.15453492     -1.56384184     -2.42958675
H      -0.50008912     -1.57163737     -4.07557137
11
Frame 275  Energy = -268.3127113446 Hartree
C       0.67957802     -0.60635780     -0.43824935
C       0.46955717     -0.88248760     -1.93863252
C      -0.85578255     -1.54453900     -2.15624586
O      -1.62370587     -1.87067645     -1.27918085
O      -1.16688712     -1.84775636     -3.42417973
H       1.71323564     -0.31898495     -0.27500399
H      -0.06333284      0.08129334     -0.02712227
H       0.42269378     -1.51638034      0.12920694
H       0.55709908      0.03323917     -2.50593870
H       1.14667801     -1.57451234     -2.42918952
H      -0.49329799     -1.57484367     -4.06790235
11
Frame 280  Energy = -268.3126644803 Hartree
C       0.67727516     -0.60617211     -0.44191474
C       0.47121303     -0.88345738     -1.93928688
C      -0.85615331     -1.54120648     -2.15198481
O      -1.62488394     -1.87269688     -1.28055058
O      -1.16429268     -1.84822150     -3.42341185
H       1.71543400     -0.32040419     -0.27737254
H      -0.06102183      0.06662051     -0.01919642
H       0.42112621     -1.51765323      0.13865331
H       0.56377910      0.02970155     -2.51189554
H       1.14114708     -1.58594483     -2.42777723
H      -0.48591146     -1.57731678     -4.06011362
11
Frame 285  Energy = -268.3126316979 Hartree
C       0.67498820     -0.60622669     -0.44560894
C       0.47267848     -0.88449120     -1.93970359
C      -0.85649598     -1.53805425     -2.14765961
O      -1.62610326     -1.87472692     -1.28190885
O      -1.16193761     -1.84867850     -3.42268630
H       1.71736437     -0.32099082     -0.27866694
H      -0.05842241      0.05348119     -0.01221868
H       0.42099185     -1.51864458      0.14726186
H       0.57034950      0.02707888     -2.51856065
H       1.13740238     -1.59811112     -2.42551746
H      -0.47813656     -1.57957959     -4.05221863
11
Frame 290  Energy = -268.3125797188 Hartree
C       0.67285339     -0.60662693     -0.44929808
C       0.47393585     -0.88549872     -1.93989272
C      -0.85689254     -1.53496950     -2.14347494
O      -1.62739300     -1.87674330     -1.28326404
O      -1.15966998     -1.84912688     -3.42199955
H       1.71910355     -0.32113240     -0.27892976
H      -0.05567706      0.04252067     -0.00618377
H       0.42264988     -1.51911234      0.15471716
H       0.57681571      0.02568075     -2.52538499
H       1.13534405     -1.61038105     -2.42198613
H      -0.46970689     -1.58133132     -4.04393806
11
Frame 295  Energy = -268.3127637206 Hartree
C       0.67082838     -0.60745406     -0.45287529
C       0.47514091     -0.88644043     -1.93995176
C      -0.85740137     -1.53194494     -2.13945840
O      -1.62875014     -1.87871444     -1.28458526
O      -1.15748211     -1.84959687     -3.42141785
H       1.71974166     -0.32087390     -0.27844274
H      -0.05361671      0.03435884     -0.00082631
H       0.42643215     -1.51904882      0.16050018
H       0.58286636      0.02515852     -2.53251306
H       1.13462537     -1.62238236     -2.41692731
H      -0.46032914     -1.58236729     -4.03581822
11
Frame 300  Energy = -268.3128188653 Hartree
C       0.66892409     -0.60865364     -0.45631369
C       0.47634153     -0.88730084     -1.93998484
C      -0.85799393     -1.52898253     -2.13561794
O      -1.63015781     -1.88067460     -1.28579855
O      -1.15528815     -1.85014374     -3.42097823
H       1.71936986     -0.32037061     -0.27746701
H      -0.05260081      0.02984108      0.00369052
H       0.43215172     -1.51814568      0.16426254
H       0.58823939      0.02493128     -2.53944844
H       1.13540386     -1.63411880     -2.41033307
H      -0.45055646     -1.58283075     -4.02755435
