11
Frame 5  Energy = -268.3038250690 Hartree
C       0.71885015     -0.60848168     -0.36021246
C       0.47539233     -1.03645585     -1.84368518
C      -0.82590025     -1.68132433     -2.13264904
O      -1.68259556     -1.88107903     -1.32031767
O      -1.13101912     -1.87884299     -3.49207670
H       1.67341484     -0.06604004     -0.22155163
H      -0.00182743      0.14381787     -0.06382253
H       0.81468813     -1.48026673      0.33840506
H       0.44958777     -0.11294049     -2.40453454
H       1.27653308     -1.64344164     -2.27242877
H      -0.35828365     -1.56615458     -3.99547752
11
Frame 10  Energy = -268.3039015105 Hartree
C       0.71929510     -0.60986820     -0.35703213
C       0.47495748     -1.03816628     -1.84143336
C      -0.82592441     -1.68510040     -2.13378546
O      -1.68246982     -1.88060114     -1.32237447
O      -1.13205631     -1.87999875     -3.49199911
H       1.67315673     -0.05844900     -0.22864337
H       0.00484133      0.14898672     -0.07395680
H       0.82200060     -1.48432718      0.33949178
H       0.44653638     -0.11337119     -2.40461749
H       1.28809189     -1.63768799     -2.26002653
H      -0.36170980     -1.56667491     -4.00065519
11
Frame 15  Energy = -268.3038859995 Hartree
C       0.71990745     -0.61139198     -0.35385602
C       0.47475873     -1.03979611     -1.83901650
C      -0.82622850     -1.68886521     -2.13503922
O      -1.68237179     -1.88011661     -1.32438183
O      -1.13285288     -1.88109238     -3.49165625
H       1.67233100     -0.05179292     -0.23744891
H       0.00937103      0.15301764     -0.08296517
H       0.82764306     -1.48625405      0.33975377
H       0.44396440     -0.11257435     -2.40612773
H       1.29967062     -1.63219750     -2.24714203
H      -0.36572684     -1.56762901     -4.00628625
11
Frame 20  Energy = -268.3037387889 Hartree
C       0.72071696     -0.61313894     -0.35075781
C       0.47483235     -1.04127669     -1.83643804
C      -0.82679959     -1.69264509     -2.13648311
O      -1.68231619     -1.87963346     -1.32635612
O      -1.13346949     -1.88214363     -3.49112472
H       1.67090072     -0.04655193     -0.24775731
H       0.01193957      0.15611539     -0.09060259
H       0.83188323     -1.48616381      0.33933476
H       0.44199738     -0.11086686     -2.40852174
H       1.31177270     -1.62648738     -2.23424669
H      -0.37012193     -1.56887353     -4.01211959
11
Frame 25  Energy = -268.3036886223 Hartree
C       0.72177614     -0.61503616     -0.34779450
C       0.47520711     -1.04251861     -1.83377358
C      -0.82758312     -1.69642435     -2.13820499
O      -1.68241620     -1.87924151     -1.32821546
O      -1.13395873     -1.88313332     -3.49040437
H       1.66882363     -0.04264226     -0.25926846
H       0.01253913      0.15853279     -0.09667833
H       0.83443102     -1.48421662      0.33784914
H       0.44023738     -0.10858998     -2.41152579
H       1.32402266     -1.62086945     -2.22156864
H      -0.37496840     -1.57092867     -4.01781985
11
Frame 30  Energy = -268.3036407841 Hartree
C       0.72306568     -0.61702050     -0.34508732
C       0.47580126     -1.04364718     -1.83105123
C      -0.82853420     -1.70012226     -2.14013787
O      -1.68258110     -1.87896322     -1.32997884
O      -1.13433676     -1.88412961     -3.48950102
H       1.66647145     -0.03996999     -0.27213110
H       0.01102653      0.16001007     -0.10144391
H       0.83548307     -1.48052331      0.33559798
H       0.43849207     -0.10611216     -2.41508709
H       1.33590727     -1.61579489     -2.20913713
H      -0.38040812     -1.57341180     -4.02370860
11
Frame 35  Energy = -268.3035774298 Hartree
C       0.72454563     -0.61901861     -0.34250136
C       0.47664815     -1.04454351     -1.82832018
C      -0.82953747     -1.70367813     -2.14232500
O      -1.68285221     -1.87869976     -1.33164044
O      -1.13465527     -1.88517894     -3.48849371
H       1.66387089     -0.03831528     -0.28573981
H       0.00745138      0.16041822     -0.10467870
H       0.83473435     -1.47555627      0.33319550
H       0.43709224     -0.10382548     -2.41855769
H       1.34738535     -1.61100128     -2.19693996
H      -0.38655961     -1.57631484     -4.02981058
11
Frame 40  Energy = -268.3036732914 Hartree
C       0.72618302     -0.62100080     -0.34034865
C       0.47768120     -1.04514729     -1.82557556
C      -0.83053644     -1.70717429     -2.14471512
O      -1.68323788     -1.87851498     -1.33319826
O      -1.13483163     -1.88625172     -3.48729284
H       1.66101556     -0.03766495     -0.29992122
H       0.00227801      0.15955987     -0.10620005
H       0.83244515     -1.47003826      0.33121649
H       0.43628278     -0.10228217     -2.42131730
H       1.35831914     -1.60670503     -2.18481071
H      -0.39294572     -1.57944641     -4.03568446
11
Frame 45  Energy = -268.3037437822 Hartree
C       0.72782058     -0.62288350     -0.33865785
C       0.47898296     -1.04554318     -1.82277327
C      -0.83162137     -1.71055370     -2.14738186
O      -1.68375531     -1.87844057     -1.33460891
O      -1.13483049     -1.88739434     -3.48600924
H       1.65826649     -0.03825698     -0.31432022
H      -0.00443506      0.15702870     -0.10629641
H       0.82868517     -1.46467583      0.32989867
H       0.43592916     -0.10142387     -2.42356038
H       1.36829566     -1.60281962     -2.17287257
H      -0.39936268     -1.58271197     -4.04120030
11
Frame 50  Energy = -268.3038001305 Hartree
C       0.72944322     -0.62457634     -0.33731591
C       0.48053803     -1.04589033     -1.81990291
C      -0.83266770     -1.71368479     -2.15021124
O      -1.68433238     -1.87844020     -1.33599931
O      -1.13485886     -1.88851780     -3.48461106
H       1.65612747     -0.03963377     -0.32899179
H      -0.01234728      0.15279519     -0.10474177
H       0.82365168     -1.45951648      0.32962129
H       0.43601421     -0.10174357     -2.42480722
H       1.37721253     -1.59929880     -2.16154456
H      -0.40530450     -1.58568586     -4.04606914
11
Frame 55  Energy = -268.3039751428 Hartree
C       0.73091857     -0.62603590     -0.33629747
C       0.48227580     -1.04614600     -1.81698506
C      -0.83367952     -1.71652279     -2.15308062
O      -1.68496397     -1.87845391     -1.33730178
O      -1.13480360     -1.88966043     -3.48309091
H       1.65455190     -0.04213809     -0.34345453
H      -0.02086128      0.14666336     -0.10179923
H       0.81754935     -1.45497052      0.33096527
H       0.43703705     -0.10307183     -2.42504495
H       1.38482128     -1.59619771     -2.15102568
H      -0.41089166     -1.58876183     -4.05057122
11
Frame 60  Energy = -268.3039932358 Hartree
C       0.73217145     -0.62710954     -0.33567508
C       0.48414086     -1.04618232     -1.81409363
C      -0.83460305     -1.71920222     -2.15601355
O      -1.68578287     -1.87856911     -1.33848227
O      -1.13466476     -1.89082470     -3.48147020
H       1.65363423     -0.04548843     -0.35744544
H      -0.02945840      0.13864945     -0.09743374
H       0.81064860     -1.45150675      0.33413491
H       0.43917254     -0.10549781     -2.42428856
H       1.39119465     -1.59365371     -2.14096049
H      -0.41565519     -1.59187553     -4.05477510
11
Frame 65  Energy = -268.3040084150 Hartree
C       0.73330860     -0.62787710     -0.33548600
C       0.48616614     -1.04603235     -1.81128826
C      -0.83552772     -1.72169858     -2.15898002
O      -1.68665913     -1.87878245     -1.33951995
O      -1.13451642     -1.89204738     -3.47974380
H       1.65343518     -0.04933882     -0.37084928
H      -0.03814727      0.12871681     -0.09191932
H       0.80324359     -1.44939761      0.33896992
H       0.44198513     -0.10903199     -2.42261440
H       1.39663550     -1.59123813     -2.13174670
H      -0.41993798     -1.59494760     -4.05875643
11
Frame 70  Energy = -268.3039760029 Hartree
C       0.73426178     -0.62846959     -0.33565982
C       0.48831881     -1.04569364     -1.80851673
C      -0.83632085     -1.72384939     -2.16190505
O      -1.68763077     -1.87896441     -1.34043440
O      -1.13437185     -1.89334342     -3.47792720
H       1.65442865     -0.05359487     -0.38369277
H      -0.04657843      0.11675156     -0.08526311
H       0.79570434     -1.44864296      0.34540187
H       0.44578118     -0.11371499     -2.42008422
H       1.40074493     -1.58905291     -2.12394414
H      -0.42353356     -1.59805189     -4.06229720
11
Frame 75  Energy = -268.3040197506 Hartree
C       0.73495402     -0.62877075     -0.33608077
C       0.49055979     -1.04530309     -1.80583924
C      -0.83696518     -1.72578403     -2.16478508
O      -1.68876557     -1.87915870     -1.34123569
O      -1.13423849     -1.89466501     -3.47607354
H       1.65669161     -0.05809024     -0.39521608
H      -0.05498544      0.10286501     -0.07729529
H       0.78816768     -1.44931380      0.35310440
H       0.45051296     -0.11911751     -2.41639921
H       1.40317627     -1.58720952     -2.11722339
H      -0.42651071     -1.60082425     -4.06556893
11
Frame 80  Energy = -268.3040179482 Hartree
C       0.73534351     -0.62879357     -0.33687007
C       0.49286449     -1.04485644     -1.80318622
C      -0.83758445     -1.72743559     -2.16751465
O      -1.69001812     -1.87942938     -1.34205996
O      -1.13402830     -1.89608946     -3.47416866
H       1.65993798     -0.06253288     -0.40543565
H      -0.06253625      0.08771057     -0.06808547
H       0.78038349     -1.45094908      0.36201357
H       0.45583701     -0.12533543     -2.41189792
H       1.40417497     -1.58578889     -2.11129192
H      -0.42823485     -1.60365726     -4.06831613
11
Frame 85  Energy = -268.3039316896 Hartree
C       0.73551741     -0.62864128     -0.33796547
C       0.49520106     -1.04444122     -1.80058891
C      -0.83809103     -1.72873520     -2.17002327
O      -1.69138662     -1.87985370     -1.34287318
O      -1.13375888     -1.89762669     -3.47227197
H       1.66391576     -0.06701357     -0.41421180
H      -0.06931565      0.07195303     -0.05774670
H       0.77284798     -1.45310745      0.37163755
H       0.46140860     -0.13170322     -2.40713060
H       1.40362619     -1.58494515     -2.10629141
H      -0.42915598     -1.60669166     -4.07040781
11
Frame 90  Energy = -268.3038875457 Hartree
C       0.73552766     -0.62845918     -0.33935240
C       0.49756629     -1.04405944     -1.79802216
C      -0.83860343     -1.72975913     -2.17241707
O      -1.69283281     -1.88029199     -1.34363411
O      -1.13357358     -1.89926591     -3.47048616
H       1.66845719     -0.07132605     -0.42144024
H      -0.07534577      0.05565730     -0.04661660
H       0.76558427     -1.45541423      0.38133908
H       0.46751543     -0.13769670     -2.40263195
H       1.40202053     -1.58504392     -2.10240226
H      -0.42970175     -1.60975786     -4.07178594
11
Frame 95  Energy = -268.3036850717 Hartree
C       0.73539245     -0.62820166     -0.34098870
C       0.49995055     -1.04391050     -1.79550176
C      -0.83905621     -1.73054108     -2.17463537
O      -1.69428494     -1.88082484     -1.34439517
O      -1.13345331     -1.90095238     -3.46881507
H       1.67332188     -0.07535113     -0.42699752
H      -0.08046202      0.03892912     -0.03487205
H       0.75878649     -1.45743349      0.39029562
H       0.47463438     -0.14244948     -2.39828457
H       1.39935392     -1.58618188     -2.09979141
H      -0.42971336     -1.61327970     -4.07227532
11
Frame 100  Energy = -268.3036946462 Hartree
C       0.73515674     -0.62802280     -0.34267338
C       0.50217588     -1.04395847     -1.79299839
C      -0.83944389     -1.73107936     -2.17669640
O      -1.69576020     -1.88140792     -1.34515939
O      -1.13331473     -1.90269562     -3.46718318
H       1.67865946     -0.07957387     -0.43051826
H      -0.08494208      0.02267080     -0.02293912
H       0.75237083     -1.45883533      0.39798398
H       0.48255446     -0.14608997     -2.39464569
H       1.39611376     -1.58827322     -2.09810863
H      -0.42929530     -1.61705927     -4.07194824
11
Frame 105  Energy = -268.3037016849 Hartree
C       0.73467576     -0.62789364     -0.34439441
C       0.50435822     -1.04417346     -1.79051803
C      -0.83975648     -1.73136050     -2.17844146
O      -1.69720912     -1.88206983     -1.34596183
O      -1.13326617     -1.90454571     -3.46562395
H       1.68399387     -0.08365233     -0.43195668
H      -0.08908554      0.00675285     -0.01115970
H       0.74660605     -1.45916104      0.40371029
H       0.49101238     -0.14821396     -2.39221482
H       1.39282154     -1.59157825     -2.09746341
H      -0.42876613     -1.62103531     -4.07103538
11
Frame 110  Energy = -268.3036690001 Hartree
C       0.73403762     -0.62788323     -0.34609411
C       0.50644617     -1.04466073     -1.78812903
C      -0.83995394     -1.73138605     -2.17981321
O      -1.69864824     -1.88285825     -1.34670723
O      -1.13332725     -1.90645811     -3.46420133
H       1.68883816     -0.08778804     -0.43097111
H      -0.09305805     -0.00841861      0.00035873
H       0.74170526     -1.45855951      0.40742999
H       0.49985071     -0.14852497     -2.39067529
H       1.38948585     -1.59613630     -2.09806788
H      -0.42785778     -1.62541581     -4.06884000
11
Frame 115  Energy = -268.3037126441 Hartree
C       0.73324759     -0.62806030     -0.34780031
C       0.50849425     -1.04538390     -1.78582631
C      -0.83997117     -1.73109049     -2.18074557
O      -1.70002601     -1.88383564     -1.34745296
O      -1.13341343     -1.90844555     -3.46287340
H       1.69268089     -0.09176536     -0.42814712
H      -0.09676165     -0.02224245      0.01162447
H       0.73796499     -1.45716165      0.40880296
H       0.50925211     -0.14717602     -2.39007715
H       1.38611212     -1.60192545     -2.09995632
H      -0.42653526     -1.62989547     -4.06588248
11
Frame 120  Energy = -268.3037200826 Hartree
C       0.73224037     -0.62838326     -0.34926271
C       0.51037303     -1.04621691     -1.78366428
C      -0.83991566     -1.73053859     -2.18123163
O      -1.70126793     -1.88499348     -1.34820422
O      -1.13345076     -1.91050033     -3.46172018
H       1.69522320     -0.09564927     -0.42301616
H      -0.10023923     -0.03466240      0.02267786
H       0.73553398     -1.45472432      0.40800897
H       0.51923510     -0.14442662     -2.39035701
H       1.38233178     -1.60884229     -2.10308805
H      -0.42479804     -1.63421361     -4.06235524
11
Frame 125  Energy = -268.3038011065 Hartree
C       0.73118846     -0.62891008     -0.35058508
C       0.51210236     -1.04718356     -1.78177052
C      -0.83985451     -1.72972922     -2.18127127
O      -1.70243313     -1.88619719     -1.34896810
O      -1.13344600     -1.91264111     -3.46077948
H       1.69717074     -0.09947713     -0.41556960
H      -0.10314563     -0.04544195      0.03301940
H       0.73453016     -1.45177721      0.40499929
H       0.52964505     -0.14093695     -2.39113815
H       1.37807858     -1.61682174     -2.10701504
H      -0.42268193     -1.63872956     -4.05849613
11
Frame 130  Energy = -268.3036664008 Hartree
C       0.73006029     -0.62955382     -0.35186025
C       0.51370898     -1.04826959     -1.77996826
C      -0.83970621     -1.72865175     -2.18089252
O      -1.70354045     -1.88751403     -1.34974022
O      -1.13342239     -1.91477217     -3.45991203
H       1.69831022     -0.10326586     -0.40601217
H      -0.10587185     -0.05441305      0.04282312
H       0.73506354     -1.44837139      0.39976745
H       0.54012762     -0.13715858     -2.39247218
H       1.37384711     -1.62604195     -2.11166090
H      -0.41993979     -1.64338328     -4.05448185
11
Frame 135  Energy = -268.3036642342 Hartree
C       0.72885928     -0.63030002     -0.35302354
C       0.51518011     -1.04948513     -1.77842900
C      -0.83949985     -1.72734789     -2.18008115
O      -1.70460001     -1.88889282     -1.35057756
O      -1.13336131     -1.91700875     -3.45915993
H       1.69852621     -0.10685005     -0.39457211
H      -0.10824621     -0.06157578      0.05218209
H       0.73715450     -1.44484975      0.39262373
H       0.55038004     -0.13288301     -2.39376279
H       1.37009645     -1.63664343     -2.11667807
H      -0.41665960     -1.64802915     -4.05058989
11
Frame 140  Energy = -268.3036736061 Hartree
C       0.72763136     -0.63113171     -0.35404487
C       0.51652158     -1.05084642     -1.77721946
C      -0.83938527     -1.72574122     -2.17881916
O      -1.70561165     -1.89027011     -1.35134179
O      -1.13317073     -1.91923871     -3.45849632
H       1.69755018     -0.11045775     -0.38112453
H      -0.11018228     -0.06690100      0.06082200
H       0.74040577     -1.44191835      0.38409069
H       0.56087630     -0.12883247     -2.39505958
H       1.36686809     -1.64832925     -2.12217602
H      -0.41277479     -1.65295554     -4.04671525
11
Frame 145  Energy = -268.3035635448 Hartree
C       0.72622633     -0.63212551     -0.35484453
C       0.51769590     -1.05219969     -1.77643920
C      -0.83920580     -1.72379959     -2.17715303
O      -1.70660950     -1.89174343     -1.35201339
O      -1.13297161     -1.92150505     -3.45798383
H       1.69548892     -0.11412927     -0.36604396
H      -0.11174583     -0.07045181      0.06836843
H       0.74499305     -1.43968558      0.37470593
H       0.57153883     -0.12528085     -2.39621614
H       1.36373725     -1.66054682     -2.12781613
H      -0.40831538     -1.65781701     -4.04298813
11
Frame 150  Energy = -268.3033591913 Hartree
C       0.72469073     -0.63325845     -0.35555605
C       0.51870619     -1.05361777     -1.77610905
C      -0.83900979     -1.72150886     -2.17502686
O      -1.70767262     -1.89326644     -1.35273976
O      -1.13267705     -1.92380175     -3.45760857
H       1.69223586     -0.11740393     -0.34958068
H      -0.11283544     -0.07235739      0.07491965
H       0.75094699     -1.43877995      0.36466901
H       0.58207689     -0.12291802     -2.39726172
H       1.36015084     -1.67304060     -2.13330177
H      -0.40319857     -1.66240791     -4.03934604
11
Frame 155  Energy = -268.3033309136 Hartree
C       0.72304007     -0.63438944     -0.35604171
C       0.51961069     -1.05500683     -1.77618133
C      -0.83882414     -1.71877988     -2.17249106
O      -1.70872250     -1.89481165     -1.35345758
O      -1.13231366     -1.92617617     -3.45738982
H       1.68782863     -0.12025020     -0.33187088
H      -0.11302958     -0.07273536      0.07998927
H       0.75841857     -1.43999045      0.35435800
H       0.59228925     -0.12180413     -2.39767284
H       1.35565713     -1.68556034     -2.13852849
H      -0.39776312     -1.66677007     -4.03559278
11
Frame 160  Energy = -268.3033469434 Hartree
C       0.72131838     -0.63557318     -0.35636415
C       0.52052149     -1.05644502     -1.77662271
C      -0.83868202     -1.71570983     -2.16959996
O      -1.70974661     -1.89645789     -1.35415538
O      -1.13185008     -1.92853852     -3.45731258
H       1.68248863     -0.12214747     -0.31340824
H      -0.11270725     -0.07171513      0.08307801
H       0.76714067     -1.44378270      0.34422358
H       0.60242870     -0.12252853     -2.39732391
H       1.35030593     -1.69800340     -2.14326185
H      -0.39210979     -1.67130638     -4.03204534
11
Frame 165  Energy = -268.3034779451 Hartree
C       0.71961332     -0.63687431     -0.35646295
C       0.52141287     -1.05786991     -1.77750806
C      -0.83856614     -1.71240428     -2.16636508
O      -1.71068042     -1.89821749     -1.35485158
O      -1.13137224     -1.93083363     -3.45729051
H       1.67672341     -0.12308201     -0.29413700
H      -0.11161545     -0.06950179      0.08457760
H       0.77635299     -1.45008452      0.33475303
H       0.61244713     -0.12495453     -2.39633287
H       1.34444918     -1.70993622     -2.14742627
H      -0.38663018     -1.67578776     -4.02859037
11
Frame 170  Energy = -268.3032965708 Hartree
C       0.71789499     -0.63826793     -0.35636160
C       0.52221994     -1.05929199     -1.77887022
C      -0.83847180     -1.70882177     -2.16278130
O      -1.71162564     -1.90003742     -1.35551005
O      -1.13080593     -1.93313133     -3.45740553
H       1.67084513     -0.12293500     -0.27429755
H      -0.11015339     -0.06585040      0.08482344
H       0.78588831     -1.45933078      0.32596550
H       0.62197889     -0.12899888     -2.39501156
H       1.33790116     -1.72125636     -2.15108097
H      -0.38124074     -1.68031611     -4.02509678
11
Frame 175  Energy = -268.3035304511 Hartree
C       0.71610899     -0.63972460     -0.35613242
C       0.52290016     -1.06074808     -1.78063525
C      -0.83842054     -1.70501393     -2.15893271
O      -1.71249679     -1.90190419     -1.35615045
O      -1.13012827     -1.93547758     -3.45760837
H       1.66507757     -0.12161075     -0.25466107
H      -0.10859329     -0.06119290      0.08362713
H       0.79578702     -1.47123224      0.31808323
H       0.63118267     -0.13430836     -2.39364905
H       1.33077342     -1.73227091     -2.15399779
H      -0.37610495     -1.68482923     -4.02143159
11
Frame 180  Energy = -268.3035508489 Hartree
C       0.71427646     -0.64135763     -0.35570496
C       0.52354750     -1.06218052     -1.78278735
C      -0.83849949     -1.70105033     -2.15496334
O      -1.71331609     -1.90385232     -1.35681281
O      -1.12936807     -1.93776896     -3.45778478
H       1.65910326     -0.11940934     -0.23517382
H      -0.10701348     -0.05595763      0.08102975
H       0.80562195     -1.48542000      0.31109450
H       0.63975474     -0.14070343     -2.39222487
H       1.32312176     -1.74267166     -2.15597338
H      -0.37123605     -1.68962614     -4.01747794
11
Frame 185  Energy = -268.3037295731 Hartree
C       0.71237128     -0.64321186     -0.35501024
C       0.52420807     -1.06362312     -1.78530338
C      -0.83870422     -1.69695825     -2.15093992
O      -1.71415584     -1.90587767     -1.35742254
O      -1.12838871     -1.93994964     -3.45804746
H       1.65329772     -0.11621451     -0.21593129
H      -0.10510868     -0.05038577      0.07712070
H       0.81516496     -1.50112724      0.30514061
H       0.64770495     -0.14785422     -2.39075197
H       1.31492201     -1.75222669     -2.15691273
H      -0.36647290     -1.69481140     -4.01341352
11
Frame 190  Energy = -268.3036503916 Hartree
C       0.71049922     -0.64523336     -0.35403784
C       0.52477893     -1.06493734     -1.78808917
C      -0.83906310     -1.69276935     -2.14686103
O      -1.71497548     -1.90786592     -1.35791717
O      -1.12724635     -1.94203640     -3.45831493
H       1.64770203     -0.11210129     -0.19731311
H      -0.10282634     -0.04489783      0.07198878
H       0.82433600     -1.51769766      0.29938999
H       0.65519383     -0.15567821     -2.38938869
H       1.30617032     -1.76086122     -2.15705367
H      -0.36191548     -1.70017767     -4.00945829
11
Frame 195  Energy = -268.3036325055 Hartree
C       0.70861840     -0.64746603     -0.35290710
C       0.52528362     -1.06623658     -1.79119299
C      -0.83954578     -1.68841308     -2.14280862
O      -1.71577273     -1.90986148     -1.35840003
O      -1.12594383     -1.94410214     -3.45857934
H       1.64195201     -0.10704053     -0.17971225
H      -0.10064741     -0.03931488      0.06573594
H       0.83278295     -1.53452532      0.29353396
H       0.66203132     -0.16387762     -2.38902502
H       1.29699056     -1.76905012     -2.15645514
H      -0.35756762     -1.70571206     -4.00528304
11
Frame 200  Energy = -268.3034943636 Hartree
C       0.70690533     -0.64983312     -0.35160111
C       0.52576643     -1.06748516     -1.79451147
C      -0.84017669     -1.68402798     -2.13878988
O      -1.71648229     -1.91184438     -1.35881438
O      -1.12453446     -1.94612036     -3.45882658
H       1.63607963     -0.10122879     -0.16343220
H      -0.09857925     -0.03369545      0.05839610
H       0.84037091     -1.55104933      0.28759553
H       0.66835037     -0.17179052     -2.38968512
H       1.28741983     -1.77723935     -2.15496989
H      -0.35320753     -1.71127381     -4.00122035
11
Frame 205  Energy = -268.3037718247 Hartree
C       0.70539896     -0.65241787     -0.35004327
C       0.52615608     -1.06877905     -1.79785995
C      -0.84087289     -1.67955128     -2.13494134
O      -1.71715545     -1.91389331     -1.35911365
O      -1.12296521     -1.94811636     -3.45898112
H       1.63061763     -0.09490382     -0.14868079
H      -0.09695356     -0.02839035      0.05037090
H       0.84668137     -1.56672273      0.28140933
H       0.67410116     -0.17883202     -2.39154063
H       1.27804160     -1.78538819     -2.15313772
H      -0.34913215     -1.71683931     -3.99711707
11
Frame 210  Energy = -268.3036390747 Hartree
C       0.70406102     -0.65515027     -0.34822291
C       0.52652586     -1.07016011     -1.80127273
C      -0.84158236     -1.67502865     -2.13129793
O      -1.71779755     -1.91594579     -1.35916888
O      -1.12122019     -1.94998681     -3.45902415
H       1.62526731     -0.08828159     -0.13540176
H      -0.09632951     -0.02376504      0.04186080
H       0.85145565     -1.58087445      0.27459320
H       0.67945759     -0.18523404     -2.39496942
H       1.26886307     -1.79359405     -2.15064228
H      -0.34534207     -1.72272910     -3.99334460
11
Frame 215  Energy = -268.3034099548 Hartree
C       0.70289638     -0.65810845     -0.34616601
C       0.52680803     -1.07153752     -1.80474655
C      -0.84230500     -1.67050798     -2.12788502
O      -1.71846542     -1.91801865     -1.35905333
O      -1.11927709     -1.95170283     -3.45897589
H       1.61978079     -0.08184308     -0.12375353
H      -0.09634174     -0.02006352      0.03294496
H       0.85492089     -1.59321905      0.26687460
H       0.68448934     -0.19058188     -2.40049325
H       1.26038097     -1.80188492     -2.14763961
H      -0.34187243     -1.72875798     -3.99028765
11
Frame 220  Energy = -268.3034920355 Hartree
C       0.70190817     -0.66133853     -0.34380991
C       0.52699575     -1.07295508     -1.80822349
C      -0.84312435     -1.66609837     -2.12460587
O      -1.71918867     -1.92011995     -1.35866697
O      -1.11725269     -1.95341810     -3.45882899
H       1.61432679     -0.07568100     -0.11374454
H      -0.09712322     -0.01721029      0.02433658
H       0.85690923     -1.60332594      0.25856951
H       0.68935717     -0.19474211     -2.40799897
H       1.25278075     -1.81060975     -2.14397559
H      -0.33835834     -1.73492643     -3.98796956
11
Frame 225  Energy = -268.3033000787 Hartree
C       0.70115921     -0.66489304     -0.34128198
C       0.52704884     -1.07431672     -1.81162153
C      -0.84395712     -1.66182697     -2.12157385
O      -1.71988166     -1.92216854     -1.35808602
O      -1.11510452     -1.95514698     -3.45853625
H       1.60894780     -0.07032658     -0.10541012
H      -0.09886363     -0.01573484      0.01573490
H       0.85700535     -1.61099544      0.24982096
H       0.69371114     -0.19759975     -2.41725048
H       1.24587923     -1.81994528     -2.14017519
H      -0.33443166     -1.74078905     -3.98608300
11
Frame 230  Energy = -268.3035153289 Hartree
C       0.70061957     -0.66872965     -0.33869374
C       0.52701059     -1.07551264     -1.81490784
C      -0.84486328     -1.65758398     -2.11889740
O      -1.72057398     -1.92418145     -1.35726828
O      -1.11285265     -1.95677375     -3.45799101
H       1.60346759     -0.06542621     -0.09897007
H      -0.10191487     -0.01554144      0.00722655
H       0.85520135     -1.61635093      0.24066472
H       0.69769979     -0.19936054     -2.42818224
H       1.24029149     -1.82956614     -2.13610067
H      -0.33019746     -1.74643486     -3.98504291
11
Frame 235  Energy = -268.3034809481 Hartree
C       0.70035526     -0.67266490     -0.33602281
C       0.52687442     -1.07657761     -1.81799838
C      -0.84584068     -1.65330434     -2.11654698
O      -1.72126300     -1.92612917     -1.35613498
O      -1.11045881     -1.95830822     -3.45728754
H       1.59780635     -0.06141938     -0.09463858
H      -0.10593703     -0.01671503     -0.00115548
H       0.85158898     -1.61956287      0.23204181
H       0.70131895     -0.20022058     -2.44058852
H       1.23601145     -1.83986701     -2.13170853
H      -0.32574269     -1.75202230     -3.98487538
11
Frame 240  Energy = -268.3034887471 Hartree
C       0.70033570     -0.67663798     -0.33333868
C       0.52673637     -1.07753655     -1.82093561
C      -0.84695649     -1.64911265     -2.11452198
O      -1.72192226     -1.92801471     -1.35493268
O      -1.10796527     -1.95975746     -3.45643910
H       1.59188899     -0.05864215     -0.09191026
H      -0.11090672     -0.01933326     -0.00914889
H       0.84604425     -1.62104762      0.22402327
H       0.70447697     -0.20074210     -2.45427625
H       1.23277921     -1.85065341     -2.12732844
H      -0.32120012     -1.75752604     -3.98505186
11
Frame 245  Energy = -268.3035428987 Hartree
C       0.70046828     -0.68060666     -0.33076190
C       0.52648154     -1.07839830     -1.82366403
C      -0.84814165     -1.64510965     -2.11290811
O      -1.72251489     -1.92984182     -1.35358618
O      -1.10533775     -1.96113387     -3.45546859
H       1.58583325     -0.05674844     -0.09101119
H      -0.11692408     -0.02356505     -0.01666207
H       0.83861299     -1.62120503      0.21685878
H       0.70734321     -0.20127417     -2.46893014
H       1.23015913     -1.86155765     -2.12322907
H      -0.31659249     -1.76291096     -3.98545752
11
Frame 250  Energy = -268.3036854693 Hartree
C       0.70083637     -0.68454642     -0.32828904
C       0.52622094     -1.07913923     -1.82616736
C      -0.84948426     -1.64141584     -2.11166715
O      -1.72305173     -1.93166404     -1.35210453
O      -1.10258210     -1.96239656     -3.45433816
H       1.57980432     -0.05600430     -0.09221787
H      -0.12345809     -0.02961395     -0.02357584
H       0.82953324     -1.62039017      0.21056388
H       0.70997453     -0.20242713     -2.48388684
H       1.22803801     -1.87223427     -2.11873917
H      -0.31249351     -1.76811826     -3.98613927
11
Frame 255  Energy = -268.3037344001 Hartree
C       0.70135039     -0.68836768     -0.32593925
C       0.52599366     -1.07957631     -1.82853954
C      -0.85094511     -1.63796400     -2.11080030
O      -1.72357127     -1.93350395     -1.35047803
O      -1.09965972     -1.96359348     -3.45305168
H       1.57412119     -0.05644507     -0.09509303
H      -0.13061096     -0.03715090     -0.03013785
H       0.81908912     -1.61958228      0.20616512
H       0.71253847     -0.20472652     -2.49813151
H       1.22631023     -1.88246766     -2.11387978
H      -0.30870055     -1.77323368     -3.98685680
11
Frame 260  Energy = -268.3037396549 Hartree
C       0.70193513     -0.69202118     -0.32384277
C       0.52578925     -1.07978332     -1.83079457
C      -0.85260582     -1.63476796     -2.11031642
O      -1.72415492     -1.93531304     -1.34870543
O      -1.09655658     -1.96464109     -3.45150981
H       1.56889690     -0.05803662     -0.09958097
H      -0.13833804     -0.04675127     -0.03625995
H       0.80777106     -1.61931990      0.20385813
H       0.71501605     -0.20851188     -2.51134782
H       1.22489421     -1.89179337     -2.10871986
H      -0.30512096     -1.77811206     -3.98718664
11
Frame 265  Energy = -268.3037601876 Hartree
C       0.70256714     -0.69551120     -0.32215584
C       0.52561458     -1.07972970     -1.83286144
C      -0.85442261     -1.63184279     -2.11021253
O      -1.72470751     -1.93714511     -1.34687478
O      -1.09338809     -1.96555883     -3.44977578
H       1.56426191     -0.06063462     -0.10545837
H      -0.14641764     -0.05781887     -0.04140455
H       0.79562049     -1.61976598      0.20361546
H       0.71715038     -0.21376183     -2.52352848
H       1.22342641     -1.90024735     -2.10326533
H      -0.30176449     -1.78260484     -3.98713894
11
Frame 270  Energy = -268.3036295763 Hartree
C       0.70306446     -0.69888353     -0.32081229
C       0.52557017     -1.07959031     -1.83478643
C      -0.85640593     -1.62913993     -2.11048366
O      -1.72513951     -1.93892218     -1.34491130
O      -1.09005828     -1.96642240     -3.44790666
H       1.56095578     -0.06375601     -0.11245678
H      -0.15458851     -0.07026176     -0.04539641
H       0.78297451     -1.62119529      0.20575888
H       0.71904772     -0.22047968     -2.53470527
H       1.22152572     -1.90782194     -2.09755686
H      -0.29873881     -1.78689314     -3.98665778
11
Frame 275  Energy = -268.3035479051 Hartree
C       0.70337350     -0.70211809     -0.31987308
C       0.52578689     -1.07937660     -1.83653946
C      -0.85851291     -1.62665784     -2.11115867
O      -1.72543644     -1.94067922     -1.34282623
O      -1.08658047     -1.96724239     -3.44587095
H       1.55881681     -0.06757163     -0.12037494
H      -0.16281951     -0.08406591     -0.04860490
H       0.76993291     -1.62417905      0.21008185
H       0.72033276     -0.22879296     -2.54435654
H       1.21938982     -1.91446561     -2.09161642
H      -0.29583592     -1.79114339     -3.98568221
11
Frame 280  Energy = -268.3034057159 Hartree
C       0.70347334     -0.70523811     -0.31938379
C       0.52615967     -1.07916534     -1.83817389
C      -0.86070316     -1.62444219     -2.11223571
O      -1.72565755     -1.94236246     -1.34065880
O      -1.08305884     -1.96805661     -3.44377681
H       1.55801987     -0.07175856     -0.12901064
H      -0.17114977     -0.09896233     -0.05075387
H       0.75652742     -1.62852725      0.21658268
H       0.72131894     -0.23850451     -2.55226267
H       1.21689123     -1.91994618     -2.08546228
H      -0.29313538     -1.79522671     -3.98410474
11
Frame 285  Energy = -268.3033405560 Hartree
C       0.70337536     -0.70826008     -0.31934303
C       0.52667473     -1.07891541     -1.83973672
C      -0.86305351     -1.62249345     -2.11356004
O      -1.72579280     -1.94387981     -1.33847852
O      -1.07953610     -1.96883506     -3.44163546
H       1.55870436     -0.07626622     -0.13792857
H      -0.17953319     -0.11504460     -0.05193854
H       0.74283038     -1.63394399      0.22508897
H       0.72231432     -0.24932397     -2.55879389
H       1.21378438     -1.92408147     -2.07924633
H      -0.29052176     -1.79921430     -3.98231583
11
Frame 290  Energy = -268.3032135169 Hartree
C       0.70296016     -0.71123374     -0.31972304
C       0.52725894     -1.07872366     -1.84118655
C      -0.86545661     -1.62075012     -2.11510038
O      -1.72590523     -1.94524653     -1.33635596
O      -1.07598274     -1.96957822     -3.43939699
H       1.56112369     -0.08066022     -0.14666938
H      -0.18804345     -0.13168204     -0.05238947
H       0.72888853     -1.64004814      0.23491187
H       0.72338828     -0.26109730     -2.56398336
H       1.21003626     -1.92713788     -2.07296215
H      -0.28795518     -1.80287263     -3.98042985
11
Frame 295  Energy = -268.3032453098 Hartree
C       0.70225378     -0.71418270     -0.32048676
C       0.52783321     -1.07839510     -1.84247362
C      -0.86793699     -1.61923310     -2.11681722
O      -1.72594654     -1.94658522     -1.33423736
O      -1.07239489     -1.97032868     -3.43697752
H       1.56490867     -0.08487608     -0.15493035
H      -0.19638264     -0.14862992     -0.05198742
H       0.71512486     -1.64643347      0.24538756
H       0.72448392     -0.27377212     -2.56804981
H       1.20597183     -1.92877154     -2.06683364
H      -0.28544866     -1.80607274     -3.97864296
11
Frame 300  Energy = -268.3032197990 Hartree
C       0.70133897     -0.71712564     -0.32159951
C       0.52846619     -1.07809745     -1.84345514
C      -0.87053604     -1.61811232     -2.11870072
O      -1.72596702     -1.94771990     -1.33213154
O      -1.06881439     -1.97100072     -3.43454202
H       1.56975784     -0.08927132     -0.16277758
H      -0.20421159     -0.16572067     -0.05037420
H       0.70171207     -1.65251143      0.25626766
H       0.72568859     -0.28627252     -2.57088847
H       1.20174981     -1.92952625     -2.06117497
H      -0.28282561     -1.80889671     -3.97647129
