23
Frame 5  Energy = -425.5020562619 Hartree
C       0.25224655      1.17634418      0.02629372
C      -0.06177231      1.54569993      1.49749310
C       0.87526087      0.90705871      2.56132253
C       0.55131522      1.16421651      4.01656400
C       1.64097041      0.45901346      4.86107158
C       1.55339598      0.84082749      6.40425910
O       0.67445977      1.45762016      6.98628293
O       2.64430393      0.37792770      6.99517622
C       2.78112709      0.70604947      8.40235507
H      -0.40245978      1.73860594     -0.59934194
H       1.34183401      1.33344639     -0.23228041
H       0.07885014      0.07231521     -0.10075334
H      -1.16706840      1.36169611      1.74739368
H       0.04488506      2.60647388      1.60338585
H       0.96228767     -0.14017764      2.30951790
H       1.95524522      1.22829676      2.38890881
H       0.51635121      2.22117625      4.27524621
H      -0.45459208      0.74097731      4.29129188
H       1.51522248     -0.63589915      4.73424881
H       2.59994363      0.77854559      4.45635944
H       3.81853216      0.26907354      8.67110590
H       1.91278499      0.34818335      8.95353535
H       2.96080511      1.78160151      8.49093897
23
Frame 10  Energy = -425.5023509388 Hartree
C       0.25378472      1.17605249      0.02803439
C      -0.05882777      1.54752687      1.49975564
C       0.87466217      0.90604867      2.56192381
C       0.54836759      1.16443069      4.01539129
C       1.64056206      0.45818547      4.85780841
C       1.55233071      0.83944268      6.40308760
O       0.67367739      1.45643036      6.98679928
O       2.64711803      0.37645834      6.99520481
C       2.78275598      0.70662714      8.40275812
H      -0.40435846      1.73768823     -0.59788025
H       1.34571120      1.34173969     -0.22428934
H       0.08216274      0.07608233     -0.09650445
H      -1.17236464      1.36121714      1.74640959
H       0.04162313      2.60281548      1.60174967
H       0.95741014     -0.13517856      2.31929838
H       1.96095057      1.22971691      2.38094927
H       0.50965761      2.22457214      4.27236888
H      -0.45583921      0.73640909      4.29364019
H       1.50959989     -0.63443061      4.73339776
H       2.59906836      0.77489994      4.45229771
H       3.81723221      0.27035503      8.66825608
H       1.91450907      0.34043824      8.96179879
H       2.96388195      1.78573499      8.49025359
23
Frame 15  Energy = -425.5026338575 Hartree
C       0.25560872      1.17544256      0.03014910
C      -0.05604372      1.54922838      1.50216651
C       0.87428106      0.90527954      2.56213799
C       0.54537946      1.16436552      4.01436154
C       1.63985936      0.45754600      4.85480925
C       1.55111871      0.83806828      6.40158149
O       0.67296750      1.45518091      6.98724201
O       2.64990762      0.37499594      6.99539657
C       2.78480270      0.70715839      8.40297643
H      -0.40718180      1.73752022     -0.59904111
H       1.34675202      1.35009058     -0.21603846
H       0.08541710      0.08150527     -0.09290463
H      -1.17327231      1.36040994      1.74441110
H       0.03852551      2.60242268      1.60042927
H       0.95183603     -0.13283578      2.32959783
H       1.96342139      1.23136147      2.37308938
H       0.50300527      2.22814232      4.26900574
H      -0.45557943      0.73278351      4.29497190
H       1.50477561     -0.63210651      4.73313326
H       2.59961420      0.77100107      4.44870754
H       3.81086489      0.27182728      8.66554715
H       1.91737219      0.33306226      8.97031219
H       2.96503626      1.78973466      8.48985217
23
Frame 20  Energy = -425.5029445273 Hartree
C       0.25764257      1.17463352      0.03254639
C      -0.05349249      1.55066056      1.50469099
C       0.87418122      0.90477659      2.56213774
C       0.54227081      1.16409047      4.01355825
C       1.63877622      0.45710924      4.85212135
C       1.54974916      0.83662551      6.39974670
O       0.67238478      1.45384397      6.98743393
O       2.65261295      0.37352868      6.99571554
C       2.78723033      0.70762981      8.40301768
H      -0.41053152      1.73797375     -0.60237642
H       1.34500912      1.35859997     -0.20769063
H       0.08852234      0.08844505     -0.08990772
H      -1.17043022      1.35962836      1.74165553
H       0.03531770      2.60539986      1.59931180
H       0.94541008     -0.13396400      2.34005626
H       1.96263875      1.23327502      2.36577997
H       0.49651446      2.23186728      4.26529288
H      -0.45365393      0.73021105      4.29523921
H       1.50097365     -0.62927496      4.73336186
H       2.60127205      0.76668368      4.44591626
H       3.80036157      0.27354927      8.66321529
H       1.92162622      0.32651104      8.97880115
H       2.96464261      1.79313601      8.48972067
23
Frame 25  Energy = -425.5028984169 Hartree
C       0.25987515      1.17380214      0.03518711
C      -0.05123300      1.55191555      1.50742391
C       0.87430713      0.90455316      2.56187521
C       0.53910975      1.16357242      4.01279018
C       1.63738891      0.45695434      4.84966605
C       1.54821789      0.83517827      6.39764541
O       0.67194032      1.45243743      6.98751566
O       2.65528632      0.37204124      6.99615159
C       2.78995521      0.70799726      8.40300057
H      -0.41409639      1.73846571     -0.60714373
H       1.34059668      1.36701979     -0.19917127
H       0.09155323      0.09629613     -0.08722578
H      -1.16356945      1.35848518      1.73848274
H       0.03245343      2.61150723      1.59889600
H       0.93841109     -0.13862557      2.35072013
H       1.95853687      1.23529027      2.35885946
H       0.49037153      2.23564582      4.26136032
H      -0.45049989      0.72844384      4.29451403
H       1.49825654     -0.62588017      4.73370175
H       2.60384346      0.76162532      4.44399799
H       3.78633646      0.27510960      8.66099725
H       1.92709739      0.32102272      8.98692726
H       2.96256956      1.79574994      8.48996062
23
Frame 30  Energy = -425.5028933031 Hartree
C       0.26225087      1.17300777      0.03804099
C      -0.04911858      1.55307164      1.51027171
C       0.87469589      0.90458419      2.56132307
C       0.53583966      1.16290854      4.01219990
C       1.63582315      0.45699641      4.84739736
C       1.54658058      0.83383615      6.39531154
O       0.67163786      1.45100480      6.98755274
O       2.65797541      0.37063403      6.99674099
C       2.79284657      0.70830823      8.40291456
H      -0.41756437      1.73856316     -0.61260518
H       1.33395632      1.37562075     -0.19057085
H       0.09435634      0.10466213     -0.08509974
H      -1.15298062      1.35687487      1.73496305
H       0.02989229      2.62045882      1.59912145
H       0.93096383     -0.14651951      2.36165512
H       1.95117399      1.23752684      2.35262115
H       0.48468302      2.23892168      4.25721874
H      -0.44621754      0.72698548      4.29289561
H       1.49649878     -0.62217948      4.73453509
H       2.60676072      0.75621882      4.44290662
H       3.76985821      0.27630228      8.65910168
H       1.93421190      0.31654023      8.99479791
H       2.95869027      1.79750467      8.49065730
23
Frame 35  Energy = -425.5027101543 Hartree
C       0.26470854      1.17227094      0.04112510
C      -0.04713997      1.55403881      1.51313262
C       0.87526625      0.90476096      2.56062011
C       0.53253774      1.16210355      4.01180139
C       1.63404334      0.45738900      4.84549288
C       1.54495551      0.83259593      6.39283595
O       0.67151261      1.44950530      6.98753152
O       2.66065638      0.36921859      6.99739863
C       2.79588538      0.70861465      8.40265108
H      -0.42033620      1.73819477     -0.61819010
H       1.32574814      1.38443356     -0.18230803
H       0.09691770      0.11270774     -0.08390790
H      -1.13914137      1.35506704      1.73061952
H       0.02783233      2.63176634      1.59974138
H       0.92316768     -0.15693890      2.37259890
H       1.94102743      1.24014005      2.34716316
H       0.47924475      2.24169898      4.25249094
H      -0.44149068      0.72603752      4.29075195
H       1.49540316     -0.61891765      4.73603336
H       2.61019871      0.75060554      4.44246716
H       3.75205746      0.27671176      8.65790177
H       1.94304171      0.31273251      9.00173513
H       2.95300948      1.79861767      8.49172486
23
Frame 40  Energy = -425.5026377942 Hartree
C       0.26708168      1.17166668      0.04444436
C      -0.04533828      1.55490289      1.51597219
C       0.87590895      0.90510761      2.55972814
C       0.52926366      1.16128747      4.01156240
C       1.63193255      0.45796988      4.84395286
C       1.54332134      0.83133735      6.39031368
O       0.67151209      1.44785476      6.98741680
O       2.66330788      0.36785954      6.99823283
C       2.79902278      0.70882650      8.40214790
H      -0.42217266      1.73759498     -0.62364815
H       1.31651985      1.39347788     -0.17452188
H       0.09919808      0.11957894     -0.08363282
H      -1.12262004      1.35319562      1.72585126
H       0.02639232      2.64424247      1.60109214
H       0.91503295     -0.16894331      2.38396306
H       1.92851058      1.24306013      2.34243769
H       0.47411134      2.24346684      4.24738712
H      -0.43687708      0.72535241      4.28813526
H       1.49518922     -0.61616547      4.73787769
H       2.61391458      0.74450553      4.44326669
H       3.73470913      0.27602768      8.65777245
H       1.95305424      0.31041578      9.00794902
H       2.94564524      1.79863975      8.49336309
23
Frame 45  Energy = -425.5026517206 Hartree
C       0.26929380      1.17120380      0.04804371
C      -0.04355949      1.55581230      1.51874858
C       0.87653181      0.90560296      2.55855150
C       0.52610236      1.16042721      4.01149839
C       1.62954833      0.45869901      4.84277421
C       1.54181717      0.83018501      6.38772469
O       0.67159047      1.44607751      6.98700552
O       2.66583855      0.36662408      6.99909539
C       2.80198379      0.70912427      8.40139774
H      -0.42265214      1.73609916     -0.62837797
H       1.30725311      1.40292739     -0.16754395
H       0.10141670      0.12455721     -0.08400254
H      -1.10457716      1.35076654      1.72082736
H       0.02558728      2.65689327      1.60274368
H       0.90632635     -0.18185005      2.39539195
H       1.91399707      1.24583223      2.33829464
H       0.46933377      2.24411790      4.24211042
H      -0.43277142      0.72504037      4.28533716
H       1.49546873     -0.61418008      4.74000816
H       2.61742259      0.73786540      4.44535248
H       3.71927825      0.27354528      8.65909596
H       1.96443809      0.30937939      9.01293769
H       2.93655829      1.79768048      8.49537718
23
Frame 50  Energy = -425.5028204117 Hartree
C       0.27126395      1.17095638      0.05180467
C      -0.04180739      1.55682736      1.52133680
C       0.87710496      0.90611613      2.55718918
C       0.52317877      1.15954058      4.01149163
C       1.62706734      0.45970963      4.84184607
C       1.54041728      0.82915621      6.38508445
O       0.67175108      1.44419817      6.98633108
O       2.66826582      0.36545741      6.99994878
C       2.80474644      0.70948555      8.40039086
H      -0.42143110      1.73339280     -0.63178463
H       1.29847562      1.41246767     -0.16158224
H       0.10350123      0.12675500     -0.08507762
H      -1.08647690      1.34734750      1.71630373
H       0.02508547      2.66897814      1.60449484
H       0.89763040     -0.19477987      2.40668905
H       1.89836272      1.24818368      2.33447047
H       0.46475509      2.24366699      4.23643865
H      -0.42953045      0.72474027      4.28266348
H       1.49606055     -0.61306140      4.74241794
H       2.62068569      0.73059303      4.44835451
H       3.70712843      0.26922262      8.66218438
H       1.97717015      0.30979245      9.01723973
H       2.92621083      1.79608601      8.49781884
23
Frame 55  Energy = -425.5030835758 Hartree
C       0.27298939      1.17099658      0.05566484
C      -0.04003180      1.55797809      1.52376044
C       0.87750720      0.90649811      2.55561360
C       0.52046531      1.15871940      4.01149631
C       1.62454972      0.46090178      4.84125510
C       1.53901699      0.82816133      6.38246886
O       0.67214249      1.44213539      6.98541756
O       2.67047304      0.36427401      7.00080739
C       2.80714569      0.71001153      8.39918274
H      -0.41846982      1.72937146     -0.63420005
H       1.29061233      1.42197412     -0.15674872
H       0.10533324      0.12608799     -0.08680034
H      -1.06966342      1.34311220      1.71251777
H       0.02446624      2.67979661      1.60675633
H       0.88929777     -0.20687918      2.41772185
H       1.88262385      1.25050566      2.33083782
H       0.46085880      2.24203612      4.23063513
H      -0.42742553      0.72410069      4.28004027
H       1.49667934     -0.61288085      4.74530615
H       2.62356183      0.72294354      4.45237806
H       3.69924355      0.26244214      8.66685108
H       1.99060922      0.31127601      9.02055271
H       2.91480270      1.79433134      8.50072164
23
Frame 60  Energy = -425.5033149223 Hartree
C       0.27434082      1.17137046      0.05965755
C      -0.03812288      1.55934897      1.52603796
C       0.87774838      0.90675690      2.55394687
C       0.51816772      1.15787649      4.01155150
C       1.62185260      0.46228811      4.84112113
C       1.53776319      0.82706851      6.37986369
O       0.67258757      1.43991549      6.98435665
O       2.67245460      0.36316504      7.00167846
C       2.80913590      0.71072048      8.39775296
H      -0.41402208      1.72421443     -0.63561796
H       1.28484297      1.43172981     -0.15348667
H       0.10710416      0.12334469     -0.08888351
H      -1.05537170      1.33800024      1.70963919
H       0.02393094      2.68867139      1.60943250
H       0.88103827     -0.21763992      2.42821016
H       1.86840552      1.25290394      2.32737156
H       0.45771958      2.23927026      4.22446020
H      -0.42696291      0.72306912      4.27757424
H       1.49774636     -0.61374261      4.74858218
H       2.62596398      0.71512780      4.45720746
H       3.69588795      0.25331539      8.67331888
H       2.00408147      0.31333844      9.02296507
H       2.90282640      1.79238337      8.50383027
23
Frame 65  Energy = -425.5032198631 Hartree
C       0.27541306      1.17202203      0.06376673
C      -0.03594063      1.56101218      1.52815666
C       0.87773696      0.90687972      2.55218057
C       0.51623192      1.15698462      4.01155932
C       1.61891897      0.46395072      4.84135521
C       1.53668107      0.82584770      6.37725043
O       0.67304150      1.43757436      6.98312148
O       2.67427408      0.36216102      7.00252137
C       2.81086610      0.71156780      8.39613778
H      -0.40790826      1.71803467     -0.63570512
H       1.28160267      1.44165892     -0.15175183
H       0.10894310      0.11839444     -0.09096367
H      -1.04459949      1.33194110      1.70789586
H       0.02365786      2.69469196      1.61234448
H       0.87297451     -0.22615726      2.43802543
H       1.85652014      1.25535137      2.32398025
H       0.45493622      2.23556117      4.21812758
H      -0.42840133      0.72192124      4.27546549
H       1.49941793     -0.61546945      4.75193156
H       2.62799123      0.70703190      4.46273990
H       3.69724060      0.24151469      8.68143612
H       2.01699100      0.31599822      9.02484730
H       2.89046358      1.79052478      8.50735164
23
Frame 70  Energy = -425.5029219407 Hartree
C       0.27625584      1.17284707      0.06802166
C      -0.03346903      1.56297635      1.53011537
C       0.87745354      0.90675788      2.55035978
C       0.51462305      1.15609977      4.01154925
C       1.61587217      0.46579980      4.84185641
C       1.53577071      0.82458932      6.37476568
O       0.67362586      1.43508152      6.98173243
O       2.67585379      0.36130224      7.00334441
C       2.81242320      0.71243095      8.39433191
H      -0.40016523      1.71112813     -0.63436568
H       1.28090036      1.45180266     -0.15184027
H       0.11104583      0.11178436     -0.09341454
H      -1.03797508      1.32467411      1.70777900
H       0.02372826      2.69785235      1.61536012
H       0.86474786     -0.23171483      2.44702546
H       1.84785419      1.25814118      2.32097887
H       0.45197889      2.23139835      4.21215343
H      -0.43142604      0.72037869      4.27343050
H       1.50156119     -0.61777833      4.75579958
H       2.62940385      0.69871817      4.46898696
H       3.70272260      0.22798808      8.69087164
H       2.02886055      0.31856479      9.02612771
H       2.87769652      1.78893142      8.51128582
23
Frame 75  Energy = -425.5031127739 Hartree
C       0.27686381      1.17382543      0.07233407
C      -0.03074134      1.56519859      1.53177144
C       0.87684974      0.90637662      2.54847777
C       0.51328546      1.15527565      4.01156773
C       1.61278491      0.46780352      4.84267080
C       1.53493972      0.82330542      6.37227030
O       0.67432004      1.43250717      6.98019095
O       2.67726123      0.36060182      7.00406185
C       2.81383142      0.71328005      8.39228993
H      -0.39136105      1.70361951     -0.63233286
H       1.28261130      1.46185437     -0.15357216
H       0.11332145      0.10434393     -0.09607856
H      -1.03562931      1.31602968      1.70915945
H       0.02414143      2.69801572      1.61860491
H       0.85668093     -0.23428487      2.45547547
H       1.84273682      1.26133314      2.31806741
H       0.44906173      2.22731830      4.20673159
H      -0.43628901      0.71837924      4.27149632
H       1.50419904     -0.62033942      4.76029101
H       2.62994111      0.69083988      4.47571564
H       3.71118265      0.21395161      8.70126464
H       2.03893971      0.32090597      9.02714511
H       2.86452426      1.78784635      8.51568524
23
Frame 80  Energy = -425.5031327214 Hartree
C       0.27737001      1.17489578      0.07675327
C      -0.02792986      1.56759933      1.53319084
C       0.87593541      0.90561818      2.54662312
C       0.51224932      1.15452865      4.01153345
C       1.60961250      0.46990679      4.84395177
C       1.53428152      0.82200480      6.36983438
O       0.67512182      1.42995323      6.97849101
O       2.67849714      0.35995232      7.00481415
C       2.81521122      0.71416186      8.39010112
H      -0.38194667      1.69583595     -0.63018324
H       1.28670341      1.47137265     -0.15640169
H       0.11612584      0.09646450     -0.09871022
H      -1.03733389      1.30629667      1.71187766
H       0.02513285      2.69534474      1.62180955
H       0.84903987     -0.23394872      2.46288337
H       1.84175996      1.26506464      2.31514829
H       0.44640487      2.22363062      4.20197465
H      -0.44305892      0.71587415      4.26967961
H       1.50684778     -0.62300562      4.76486476
H       2.62957927      0.68332689      4.48294853
H       3.72151074      0.20007273      8.71184882
H       2.04698068      0.32294625      9.02802211
H       2.85162195      1.78747512      8.52029257
23
Frame 85  Energy = -425.5030981660 Hartree
C       0.27782142      1.17596886      0.08127987
C      -0.02516252      1.57007930      1.53452180
C       0.87468669      0.90446019      2.54473614
C       0.51144766      1.15380272      4.01146617
C       1.60640978      0.47212379      4.84557759
C       1.53379148      0.82066989      6.36742977
O       0.67591773      1.42733930      6.97658154
O       2.67957057      0.35937656      7.00550864
C       2.81662266      0.71503035      8.38781832
H      -0.37269032      1.68781428     -0.62761440
H       1.29250718      1.48045904     -0.16004422
H       0.11945619      0.08910597     -0.10102057
H      -1.04272752      1.29618490      1.71552948
H       0.02630836      2.69032664      1.62502372
H       0.84200577     -0.23033422      2.46906013
H       1.84469688      1.26901075      2.31250096
H       0.44412117      2.22047240      4.19778797
H      -0.45099448      0.71286176      4.26809315
H       1.50954969     -0.62536955      4.76931557
H       2.62844340      0.67631523      4.49034317
H       3.73267035      0.18683452      8.72206598
H       2.05276981      0.32464359      9.02913519
H       2.83921623      1.78782061      8.52483593
23
Frame 90  Energy = -425.5029395511 Hartree
C       0.27826831      1.17700796      0.08586217
C      -0.02248777      1.57265273      1.53568564
C       0.87315640      0.90300331      2.54296144
C       0.51086906      1.15303031      4.01140437
C       1.60323205      0.47437617      4.84746256
C       1.53341716      0.81930842      6.36510441
O       0.67671828      1.42462104      6.97450476
O       2.68046779      0.35884211      7.00604999
C       2.81818479      0.71569669      8.38559005
H      -0.36411913      1.68023512     -0.62472141
H       1.29891334      1.48903523     -0.16413171
H       0.12363243      0.08313281     -0.10278200
H      -1.05088100      1.28588710      1.71995715
H       0.02785388      2.68316214      1.62856835
H       0.83537057     -0.22403788      2.47402560
H       1.85111168      1.27268852      2.30996428
H       0.44222380      2.21772411      4.19426918
H      -0.45950554      0.70958949      4.26647139
H       1.51246749     -0.62684976      4.77366435
H       2.62643704      0.67016618      4.49814722
H       3.74335600      0.17502814      8.73136734
H       2.05617139      0.32586003      9.03046663
H       2.82751296      1.78874288      8.52938944
23
Frame 95  Energy = -425.5028816792 Hartree
C       0.27878022      1.17805341      0.09050367
C      -0.01997261      1.57519703      1.53670730
C       0.87139546      0.90131651      2.54129755
C       0.51042117      1.15229431      4.01135938
C       1.59994754      0.47659442      4.84967449
C       1.53334429      0.81793653      6.36288126
O       0.67761147      1.42181403      6.97230579
O       2.68119981      0.35834551      7.00641347
C       2.82003538      0.71620241      8.38343958
H      -0.35671293      1.67333253     -0.62201181
H       1.30552757      1.49680109     -0.16885385
H       0.12888331      0.07893330     -0.10410135
H      -1.06077587      1.27588233      1.72486245
H       0.02956753      2.67475297      1.63238585
H       0.82949032     -0.21534974      2.47755976
H       1.86010000      1.27626501      2.30770068
H       0.44035478      2.21582393      4.19120727
H      -0.46807844      0.70630825      4.26425149
H       1.51539494     -0.62736558      4.77811725
H       2.62368979      0.66482514      4.50637684
H       3.75281553      0.16561066      8.73921866
H       2.05697892      0.32626237      9.03159744
H       2.81657877      1.79068052      8.53354516
23
Frame 100  Energy = -425.5029875561 Hartree
C       0.27940682      1.17892358      0.09506442
C      -0.01774980      1.57765139      1.53751774
C       0.86958783      0.89950458      2.53972975
C       0.51002613      1.15149799      4.01132536
C       1.59661153      0.47861897      4.85224893
C       1.53359396      0.81652591      6.36071851
O       0.67848723      1.41894093      6.97000136
O       2.68178261      0.35796600      7.00669629
C       2.82220829      0.71642416      8.38139674
H      -0.35088828      1.66742293     -0.62008184
H       1.31181058      1.50324941     -0.17360010
H       0.13519243      0.07682568     -0.10474971
H      -1.07095370      1.26691966      1.73012390
H       0.03136425      2.66575572      1.63667622
H       0.82446828     -0.20497371      2.47952818
H       1.87096403      1.27901736      2.30639892
H       0.43899675      2.21520249      4.18894836
H      -0.47608402      0.70357057      4.26162017
H       1.51792791     -0.62688352      4.78244335
H       2.62061035      0.66031160      4.51470551
H       3.76052055      0.15909259      8.74537712
H       2.05545878      0.32623629      9.03265401
H       2.80643829      1.79315242      8.53727468
23
Frame 105  Energy = -425.5032115826 Hartree
C       0.28024462      1.17964979      0.09960118
C      -0.01585263      1.57995417      1.53824029
C       0.86783419      0.89768475      2.53823703
C       0.50964608      1.15057277      4.01126496
C       1.59330773      0.48055832      4.85512742
C       1.53421063      0.81504512      6.35861200
O       0.67936585      1.41599906      6.96754818
O       2.68214345      0.35770493      7.00681888
C       2.82465795      0.71630662      8.37948331
H      -0.34675183      1.66309796     -0.61919099
H       1.31670798      1.50791716     -0.17776794
H       0.14250569      0.07676248     -0.10435487
H      -1.08006529      1.25878567      1.73512478
H       0.03334504      2.65730960      1.64160505
H       0.82038460     -0.19376161      2.47955533
H       1.88255131      1.28089261      2.30602532
H       0.43805230      2.21562653      4.18768220
H      -0.48291122      0.70148845      4.25875845
H       1.52000396     -0.62594193      4.78655704
H       2.61746391      0.65684567      4.52286661
H       3.76565791      0.15568932      8.74968034
H       2.05181556      0.32506451      9.03338079
H       2.79708888      1.79601652      8.54068223
23
Frame 110  Energy = -425.5032713487 Hartree
C       0.28134424      1.18021634      0.10400991
C      -0.01450591      1.58202899      1.53892309
C       0.86618068      0.89596532      2.53685231
C       0.50929114      1.14954889      4.01108576
C       1.59006453      0.48236221      4.85826057
C       1.53515940      0.81363800      6.35657327
O       0.68020496      1.41297086      6.96497607
O       2.68232780      0.35756692      7.00681037
C       2.82729252      0.71592495      8.37777853
H      -0.34396484      1.66018222     -0.61903996
H       1.31998735      1.51088736     -0.18152064
H       0.15103433      0.07879481     -0.10266306
H      -1.08726058      1.25139180      1.73999173
H       0.03550006      2.65018180      1.64708986
H       0.81691897     -0.18297504      2.47808970
H       1.89418113      1.28151616      2.30651320
H       0.43700424      2.21690879      4.18763254
H      -0.48817955      0.70006387      4.25561746
H       1.52134389     -0.62471120      4.79101183
H       2.61457692      0.65475139      4.53065643
H       3.76816151      0.15558641      8.75243450
H       2.04664440      0.32287151      9.03312095
H       2.78893765      1.79893781      8.54369878
23
Frame 115  Energy = -425.5035273499 Hartree
C       0.28277786      1.18074253      0.10830994
C      -0.01366500      1.58379421      1.53952286
C       0.86460189      0.89454344      2.53564223
C       0.50888717      1.14843794      4.01087774
C       1.58686628      0.48404834      4.86167540
C       1.53634655      0.81233656      6.35470783
O       0.68105616      1.40992783      6.96224674
O       2.68238611      0.35751198      7.00678271
C       2.83001992      0.71536363      8.37626417
H      -0.34314753      1.65879394     -0.61953497
H       1.32184301      1.51243933     -0.18482052
H       0.16058718      0.08290123     -0.09993735
H      -1.09179891      1.24547791      1.74440748
H       0.03762725      2.64507853      1.65307900
H       0.81406298     -0.17353866      2.47499029
H       1.90530477      1.28030093      2.30843537
H       0.43617098      2.21892428      4.18828780
H      -0.49175534      0.69971386      4.25187275
H       1.52189243     -0.62312117      4.79542785
H       2.61214130      0.65417638      4.53774169
H       3.76785542      0.15872695      8.75356520
H       2.04027036      0.31995232      9.03182938
H       2.78244166      1.80164145      8.54592279
23
Frame 120  Energy = -425.5036528154 Hartree
C       0.28446715      1.18123850      0.11238260
C      -0.01329124      1.58520164      1.54006003
C       0.86309369      0.89347405      2.53449856
C       0.50845466      1.14718635      4.01060879
C       1.58359117      0.48562141      4.86532025
C       1.53777359      0.81097254      6.35308560
O       0.68189647      1.40686446      6.95945021
O       2.68227180      0.35757147      7.00663034
C       2.83279286      0.71450157      8.37489643
H      -0.34422505      1.65896374     -0.62065023
H       1.32229003      1.51246349     -0.18700346
H       0.17090583      0.08893160     -0.09612509
H      -1.09352804      1.24135246      1.74827810
H       0.03962220      2.64254288      1.65979380
H       0.81204916     -0.16660880      2.46998527
H       1.91471637      1.27713208      2.31145610
H       0.43557502      2.22152903      4.18935023
H      -0.49342489      0.70048512      4.24770645
H       1.52172996     -0.62138377      4.79993691
H       2.61010603      0.65476033      4.54401005
H       3.76496716      0.16513560      8.75298538
H       2.03330779      0.31662704      9.02906224
H       2.77798507      1.80376824      8.54718118
23
Frame 125  Energy = -425.5035587531 Hartree
C       0.28646150      1.18174878      0.11624132
C      -0.01346526      1.58622045      1.54050834
C       0.86174811      0.89273048      2.53346396
C       0.50796351      1.14594526      4.01044824
C       1.58039743      0.48701725      4.86931178
C       1.53945166      0.80947478      6.35172237
O       0.68276138      1.40369599      6.95655807
O       2.68213608      0.35772021      7.00634488
C       2.83563204      0.71342550      8.37379025
H      -0.34728988      1.66013435     -0.62208841
H       1.32125414      1.51108807     -0.18789930
H       0.18195385      0.09660868     -0.09115309
H      -1.09277897      1.23881459      1.75203718
H       0.04189221      2.64276471      1.66694481
H       0.81077389     -0.16250126      2.46319743
H       1.92179420      1.27224523      2.31512038
H       0.43526110      2.22400008      4.19110469
H      -0.49319024      0.70213011      4.24304292
H       1.52092768     -0.61917132      4.80444488
H       2.60833180      0.65665484      4.54969767
H       3.76013171      0.17469653      8.75077814
H       2.02614854      0.31301737      9.02464017
H       2.77536324      1.80508907      8.54795499
23
Frame 130  Energy = -425.5036973341 Hartree
C       0.28879538      1.18238077      0.11983398
C      -0.01416807      1.58680580      1.54096955
C       0.86067164      0.89237426      2.53264077
C       0.50745566      1.14475776      4.01023517
C       1.57722387      0.48821283      4.87352653
C       1.54122411      0.80792611      6.35064272
O       0.68368688      1.40051863      6.95363821
O       2.68192549      0.35792098      7.00598891
C       2.83845140      0.71219857      8.37296634
H      -0.35162819      1.66215448     -0.62331190
H       1.31875689      1.50841529     -0.18800733
H       0.19355550      0.10499949     -0.08514021
H      -1.08957502      1.23804539      1.75562507
H       0.04404436      2.64566037      1.67422916
H       0.81050904     -0.16192663      2.45451735
H       1.92627426      1.26540014      2.31997604
H       0.43514755      2.22623860      4.19333329
H      -0.49121332      0.70439460      4.23829909
H       1.51960903     -0.61620010      4.80887164
H       2.60667400      0.65962971      4.55428538
H       3.75384569      0.18723469      8.74681840
H       2.01921324      0.30922494      9.01881236
H       2.77457728      1.80545507      8.54806819
23
Frame 135  Energy = -425.5035892757 Hartree
C       0.29144849      1.18307170      0.12312145
C      -0.01527937      1.58692182      1.54142307
C       0.85992821      0.89232227      2.53207488
C       0.50701752      1.14356868      4.00988568
C       1.57410303      0.48920849      4.87785787
C       1.54317867      0.80648734      6.34977401
O       0.68464299      1.39726775      6.95074851
O       2.68162009      0.35805515      7.00551417
C       2.84108526      0.71092763      8.37232429
H      -0.35667885      1.66455358     -0.62419168
H       1.31498082      1.50439755     -0.18721965
H       0.20553622      0.11361412     -0.07802398
H      -1.08394767      1.23958940      1.75892485
H       0.04605563      2.65075847      1.68158159
H       0.81095168     -0.16504369      2.44383583
H       1.92840391      1.25658090      2.32620338
H       0.43524604      2.22783938      4.19599679
H      -0.48807529      0.70701397      4.23332593
H       1.51769854     -0.61262490      4.81331525
H       2.60514187      0.66372722      4.55835350
H       3.74700640      0.20191066      8.74118725
H       2.01278983      0.30522157      9.01137275
H       2.77515703      1.80482874      8.54789054
23
Frame 140  Energy = -425.5037782070 Hartree
C       0.29438390      1.18398805      0.12614112
C      -0.01686406      1.58668097      1.54177338
C       0.85957233      0.89249528      2.53167114
C       0.50654248      1.14235377      4.00944455
C       1.57102976      0.49004589      4.88227139
C       1.54533407      0.80504931      6.34915188
O       0.68545782      1.39403432      6.94786965
O       2.68113851      0.35823323      7.00487369
C       2.84340511      0.70954742      8.37193230
H      -0.36198549      1.66683380     -0.62418179
H       1.31041475      1.49956147     -0.18576529
H       0.21780894      0.12167728     -0.06995569
H      -1.07666600      1.24299240      1.76150671
H       0.04760983      2.65789791      1.68886757
H       0.81208664     -0.17112665      2.43142934
H       1.92773387      1.24570823      2.33347189
H       0.43562102      2.22864801      4.19925492
H      -0.48418768      0.71026193      4.22832618
H       1.51547681     -0.60863374      4.81752509
H       2.60364604      0.66894367      4.56156843
H       3.74015545      0.21782170      8.73416808
H       2.00709374      0.30155317      9.00237447
H       2.77724168      1.80316115      8.54712624
23
Frame 145  Energy = -425.5037255689 Hartree
C       0.29745045      1.18505746      0.12884081
C      -0.01891401      1.58619722      1.54212275
C       0.85958890      0.89288121      2.53143958
C       0.50598641      1.14123395      4.00893676
C       1.56808760      0.49065486      4.88673554
C       1.54762330      0.80364822      6.34869393
O       0.68618751      1.39088739      6.94502421
O       2.68058056      0.35837394      7.00404140
C       2.84530414      0.70817990      8.37176500
H      -0.36688876      1.66888731     -0.62287562
H       1.30559686      1.49443592     -0.18347923
H       0.23014093      0.12867287     -0.06119416
H      -1.06734414      1.24786939      1.76354325
H       0.04890701      2.66623911      1.69595265
H       0.81404755     -0.17942460      2.41753907
H       1.92460781      1.23317926      2.34169682
H       0.43619324      2.22860961      4.20297741
H      -0.48037697      0.71443906      4.22338912
H       1.51267976     -0.60457373      4.82144654
H       2.60207089      0.67505312      4.56418061
H       3.73392718      0.23415117      8.72646324
H       2.00240135      0.29795671      8.99201728
H       2.78051123      1.80048623      8.54571761
23
Frame 150  Energy = -425.5034318235 Hartree
C       0.30048060      1.18634279      0.13126643
C      -0.02134204      1.58554731      1.54248888
C       0.85995591      0.89345260      2.53140578
C       0.50547296      1.14020066      4.00841079
C       1.56529193      0.49101756      4.89116897
C       1.55010739      0.80222565      6.34845111
O       0.68680729      1.38777467      6.94216835
O       2.68009401      0.35847664      7.00304069
C       2.84672689      0.70677663      8.37171997
H      -0.37147078      1.67049703     -0.62041562
H       1.30076025      1.48929915     -0.18062531
H       0.24238920      0.13413585     -0.05214704
H      -1.05683111      1.25406259      1.76491846
H       0.04992112      2.67499060      1.70260041
H       0.81633264     -0.18930723      2.40238745
H       1.91967800      1.21919954      2.35063546
H       0.43732022      2.22777440      4.20684419
H      -0.47692560      0.71902437      4.21863562
H       1.50921068     -0.60061861      4.82501950
H       2.60019388      0.68197453      4.56628930
H       3.72991759      0.25021643      8.71865573
H       1.99907867      0.29445033      8.98012950
H       2.78528216      1.79668583      8.54376151
23
Frame 155  Energy = -425.5032984415 Hartree
C       0.30346612      1.18794560      0.13348866
C      -0.02397493      1.58486761      1.54283925
C       0.86056080      0.89404308      2.53156056
C       0.50504975      1.13929205      4.00784287
C       1.56258413      0.49124956      4.89565176
C       1.55283009      0.80085116      6.34852591
O       0.68727674      1.38476762      6.93940363
O       2.67964231      0.35861320      7.00195064
C       2.84760156      0.70548162      8.37167899
H      -0.37523134      1.67133109     -0.61643218
H       1.29663055      1.48449734     -0.17730486
H       0.25438928      0.13705385     -0.04274037
H      -1.04616166      1.26151775      1.76560764
H       0.05040756      2.68326027      1.70854126
H       0.81919459     -0.19990249      2.38646289
H       1.91352312      1.20415448      2.35986814
H       0.43867000      2.22620056      4.21103456
H      -0.47387691      0.72363236      4.21457958
H       1.50552946     -0.59731042      4.82809770
H       2.59757952      0.69000963      4.56773955
H       3.72935868      0.26527081      8.71121576
H       1.99669090      0.29131853      8.96682863
H       2.79123529      1.79221275      8.54126365
23
Frame 160  Energy = -425.5026788841 Hartree
C       0.30629857      1.18981790      0.13548913
C      -0.02676911      1.58428232      1.54329700
C       0.86124021      0.89465921      2.53181247
C       0.50483618      1.13847941      4.00727153
C       1.56003316      0.49144928      4.90009888
C       1.55571566      0.79948144      6.34883770
O       0.68762088      1.38179308      6.93669820
O       2.67920402      0.35876691      7.00075424
C       2.84789698      0.70428122      8.37165781
H      -0.37778184      1.67132407     -0.61089898
H       1.29382556      1.47997641     -0.17383495
H       0.26583766      0.13719200     -0.03275382
H      -1.03609607      1.26989417      1.76624943
H       0.05026885      2.69052310      1.71351073
H       0.82239891     -0.21029498      2.37019708
H       1.90658172      1.18897895      2.36954282
H       0.44002012      2.22409289      4.21502367
H      -0.47151940      0.72791006      4.21091508
H       1.50164634     -0.59462551      4.83070835
H       2.59410903      0.69877994      4.56839500
H       3.73291205      0.27914324      8.70461772
H       1.99574312      0.28881193      8.95226436
H       2.79786241      1.78724395      8.53793190
23
Frame 165  Energy = -425.5022736346 Hartree
C       0.30908362      1.19188707      0.13716114
C      -0.02960741      1.58381533      1.54380748
C       0.86200374      0.89516137      2.53219008
C       0.50474070      1.13779065      4.00659382
C       1.55761555      0.49163059      4.90450075
C       1.55887342      0.79816453      6.34941042
O       0.68780997      1.37890281      6.93397166
O       2.67880037      0.35896671      6.99946287
C       2.84754885      0.70323237      8.37164694
H      -0.37977811      1.67062540     -0.60427529
H       1.29299967      1.47588782     -0.17041517
H       0.27681138      0.13494161     -0.02253019
H      -1.02801650      1.27877338      1.76697135
H       0.04921445      2.69625987      1.71773975
H       0.82618493     -0.21999583      2.35363697
H       1.89963149      1.17364805      2.37921588
H       0.44142092      2.22126775      4.21893922
H      -0.47035240      0.73154108      4.20794380
H       1.49745634     -0.59268401      4.83305717
H       2.58968409      0.70823270      4.56898534
H       3.74106261      0.29130894      8.69917989
H       1.99596979      0.28636926      8.93705843
H       2.80496090      1.78201184      8.53411492
23
Frame 170  Energy = -425.5023608291 Hartree
C       0.31164363      1.19410180      0.13857640
C      -0.03233864      1.58352146      1.54437017
C       0.86285248      0.89543295      2.53279818
C       0.50486200      1.13729113      4.00592330
C       1.55547580      0.49172392      4.90872620
C       1.56215764      0.79684335      6.35033164
O       0.68786857      1.37606938      6.93125576
O       2.67844413      0.35917705      6.99800909
C       2.84654264      0.70239264      8.37152248
H      -0.38107525      1.66848980     -0.59667514
H       1.29484151      1.47304020     -0.16731237
H       0.28721028      0.13073281     -0.01216608
H      -1.02306028      1.28776507      1.76776516
H       0.04769806      2.69966341      1.72115117
H       0.83008121     -0.22819344      2.33702432
H       1.89365728      1.15891046      2.38845024
H       0.44286529      2.21800489      4.22283704
H      -0.47076942      0.73444836      4.20559866
H       1.49291264     -0.59172887      4.83523039
H       2.58483560      0.71806266      4.56933809
H       3.75349185      0.30144199      8.69469920
H       1.99704663      0.28408368      8.92202451
H       2.81260044      1.77685143      8.53037379
23
Frame 175  Energy = -425.5024376126 Hartree
C       0.31391297      1.19635466      0.13977243
C      -0.03484253      1.58345908      1.54493244
C       0.86367487      0.89536343      2.53364874
C       0.50513308      1.13689826      4.00522153
C       1.55363132      0.49175377      4.91274408
C       1.56538696      0.79556506      6.35157701
O       0.68774664      1.37336448      6.92863716
O       2.67810811      0.35932630      6.99638171
C       2.84498253      0.70167557      8.37119652
H      -0.38149056      1.66573130     -0.58807477
H       1.29976749      1.47140779     -0.16424647
H       0.29649219      0.12466953     -0.00170628
H      -1.02177866      1.29607311      1.76887798
H       0.04572751      2.70097251      1.72348811
H       0.83369062     -0.23400466      2.32093924
H       1.88952838      1.14506170      2.39716896
H       0.44441706      2.21479610      4.22677505
H      -0.47290515      0.73658847      4.20382729
H       1.48814087     -0.59189762      4.83715379
H       2.57965008      0.72816637      4.56945734
H       3.76977603      0.30978369      8.69133859
H       1.99839135      0.28177364      8.90737710
H       2.82033271      1.77235853      8.52622872
23
Frame 180  Energy = -425.5025504492 Hartree
C       0.31599169      1.19868936      0.14064660
C      -0.03704144      1.58370166      1.54555804
C       0.86435733      0.89489110      2.53461697
C       0.50543471      1.13655461      4.00460696
C       1.55206352      0.49166902      4.91653055
C       1.56866516      0.79437756      6.35311045
O       0.68750416      1.37069776      6.92612062
O       2.67779500      0.35944048      6.99460596
C       2.84311908      0.70098737      8.37067643
H      -0.38125413      1.66256747     -0.57886053
H       1.30702838      1.47135041     -0.16124826
H       0.30460978      0.11702617      0.00889712
H      -1.02476630      1.30361538      1.77057409
H       0.04358155      2.70015729      1.72470277
H       0.83718545     -0.23687754      2.30546243
H       1.88803256      1.13252934      2.40498438
H       0.44611114      2.21152536      4.23042857
H      -0.47664478      0.73821511      4.20259391
H       1.48347309     -0.59339653      4.83841719
H       2.57400450      0.73836928      4.56942080
H       3.78878045      0.31618915      8.68834578
H       1.99969943      0.27902462      8.89376007
H       2.82795219      1.76928221      8.52199825
23
Frame 185  Energy = -425.5027172492 Hartree
C       0.31793586      1.20098641      0.14129979
C      -0.03885380      1.58440553      1.54629526
C       0.86497396      0.89393670      2.53569920
C       0.50584227      1.13632063      4.00402900
C       1.55076880      0.49149530      4.92002266
C       1.57202950      0.79334402      6.35491080
O       0.68717836      1.36812014      6.92371941
O       2.67751324      0.35962272      6.99265123
C       2.84095111      0.70032761      8.37005447
H      -0.38045243      1.65879153     -0.56983101
H       1.31603139      1.47283026     -0.15854552
H       0.31184016      0.10845542      0.01940648
H      -1.03217673      1.31044372      1.77272884
H       0.04114655      2.69705633      1.72482252
H       0.84107351     -0.23641999      2.29085244
H       1.89011820      1.12162095      2.41177042
H       0.44793252      2.20843255      4.23345863
H      -0.48183501      0.73922193      4.20202294
H       1.47894773     -0.59595729      4.83925363
H       2.56774426      0.74833595      4.56912164
H       3.80866379      0.32110530      8.68566729
H       2.00076510      0.27580576      8.88142306
H       2.83522082      1.76775515      8.51758519
23
Frame 190  Energy = -425.5030009177 Hartree
C       0.31972915      1.20321561      0.14173535
C      -0.04032494      1.58543256      1.54717467
C       0.86545659      0.89257289      2.53681416
C       0.50629992      1.13604689      4.00354635
C       1.54975898      0.49125897      4.92318399
C       1.57538573      0.79239086      6.35705035
O       0.68667017      1.36567402      6.92155444
O       2.67737084      0.35979754      6.99055536
C       2.83874178      0.69972114      8.36936239
H      -0.37928305      1.65490292     -0.56126551
H       1.32644198      1.47560354     -0.15622642
H       0.31809516      0.10012200      0.03014770
H      -1.04327696      1.31666408      1.77540148
H       0.03842058      2.69186112      1.72390741
H       0.84479366     -0.23281638      2.27754209
H       1.89586374      1.11264760      2.41741396
H       0.45008527      2.20548810      4.23590779
H      -0.48795182      0.73973732      4.20239566
H       1.47475521     -0.59912777      4.83972732
H       2.56096291      0.75797542      4.56849939
H       3.82820333      0.32500480      8.68278663
H       2.00130622      0.27166274      8.87149897
H       2.84209761      1.76756037      8.51258084
23
Frame 195  Energy = -425.5028417111 Hartree
C       0.32143696      1.20528794      0.14200456
C      -0.04149159      1.58669281      1.54812467
C       0.86587724      0.89077138      2.53796320
C       0.50685672      1.13578848      4.00317613
C       1.54899593      0.49082716      4.92604057
C       1.57879102      0.79144015      6.35948266
O       0.68603184      1.36330706      6.91957912
O       2.67737233      0.36002033      6.98826414
C       2.83669217      0.69915270      8.36851301
H      -0.37838077      1.65071177     -0.55333120
H       1.33800775      1.47950297     -0.15361512
H       0.32333137      0.09278671      0.04074416
H      -1.05718457      1.32223276      1.77880374
H       0.03547339      2.68471712      1.72217149
H       0.84812576     -0.22637615      2.26584199
H       1.90492961      1.10539401      2.42213319
H       0.45244111      2.20296089      4.23810111
H      -0.49452926      0.73992905      4.20306065
H       1.47104250     -0.60246590      4.83995181
H       2.55364093      0.76714874      4.56730358
H       3.84591495      0.32834255      8.67952989
H       2.00103034      0.26678427      8.86395000
H       2.84869957      1.76891199      8.50734743
23
Frame 200  Energy = -425.5028415368 Hartree
C       0.32311460      1.20710790      0.14224915
C      -0.04230748      1.58811217      1.54917759
C       0.86624350      0.88851904      2.53909164
C       0.50734351      1.13547492      4.00291861
C       1.54845754      0.49026965      4.92861125
C       1.58222234      0.79060736      6.36207540
O       0.68523467      1.36104872      6.91778407
O       2.67743232      0.36022239      6.98581726
C       2.83490156      0.69860605      8.36750263
H      -0.37795902      1.64626127     -0.54668197
H       1.34966717      1.48445511     -0.15042123
H       0.32744246      0.08669349      0.05094610
H      -1.07270089      1.32693499      1.78251151
H       0.03241473      2.67646490      1.71972835
H       0.85089332     -0.21692532      2.25588505
H       1.91661322      1.09982760      2.42577772
H       0.45474142      2.20090211      4.23999180
H      -0.50087919      0.74026710      4.20365476
H       1.46820587     -0.60612258      4.83995270
H       2.54601543      0.77579982      4.56573088
H       3.86093611      0.33142821      8.67554865
H       1.99991863      0.26123192      8.85929493
H       2.85451364      1.77182779      8.50225774
23
Frame 205  Energy = -425.5026868008 Hartree
C       0.32493893      1.20875708      0.14250659
C      -0.04291369      1.58975128      1.55034988
C       0.86648246      0.88595881      2.54026319
C       0.50781973      1.13507473      4.00281920
C       1.54816370      0.48966321      4.93083686
C       1.58546147      0.78988702      6.36481200
O       0.68432380      1.35886116      6.91616672
O       2.67751601      0.36041269      6.98337487
C       2.83350229      0.69797963      8.36637045
H      -0.37822237      1.64209020     -0.54196951
H       1.36046854      1.49039366     -0.14658734
H       0.33060411      0.08260031      0.06075345
H      -1.08915218      1.33125267      1.78585231
H       0.02936908      2.66749609      1.71685453
H       0.85303549     -0.20530725      2.24743548
H       1.93011267      1.09610493      2.42829299
H       0.45700845      2.19947489      4.24153139
H      -0.50668689      0.74080980      4.20425026
H       1.46634366     -0.60966943      4.83956321
H       2.53841810      0.78375838      4.56364236
H       3.87281937      0.33423723      8.67080455
H       1.99831064      0.25495387      8.85748033
H       2.85960195      1.77605853      8.49735656
23
Frame 210  Energy = -425.5026035227 Hartree
C       0.32696404      1.21021450      0.14277914
C      -0.04351544      1.59146518      1.55174581
C       0.86665920      0.88315926      2.54152765
C       0.50815279      1.13455048      4.00280452
C       1.54807832      0.48882963      4.93258595
C       1.58849750      0.78914545      6.36760510
O       0.68330377      1.35677640      6.91471410
O       2.67781385      0.36059152      6.98084860
C       2.83248589      0.69723691      8.36499089
H      -0.37911685      1.63807626     -0.53911809
H       1.36978118      1.49708329     -0.14204164
H       0.33296628      0.08093186      0.06985483
H      -1.10512492      1.33496581      1.78863503
H       0.02681953      2.65870902      1.71372315
H       0.85450061     -0.19216052      2.24058383
H       1.94419150      1.09388298      2.42986831
H       0.45947606      2.19855602      4.24272961
H      -0.51186701      0.74155428      4.20488040
H       1.46528420     -0.61270492      4.83892097
H       2.53107529      0.79120501      4.56123138
H       3.88076009      0.33700663      8.66507830
H       1.99620817      0.24788484      8.85847229
H       2.86364155      1.78103563      8.49212696
23
Frame 215  Energy = -425.5026023892 Hartree
C       0.32925714      1.21149263      0.14306879
C      -0.04424137      1.59322235      1.55321937
C       0.86676270      0.88012606      2.54283317
C       0.50838222      1.13391801      4.00290606
C       1.54810202      0.48783940      4.93391018
C       1.59137310      0.78845862      6.37048291
O       0.68218721      1.35480651      6.91341169
O       2.67838955      0.36069460      6.97828564
C       2.83178900      0.69637328      8.36339505
H      -0.38094257      1.63436467     -0.53797619
H       1.37722162      1.50400194     -0.13714896
H       0.33448495      0.08182397      0.07803550
H      -1.11952638      1.33834105      1.79047110
H       0.02443044      2.65179365      1.71016177
H       0.85536211     -0.17865079      2.23532527
H       1.95793375      1.09322394      2.43058702
H       0.46215495      2.19813257      4.24335206
H      -0.51604683      0.74268256      4.20544229
H       1.46473377     -0.61471970      4.83819228
H       2.52399586      0.79779880      4.55836990
H       3.88454586      0.33982469      8.65833452
H       1.99379869      0.24028302      8.86199759
H       2.86675219      1.78628342      8.48698000
23
Frame 220  Energy = -425.5026277454 Hartree
C       0.33181701      1.21243278      0.14338427
C      -0.04508624      1.59485787      1.55494541
C       0.86704775      0.87708951      2.54416897
C       0.50841106      1.13318409      4.00319881
C       1.54833493      0.48670060      4.93487170
C       1.59395583      0.78790633      6.37345009
O       0.68095634      1.35300386      6.91242451
O       2.67920088      0.36075454      6.97578669
C       2.83147294      0.69560116      8.36173587
H      -0.38369954      1.63114488     -0.53879348
H       1.38229085      1.51097937     -0.13179034
H       0.33519456      0.08507905      0.08545529
H      -1.13158773      1.34172928      1.79111968
H       0.02205333      2.64730787      1.70631533
H       0.85531303     -0.16564318      2.23168566
H       1.97042601      1.09402540      2.43039079
H       0.46494890      2.19839582      4.24339943
H      -0.51874886      0.74463032      4.20566596
H       1.46508956     -0.61584972      4.83733029
H       2.51775526      0.80371165      4.55464495
H       3.88376256      0.34242261      8.65091285
H       1.99094119      0.23235218      8.86766478
H       2.86880003      1.79137116      8.48200666
23
Frame 225  Energy = -425.5023582945 Hartree
C       0.33469047      1.21309850      0.14373552
C      -0.04601721      1.59624903      1.55697375
C       0.86742198      0.87412747      2.54561079
C       0.50828391      1.13224724      4.00383329
C       1.54867454      0.48524254      4.93548083
C       1.59615788      0.78743054      6.37634751
O       0.67958281      1.35131922      6.91154325
O       2.68028212      0.36074324      6.97328924
C       2.83147065      0.69490040      8.35995332
H      -0.38691265      1.62794257     -0.54183564
H       1.38479152      1.51827771     -0.12612381
H       0.33587169      0.09070225      0.09211831
H      -1.14062210      1.34523469      1.79087099
H       0.02002128      2.64588104      1.70277648
H       0.85431652     -0.15401156      2.22981440
H       1.98038120      1.09619413      2.42925194
H       0.46767116      2.19917425      4.24314302
H      -0.52020345      0.74714534      4.20592956
H       1.46627231     -0.61632669      4.83644264
H       2.51333363      0.80865466      4.55053922
H       3.87885098      0.34525894      8.64267940
H       1.98796794      0.22432720      8.87541808
H       2.86959265      1.79593344      8.47705183
23
Frame 230  Energy = -425.5023244351 Hartree
C       0.33779451      1.21362271      0.14422239
C      -0.04704275      1.59743055      1.55911827
C       0.86804615      0.87132841      2.54703277
C       0.50795477      1.13116190      4.00468647
C       1.54917337      0.48339941      4.93569392
C       1.59796076      0.78706477      6.37917102
O       0.67806857      1.34977201      6.91083573
O       2.68170784      0.36061809      6.97085187
C       2.83175503      0.69419889      8.35810655
H      -0.39046787      1.62487244     -0.54632385
H       1.38488037      1.52599756     -0.11991924
H       0.33600218      0.09836351      0.09828322
H      -1.14634141      1.34936585      1.78953447
H       0.01789112      2.64788460      1.69946767
H       0.85224453     -0.14512783      2.22920626
H       1.98725159      1.09964964      2.42773080
H       0.47056563      2.20026426      4.24187440
H      -0.52023412      0.74985848      4.20608259
H       1.46835708     -0.61610422      4.83592673
H       2.51056312      0.81242304      4.54577690
H       3.87023060      0.34818708      8.63377437
H       1.98577801      0.21672086      8.88426538
H       2.86896405      1.79945622      8.47198035
23
Frame 235  Energy = -425.5023556646 Hartree
C       0.34092193      1.21392401      0.14478451
C      -0.04830595      1.59842622      1.56139207
C       0.86889635      0.86878543      2.54849816
C       0.50747113      1.12999106      4.00577121
C       1.54972853      0.48136744      4.93559396
C       1.59934512      0.78675639      6.38196261
O       0.67642767      1.34832468      6.91044090
O       2.68343368      0.36045671      6.96857183
C       2.83235614      0.69364909      8.35625377
H      -0.39387803      1.62159793     -0.55213421
H       1.38241503      1.53363021     -0.11358561
H       0.33586279      0.10752738      0.10397214
H      -1.14844966      1.35364871      1.78730698
H       0.01608947      2.65327385      1.69688465
H       0.84929374     -0.13994319      2.22933332
H       1.99071214      1.10395533      2.42568811
H       0.47359006      2.20133984      4.23978722
H      -0.51883761      0.75293533      4.20610608
H       1.47145332     -0.61532622      4.83514403
H       2.50908687      0.81521692      4.54033630
H       3.85846653      0.35073283      8.62468895
H       1.98499849      0.20983050      8.89376451
H       2.86696890      1.80106902      8.46683556
23
Frame 240  Energy = -425.5025223292 Hartree
C       0.34402057      1.21420505      0.14545406
C      -0.04963777      1.59925894      1.56383823
C       0.86999838      0.86661975      2.55000425
C       0.50687874      1.12876417      4.00706047
C       1.55040689      0.47923091      4.93524009
C       1.60031486      0.78656340      6.38455895
O       0.67466724      1.34690554      6.91027232
O       2.68545520      0.36025893      6.96642359
C       2.83305375      0.69318789      8.35449539
H      -0.39669705      1.61811676     -0.55900021
H       1.37760348      1.54120539     -0.10654902
H       0.33562481      0.11743147      0.10867846
H      -1.14672340      1.35810922      1.78464040
H       0.01487727      2.66149165      1.69472561
H       0.84583139     -0.13873591      2.23014741
H       1.99082179      1.10872924      2.42293319
H       0.47693043      2.20211365      4.23687385
H      -0.51612313      0.75592004      4.20623403
H       1.47501799     -0.61447602      4.83406984
H       2.50865596      0.81710086      4.53434342
H       3.84452014      0.35274880      8.61606949
H       1.98620737      0.20441105      8.90388110
H       2.86384253      1.80133257      8.46187218
23
Frame 245  Energy = -425.5022060758 Hartree
C       0.34703229      1.21444190      0.14609545
C      -0.05091579      1.60003672      1.56650746
C       0.87132085      0.86492377      2.55148956
C       0.50620901      1.12745677      4.00859464
C       1.55120069      0.47699645      4.93461757
C       1.60082452      0.78649617      6.38702583
O       0.67278948      1.34558009      6.91030240
O       2.68771282      0.36003505      6.96440704
C       2.83375014      0.69278522      8.35273427
H      -0.39838022      1.61409247     -0.56658000
H       1.37132168      1.54901539     -0.09965210
H       0.33523947      0.12761648      0.11238787
H      -1.14143266      1.36229976      1.78094480
H       0.01447272      2.67213147      1.69274761
H       0.84170408     -0.14160567      2.23182112
H       1.98719858      1.11421980      2.41990310
H       0.48028861      2.20304358      4.23306301
H      -0.51277413      0.75873435      4.20664228
H       1.47894737     -0.61342266      4.83281735
H       2.50907022      0.81762822      4.52803732
H       3.82928339      0.35365078      8.60834840
H       1.98976296      0.20077019      8.91395105
H       2.85928125      1.80052557      8.45745066
23
Frame 250  Energy = -425.5023556173 Hartree
C       0.35001166      1.21471773      0.14677947
C      -0.05216660      1.60075761      1.56930513
C       0.87280641      0.86360290      2.55298834
C       0.50545038      1.12610101      4.01026420
C       1.55209283      0.47468399      4.93371244
C       1.60085552      0.78645167      6.38920973
O       0.67079142      1.34428168      6.91052016
O       2.69010006      0.35977196      6.96246421
C       2.83442239      0.69254490      8.35092277
H      -0.39855714      1.60915405     -0.57460140
H       1.36398914      1.55664130     -0.09276879
H       0.33487751      0.13695427      0.11502002
H      -1.13306743      1.36582574      1.77657902
H       0.01463866      2.68407149      1.69094853
H       0.83716028     -0.14868172      2.23409926
H       1.98009258      1.12039138      2.41670126
H       0.48353750      2.20390523      4.22839398
H      -0.50902244      0.76159472      4.20762179
H       1.48365426     -0.61226892      4.83169256
H       2.51036203      0.81665453      4.52142196
H       3.81436169      0.35338161      8.60144070
H       1.99584211      0.19908379      8.92388173
H       2.85314903      1.79834139      8.45360675
23
Frame 255  Energy = -425.5024124194 Hartree
C       0.35272961      1.21502537      0.14754083
C      -0.05337222      1.60155171      1.57209242
C       0.87442132      0.86267302      2.55448587
C       0.50464626      1.12464735      4.01204071
C       1.55309136      0.47233304      4.93251661
C       1.60055687      0.78644872      6.39105495
O       0.66874542      1.34305083      6.91092602
O       2.69266429      0.35947505      6.96066513
C       2.83494231      0.69247494      8.34916789
H      -0.39679043      1.60355367     -0.58243961
H       1.35622480      1.56429274     -0.08614265
H       0.33461287      0.14424275      0.11658440
H      -1.12212800      1.36881919      1.77207534
H       0.01523689      2.69643613      1.68942029
H       0.83203331     -0.15912465      2.23683644
H       1.97013647      1.12687776      2.41306421
H       0.48674409      2.20481534      4.22302006
H      -0.50521916      0.76414804      4.20876615
H       1.48891256     -0.61143034      4.83008053
H       2.51225406      0.81439251      4.51493766
H       3.80091432      0.35163319      8.59559112
H       2.00422483      0.19880559      8.93303891
H       2.84590670      1.79465479      8.44994528
23
Frame 260  Energy = -425.5023810432 Hartree
C       0.35521519      1.21549401      0.14825531
C      -0.05457759      1.60241036      1.57488099
C       0.87610192      0.86215762      2.55597835
C       0.50387310      1.12321991      4.01395575
C       1.55417107      0.47000036      4.93104980
C       1.59986551      0.78650185      6.39247131
O       0.66663825      1.34190357      6.91154664
O       2.69540510      0.35915684      6.95902720
C       2.83520904      0.69255770      8.34732428
H      -0.39325681      1.59741700     -0.58976809
H       1.34899309      1.57213311     -0.07994363
H       0.33429204      0.14905871      0.11707919
H      -1.10970015      1.37143626      1.76805088
H       0.01608379      2.70859674      1.68830843
H       0.82604847     -0.17254514      2.24040698
H       1.95764730      1.13379201      2.40911234
H       0.49032706      2.20552264      4.21723461
H      -0.50176677      0.76652217      4.21029006
H       1.49460652     -0.61098636      4.82830959
H       2.51467029      0.81106961      4.50867545
H       3.79039808      0.34777007      8.59109703
H       2.01483812      0.20015370      8.94130479
H       2.83762647      1.78986058      8.44722213
23
Frame 265  Energy = -425.5024697542 Hartree
C       0.35738250      1.21610565      0.14894965
C      -0.05555737      1.60357422      1.57771720
C       0.87775338      0.86191871      2.55747579
C       0.50315822      1.12178749      4.01607364
C       1.55530405      0.46772383      4.92939863
C       1.59881419      0.78655809      6.39346775
O       0.66446134      1.34080629      6.91239923
O       2.69831191      0.35871188      6.95745622
C       2.83518015      0.69272006      8.34546220
H      -0.38798326      1.59074604     -0.59619734
H       1.34264637      1.58034263     -0.07415894
H       0.33438904      0.15128324      0.11608278
H      -1.09724578      1.37344227      1.76416779
H       0.01710765      2.71963553      1.68755782
H       0.81985071     -0.18777870      2.24513514
H       1.94306898      1.14095662      2.40502735
H       0.49402111      2.20565387      4.21118453
H      -0.49908681      0.76817533      4.21254241
H       1.50071457     -0.61119094      4.82658528
H       2.51768413      0.80633240      4.50252740
H       3.78387230      0.34170468      8.58791788
H       2.02723049      0.20300978      8.94859128
H       2.82861086      1.78450520      8.44531027
23
Frame 270  Energy = -425.5026181466 Hartree
C       0.35924915      1.21686428      0.14969941
C      -0.05632033      1.60496880      1.58052987
C       0.87933492      0.86180606      2.55899854
C       0.50255060      1.12027291      4.01830980
C       1.55658467      0.46547653      4.92747620
C       1.59732752      0.78666281      6.39410482
O       0.66235280      1.33977222      6.91348620
O       2.70130911      0.35818953      6.95598391
C       2.83488624      0.69298749      8.34357356
H      -0.38081154      1.58384986     -0.60189801
H       1.33790249      1.58883916     -0.06897730
H       0.33497744      0.15061215      0.11395452
H      -1.08568888      1.37439056      1.76047392
H       0.01811647      2.72849120      1.68747389
H       0.81365434     -0.20374356      2.25109057
H       1.92783679      1.14827562      2.40093200
H       0.49785826      2.20540928      4.20502104
H      -0.49784828      0.76898033      4.21542779
H       1.50724220     -0.61287291      4.82469912
H       2.52088715      0.80038020      4.49665277
H       3.78161341      0.33329801      8.58623464
H       2.04073079      0.20703541      8.95474075
H       2.81901340      1.77883731      8.44401903
23
Frame 275  Energy = -425.5024011974 Hartree
C       0.36070277      1.21774912      0.15047948
C      -0.05669415      1.60660426      1.58318243
C       0.88071159      0.86178710      2.56053078
C       0.50206612      1.11878385      4.02065426
C       1.55808250      0.46323583      4.92534306
C       1.59545292      0.78680577      6.39431927
O       0.66027004      1.33881501      6.91477935
O       2.70438332      0.35771397      6.95471954
C       2.83434105      0.69335334      8.34170708
H      -0.37204818      1.57710439     -0.60661434
H       1.33521839      1.59759405     -0.06465106
H       0.33600874      0.14732645      0.11086305
H      -1.07603108      1.37416309      1.75727899
H       0.01917852      2.73505952      1.68771547
H       0.80783590     -0.21954413      2.25821871
H       1.91287933      1.15597165      2.39628776
H       0.50200502      2.20475822      4.19857892
H      -0.49830859      0.76866326      4.21866880
H       1.51398714     -0.61618603      4.82269065
H       2.52400744      0.79324064      4.49120479
H       3.78359659      0.32326542      8.58572434
H       2.05522578      0.21230755      8.95983930
H       2.80870008      1.77306119      8.44369264
23
Frame 280  Energy = -425.5023803787 Hartree
C       0.36176066      1.21876632      0.15133900
C      -0.05668601      1.60854779      1.58560682
C       0.88183817      0.86164043      2.56208898
C       0.50168234      1.11725453      4.02309036
C       1.55982063      0.46099164      4.92297817
C       1.59321411      0.78698870      6.39411572
O       0.65811069      1.33788432      6.91627856
O       2.70749940      0.35718082      6.95352910
C       2.83361047      0.69371205      8.33979106
H      -0.36193917      1.57036905     -0.61051538
H       1.33463551      1.60652740     -0.06109170
H       0.33784078      0.14196705      0.10690727
H      -1.06922365      1.37285136      1.75493195
H       0.02049510      2.73876717      1.68823294
H       0.80268772     -0.23399393      2.26704279
H       1.89881895      1.16418475      2.39135984
H       0.50629861      2.20368713      4.19175144
H      -0.49991866      0.76821787      4.22243688
H       1.52098138     -0.62056453      4.82064985
H       2.52679177      0.78534820      4.48643147
H       3.78923336      0.31193584      8.58687237
H       2.07012845      0.21796484      8.96426389
H       2.79802077      1.76751310      8.44403247
23
Frame 285  Energy = -425.5025473417 Hartree
C       0.36244776      1.21981784      0.15224485
C      -0.05615226      1.61076958      1.58783787
C       0.88258604      0.86137016      2.56358855
C       0.50150134      1.11575802      4.02547596
C       1.56184590      0.45887929      4.92037852
C       1.59058533      0.78722282      6.39350060
O       0.65589392      1.33700356      6.91789726
O       2.71056119      0.35662872      6.95246404
C       2.83281225      0.69395693      8.33783086
H      -0.35096710      1.56391895     -0.61389964
H       1.33623894      1.61575692     -0.05834822
H       0.34076805      0.13510252      0.10200487
H      -1.06635543      1.37031495      1.75359192
H       0.02181234      2.73969893      1.68918845
H       0.79810863     -0.24616691      2.27753733
H       1.88657465      1.17303279      2.38596732
H       0.51054381      2.20222920      4.18507332
H      -0.50241867      0.76734912      4.22703214
H       1.52827743     -0.62583847      4.81853550
H       2.52934305      0.77674580      4.48274338
H       3.79762081      0.30007153      8.58930822
H       2.08492747      0.22380800      8.96817657
H       2.78707932      1.76299652      8.44471505
23
Frame 290  Energy = -425.5023721795 Hartree
C       0.36284770      1.22085449      0.15317782
C      -0.05509399      1.61336043      1.58977665
C       0.88280424      0.86089079      2.56500715
C       0.50145598      1.11427666      4.02773976
C       1.56410058      0.45678408      4.91759862
C       1.58771156      0.78739552      6.39241265
O       0.65356869      1.33611795      6.91962285
O       2.71361774      0.35612683      6.95150957
C       2.83205464      0.69404722      8.33574248
H      -0.33951153      1.55795442     -0.61682940
H       1.33996206      1.62492199     -0.05637768
H       0.34470488      0.12751152      0.09645927
H      -1.06718586      1.36621378      1.75344000
H       0.02324510      2.73819238      1.69048147
H       0.79432346     -0.25558674      2.28965281
H       1.87707937      1.18219489      2.38058142
H       0.51479180      2.20042088      4.17872338
H      -0.50553702      0.76622540      4.23184197
H       1.53566186     -0.63153536      4.81647803
H       2.53176189      0.76757390      4.47975627
H       3.80760018      0.28816027      8.59297173
H       2.09873118      0.22950284      8.97204346
H       2.77602577      1.75996954      8.44596417
23
Frame 295  Energy = -425.5024585970 Hartree
C       0.36309023      1.22188581      0.15415778
C      -0.05374626      1.61613568      1.59143976
C       0.88250371      0.86013508      2.56639065
C       0.50154236      1.11274498      4.03003729
C       1.56668980      0.45473048      4.91467072
C       1.58457931      0.78755258      6.39096363
O       0.65125924      1.33526501      6.92161424
O       2.71660008      0.35561996      6.95064941
C       2.83156435      0.69404506      8.33372587
H      -0.32801453      1.55269576     -0.61935949
H       1.34488742      1.63398039     -0.05509606
H       0.34928743      0.11979664      0.09058312
H      -1.07117820      1.36073004      1.75419450
H       0.02506753      2.73417592      1.69196056
H       0.79150779     -0.26191278      2.30300148
H       1.87064821      1.19200532      2.37460565
H       0.51883369      2.19819459      4.17299074
H      -0.50914484      0.76468167      4.23687129
H       1.54287791     -0.63755990      4.81434016
H       2.53385615      0.75805797      4.47729410
H       3.81800866      0.27703391      8.59722714
H       2.11064568      0.23440759      8.97556094
H       2.76506662      1.75858736      8.44789575
23
Frame 300  Energy = -425.5024400180 Hartree
C       0.36323485      1.22292748      0.15522286
C      -0.05209789      1.61899357      1.59281631
C       0.88163527      0.85913942      2.56771825
C       0.50175897      1.11106081      4.03238609
C       1.56945414      0.45271954      4.91167218
C       1.58130977      0.78770094      6.38916514
O       0.64895538      1.33447010      6.92387799
O       2.71949938      0.35508594      6.94991990
C       2.83138075      0.69390248      8.33174203
H      -0.31695161      1.54809210     -0.62225489
H       1.35035602      1.64275644     -0.05387337
H       0.35476841      0.11293167      0.08410951
H      -1.07781211      1.35433429      1.75563578
H       0.02719070      2.72798961      1.69392264
H       0.78950722     -0.26501523      2.31733511
H       1.86734095      1.20262841      2.36859982
H       0.52260016      2.19611737      4.16779183
H      -0.51336132      0.76275640      4.24218286
H       1.54991509     -0.64391040      4.81209442
H       2.53568910      0.74857946      4.47557028
H       3.82803593      0.26710703      8.60152231
H       2.11995271      0.23842881      8.97922805
H       2.75452790      1.75865517      8.45063758
