23
Frame 5  Energy = -425.5048484853 Hartree
C       0.14226203      1.13359730      0.06191983
C      -0.13014847      1.49575150      1.51030530
C       0.92063683      0.88711860      2.46877954
C       0.64801497      1.18527600      3.96038069
C       1.68693153      0.54568785      4.87458870
C       1.55605917      0.92140106      6.40643607
O       0.65251168      1.57321218      6.91154263
O       2.62544051      0.38759281      7.04242611
C       2.70956006      0.70726804      8.45094956
H      -0.44178874      1.71264823     -0.64283254
H       1.20046863      1.23791470     -0.28296381
H      -0.17281564      0.09274712     -0.13309659
H      -1.16579511      1.14342886      1.85577759
H      -0.10043896      2.55248771      1.61865971
H       0.89460122     -0.17148020      2.30464711
H       1.98252639      1.24571910      2.28939141
H       0.53036081      2.26239064      4.15001112
H      -0.36510330      0.72410911      4.13337806
H       1.64401549     -0.53707349      4.73181975
H       2.69841753      0.77035472      4.52235450
H       3.57646516      0.10886513      8.87768519
H       1.79762952      0.42909584      9.00389067
H       2.77438247      1.80217254      8.57023952
23
Frame 10  Energy = -425.5044881382 Hartree
C       0.14492727      1.13399685      0.05929070
C      -0.13056791      1.49548914      1.50787249
C       0.92075200      0.88912639      2.47060349
C       0.64657950      1.18438679      3.96192431
C       1.68669098      0.54402263      4.87850598
C       1.55672168      0.91901662      6.40953105
O       0.65127235      1.57254869      6.91288998
O       2.62655564      0.38639425      7.03933690
C       2.71004536      0.70636028      8.45013020
H      -0.44758010      1.72093386     -0.64248812
H       1.19742892      1.23268017     -0.28117041
H      -0.16665073      0.09902241     -0.13261182
H      -1.15631848      1.14994150      1.84869668
H      -0.10169856      2.56028514      1.61399495
H       0.89495584     -0.17420134      2.29444670
H       1.97568073      1.23773026      2.29157410
H       0.52911349      2.26322197      4.15555092
H      -0.35982802      0.72768812      4.13692133
H       1.64137104     -0.53785898      4.73888390
H       2.69729419      0.77363716      4.52573883
H       3.57003441      0.12398538      8.86377099
H       1.79839995      0.43090405      9.00116370
H       2.78361106      1.80319960      8.56851012
23
Frame 15  Energy = -425.5043473190 Hartree
C       0.14755191      1.13423717      0.05647978
C      -0.13091085      1.49509946      1.50556268
C       0.92090262      0.89139529      2.47255115
C       0.64491384      1.18340544      3.96347516
C       1.68636543      0.54239389      4.88259852
C       1.55723092      0.91665930      6.41230452
O       0.65026915      1.57172153      6.91420524
O       2.62756662      0.38524726      7.03642116
C       2.71055326      0.70541151      8.44932473
H      -0.45360965      1.72996427     -0.64210347
H       1.19308463      1.22757392     -0.27800330
H      -0.16009925      0.10503139     -0.13214205
H      -1.14428044      1.15723358      1.84044767
H      -0.10353673      2.57054779      1.60978717
H       0.89609403     -0.17883469      2.28427508
H       1.96675115      1.22890515      2.29240008
H       0.52849302      2.26334076      4.16078739
H      -0.35323806      0.73265923      4.14150142
H       1.63826497     -0.53903764      4.74720898
H       2.69618081      0.77786707      4.52956311
H       3.56232747      0.14103035      8.84858052
H       1.79912883      0.43225682      8.99727046
H       2.79379109      1.80294852      8.56715213
23
Frame 20  Energy = -425.5040745752 Hartree
C       0.15011256      1.13438472      0.05351518
C      -0.13103862      1.49457648      1.50340747
C       0.92108984      0.89392949      2.47459389
C       0.64315779      1.18236189      3.96491687
C       1.68588868      0.54079883      4.88680554
C       1.55769495      0.91440298      6.41473369
O       0.64954784      1.57072359      6.91543409
O       2.62848237      0.38413863      7.03364459
C       2.71106290      0.70444581      8.44839202
H      -0.45956936      1.73916320     -0.64113605
H       1.18824564      1.22263286     -0.27341073
H      -0.15314636      0.11045261     -0.13182270
H      -1.13100062      1.16498507      1.83156323
H      -0.10572652      2.58248757      1.60637593
H       0.89823308     -0.18441492      2.27458415
H       1.95627720      1.21985752      2.29190892
H       0.52845811      2.26268412      4.16589466
H      -0.34610415      0.73844749      4.14702288
H       1.63506168     -0.54101318      4.75670090
H       2.69534787      0.78243709      4.53379842
H       3.55462227      0.15869104      8.83283473
H       1.79985354      0.43313846      8.99256238
H       2.80483941      1.80125382      8.56598499
23
Frame 25  Energy = -425.5036090569 Hartree
C       0.15247710      1.13460740      0.05044104
C      -0.13100134      1.49399657      1.50138672
C       0.92126932      0.89659068      2.47668931
C       0.64123031      1.18136116      3.96636411
C       1.68524089      0.53932088      4.89113168
C       1.55807899      0.91212166      6.41679146
O       0.64913372      1.56954361      6.91668224
O       2.62939312      0.38311278      7.03104233
C       2.71146490      0.70375394      8.44734276
H      -0.46516767      1.74820051     -0.63974218
H       1.18369365      1.21801954     -0.26833825
H      -0.14585845      0.11464518     -0.13171697
H      -1.11756966      1.17254462      1.82234011
H      -0.10835626      2.59527842      1.60340327
H       0.90073909     -0.19017915      2.26545440
H       1.94522618      1.21109174      2.29028304
H       0.52898120      2.26123184      4.17073778
H      -0.33872988      0.74463737      4.15377802
H       1.63180043     -0.54367566      4.76710883
H       2.69437070      0.78774250      4.53874112
H       3.54811448      0.17617277      8.81754143
H       1.80071240      0.43364857      8.98713929
H       2.81652725      1.79822699      8.56493313
23
Frame 30  Energy = -425.5036067506 Hartree
C       0.15462225      1.13486312      0.04734561
C      -0.13074010      1.49355924      1.49938116
C       0.92130295      0.89914727      2.47888078
C       0.63920004      1.18030147      3.96774701
C       1.68444739      0.53789080      4.89545163
C       1.55839082      0.90987483      6.41843171
O       0.64903769      1.56811218      6.91789816
O       2.63027211      0.38210268      7.02863299
C       2.71171706      0.70337842      8.44615955
H      -0.46997558      1.75690099     -0.63756802
H       1.18060985      1.21395146     -0.26314289
H      -0.13847346      0.11725485     -0.13205647
H      -1.10506035      1.17972879      1.81313221
H      -0.11156172      2.60775539      1.60045396
H       0.90348373     -0.19553184      2.25737314
H       1.93465659      1.20329173      2.28758741
H       0.52991607      2.25899034      4.17505814
H      -0.33205718      0.75109218      4.16163376
H       1.62864922     -0.54707655      4.77841694
H       2.69378029      0.79385529      4.54448815
H       3.54385404      0.19206170      8.80335791
H       1.80162267      0.43364054      8.98114321
H       2.82866318      1.79390591      8.56398056
23
Frame 35  Energy = -425.5035849792 Hartree
C       0.15646947      1.13520357      0.04424838
C      -0.13003780      1.49342149      1.49751666
C       0.92113990      0.90159191      2.48111678
C       0.63725014      1.17915325      3.96907862
C       1.68356178      0.53655360      4.89978772
C       1.55848369      0.90768362      6.41966944
O       0.64920526      1.56651419      6.91902462
O       2.63107868      0.38120158      7.02649514
C       2.71174690      0.70321900      8.44482563
H      -0.47351395      1.76505615     -0.63479409
H       1.17939216      1.21119559     -0.25749478
H      -0.13103868      0.11791122     -0.13281779
H      -1.09421511      1.18616223      1.80422549
H      -0.11515958      2.61887369      1.59734517
H       0.90656996     -0.20008912      2.25073831
H       1.92557483      1.19677228      2.28357969
H       0.53151886      2.25620725      4.17879918
H      -0.32710961      0.75728317      4.17017662
H       1.62551963     -0.55100719      4.79028004
H       2.69287491      0.80078590      4.55089190
H       3.54330540      0.20574795      8.79078861
H       1.80233384      0.43305659      8.97509309
H       2.84098326      1.78874081      8.56314801
23
Frame 40  Energy = -425.5039440944 Hartree
C       0.15808372      1.13568834      0.04118715
C      -0.12880090      1.49367571      1.49570845
C       0.92065957      0.90379297      2.48332089
C       0.63541329      1.17812516      3.97039178
C       1.68263270      0.53532315      4.90404966
C       1.55837757      0.90548396      6.42056258
O       0.64967214      1.56482524      6.92003747
O       2.63179086      0.38035025      7.02461805
C       2.71147060      0.70337940      8.44327661
H      -0.47518728      1.77256428     -0.63119311
H       1.18037471      1.20936229     -0.25194831
H      -0.12430268      0.11602127     -0.13432755
H      -1.08642613      1.19125061      1.79610039
H      -0.11878929      2.62786878      1.59445206
H       0.90978147     -0.20329681      2.24523849
H       1.91886036      1.19196899      2.27800091
H       0.53384768      2.25294948      4.18194308
H      -0.32446580      0.76240714      4.17975661
H       1.62244607     -0.55525655      4.80290671
H       2.69195516      0.80810146      4.55783057
H       3.54766254      0.21655447      8.78035026
H       1.80291235      0.43181361      8.96915271
H       2.85341080      1.78281564      8.56217595
23
Frame 45  Energy = -425.5041743775 Hartree
C       0.15931718      1.13635074      0.03821792
C      -0.12697264      1.49437717      1.49402483
C       0.91978442      0.90566295      2.48536145
C       0.63373139      1.17707611      3.97168185
C       1.68170777      0.53417586      4.90837070
C       1.55806052      0.90325697      6.42102858
O       0.65042504      1.56298164      6.92103220
O       2.63231743      0.37955223      7.02290644
C       2.71083061      0.70386439      8.44154721
H      -0.47531392      1.77913422     -0.62652251
H       1.18361866      1.20821610     -0.24669114
H      -0.11834486      0.11216128     -0.13636423
H      -1.08260840      1.19485615      1.78882452
H      -0.12202942      2.63409330      1.59140519
H       0.91261560     -0.20519706      2.24133516
H       1.91481491      1.18882742      2.27092916
H       0.53702389      2.24926400      4.18462610
H      -0.32446413      0.76647763      4.19052532
H       1.61961032     -0.55928805      4.81576515
H       2.69090371      0.81556547      4.56549908
H       3.55706036      0.22399180      8.77257707
H       1.80354745      0.43001396      8.96339405
H       2.86570617      1.77687839      8.56139982
23
Frame 50  Energy = -425.5043216857 Hartree
C       0.16003449      1.13715436      0.03525553
C      -0.12456092      1.49555415      1.49236790
C       0.91854366      0.90720005      2.48724794
C       0.63218725      1.17599606      3.97302632
C       1.68072959      0.53311123      4.91279669
C       1.55754759      0.90112568      6.42106086
O       0.65149784      1.56099776      6.92196721
O       2.63280526      0.37883881      7.02137341
C       2.70993281      0.70461516      8.43957036
H      -0.47439899      1.78425217     -0.62077984
H       1.18934692      1.20826239     -0.24180517
H      -0.11282977      0.10655760     -0.13868947
H      -1.08311763      1.19678506      1.78246825
H      -0.12500794      2.63729953      1.58790792
H       0.91514143     -0.20552550      2.23905943
H       1.91386486      1.18748510      2.26281382
H       0.54100155      2.24577773      4.18715084
H      -0.32737675      0.76936178      4.20231106
H       1.61715641     -0.56313534      4.82871851
H       2.68975787      0.82312174      4.57353574
H       3.57090350      0.22792148      8.76709527
H       1.80381247      0.42752929      8.95763238
H       2.87777899      1.77156234      8.56088776
23
Frame 55  Energy = -425.5045700123 Hartree
C       0.16033239      1.13797427      0.03234570
C      -0.12155896      1.49727108      1.49074560
C       0.91694056      0.90847955      2.48904043
C       0.63082006      1.17481442      3.97447914
C       1.67966541      0.53220903      4.91716831
C       1.55675187      0.89907426      6.42069093
O       0.65280983      1.55885740      6.92282433
O       2.63316915      0.37817647      7.02005705
C       2.70887888      0.70553545      8.43731871
H      -0.47250836      1.78762048     -0.61449780
H       1.19737129      1.20944657     -0.23757332
H      -0.10805549      0.09977837     -0.14154492
H      -1.08788629      1.19698370      1.77729279
H      -0.12781350      2.63755212      1.58449458
H       0.91778948     -0.20385741      2.23850847
H       1.91596220      1.18774964      2.25382926
H       0.54578147      2.24256218      4.18949462
H      -0.33299363      0.77122656      4.21503729
H       1.61485075     -0.56670597      4.84161227
H       2.68814985      0.83030889      4.58205460
H       3.58794242      0.22867204      8.76358152
H       1.80348030      0.42433774      8.95215841
H       2.88923302      1.76707193      8.56025540
23
Frame 60  Energy = -425.5045358809 Hartree
C       0.16038057      1.13869219      0.02956785
C      -0.11806522      1.49942813      1.48917891
C       0.91509433      0.90940426      2.49071613
C       0.62955350      1.17361607      3.97598819
C       1.67847869      0.53137507      4.92151416
C       1.55581508      0.89714429      6.41989788
O       0.65434511      1.55656771      6.92371492
O       2.63347521      0.37762056      7.01894463
C       2.70784940      0.70658808      8.43491598
H      -0.46902081      1.78956998     -0.60785820
H       1.20732772      1.21175549     -0.23338932
H      -0.10364224      0.09210968     -0.14473693
H      -1.09622610      1.19545854      1.77303218
H      -0.13022571      2.63465802      1.58086022
H       0.92105225     -0.20004494      2.23969938
H       1.92036109      1.18978692      2.24377652
H       0.55099355      2.23985433      4.19168432
H      -0.34124432      0.77209853      4.22829152
H       1.61311690     -0.57039562      4.85408063
H       2.68605414      0.83688709      4.59106803
H       3.60728871      0.22682349      8.76177903
H       1.80282619      0.42041310      8.94747761
H       2.89984832      1.76375475      8.55928930
23
Frame 65  Energy = -425.5045698192 Hartree
C       0.16015417      1.13941522      0.02693474
C      -0.11430982      1.50194285      1.48768249
C       0.91311351      0.90990954      2.49222933
C       0.62844204      1.17234627      3.97760921
C       1.67714687      0.53063837      4.92586113
C       1.55484567      0.89541786      6.41877061
O       0.65605049      1.55414086      6.92463074
O       2.63375344      0.37712550      7.01801512
C       2.70691131      0.70769858      8.43235634
H      -0.46408510      1.79018956     -0.60135509
H       1.21821955      1.21495660     -0.22932502
H      -0.09995304      0.08437234     -0.14798989
H      -1.10732198      1.19282944      1.76923329
H      -0.13243793      2.62903888      1.57723812
H       0.92446455     -0.19385418      2.24296268
H       1.92646774      1.19334878      2.23270198
H       0.55670295      2.23765359      4.19355154
H      -0.35111998      0.77262851      4.24191004
H       1.61193070     -0.57370966      4.86621459
H       2.68369807      0.84292151      4.60098121
H       3.62713692      0.22322828      8.76124485
H       1.80169915      0.41584649      8.94347277
H       2.91000152      1.76194765      8.55802796
23
Frame 70  Energy = -425.5042650289 Hartree
C       0.15989068      1.14010358      0.02440485
C      -0.11034843      1.50478586      1.48640739
C       0.91100965      0.91007061      2.49367355
C       0.62743960      1.17101189      3.97922889
C       1.67575374      0.53005174      4.93012840
C       1.55377769      0.89375049      6.41728278
O       0.65800021      1.55159455      6.92549212
O       2.63394309      0.37666029      7.01732945
C       2.70609368      0.70870905      8.42964641
H      -0.45821835      1.79012103     -0.59580181
H       1.22915284      1.21920155     -0.22523869
H      -0.09673921      0.07703078     -0.15164836
H      -1.11964768      1.18910260      1.76556299
H      -0.13398108      2.62120285      1.57358189
H       0.92775420     -0.18610529      2.24833517
H       1.93368816      1.19802286      2.22155363
H       0.56279193      2.23583563      4.19467953
H      -0.36136218      0.77285465      4.25569519
H       1.61124321     -0.57607775      4.87801154
H       2.68088733      0.84826252      4.61150507
H       3.64618703      0.21848536      8.76107959
H       1.80054234      0.41076529      8.94031964
H       2.91939805      1.76162801      8.55700987
23
Frame 75  Energy = -425.5042007658 Hartree
C       0.15959436      1.14070624      0.02192515
C      -0.10619803      1.50786928      1.48534057
C       0.90881632      0.90993462      2.49495656
C       0.62650827      1.16957516      3.98083975
C       1.67422397      0.52951616      4.93427560
C       1.55261035      0.89216191      6.41548513
O       0.66012393      1.54889671      6.92626592
O       2.63400854      0.37628953      7.01681033
C       2.70551209      0.70972375      8.42676940
H      -0.45192520      1.78972204     -0.59132681
H       1.23970757      1.22443491     -0.22160262
H      -0.09371218      0.07062299     -0.15565294
H      -1.13192814      1.18486290      1.76192833
H      -0.13533763      2.61212451      1.57028698
H       0.93090068     -0.17715813      2.25494929
H       1.94101861      1.20388543      2.21069471
H       0.56922956      2.23475553      4.19589235
H      -0.37121040      0.77289749      4.26917996
H       1.61085859     -0.57732318      4.88955158
H       2.67801386      0.85298936      4.62194901
H       3.66312976      0.21316333      8.76122696
H       1.79948643      0.40500373      8.93794243
H       2.92789480      1.76246079      8.55598147
23
Frame 80  Energy = -425.5041668133 Hartree
C       0.15942246      1.14107522      0.01947273
C      -0.10203231      1.51105246      1.48440877
C       0.90660787      0.90960119      2.49610819
C       0.62555659      1.16792781      3.98258665
C       1.67259358      0.52905943      4.93827519
C       1.55134716      0.89062413      6.41337179
O       0.66242937      1.54597352      6.92694357
O       2.63405526      0.37608931      7.01645336
C       2.70530974      0.71059052      8.42380241
H      -0.44541737      1.78913159     -0.58794640
H       1.24887119      1.23046871     -0.21804698
H      -0.09087853      0.06568867     -0.15971941
H      -1.14296932      1.18065740      1.75806107
H      -0.13633482      2.60278523      1.56739441
H       0.93340267     -0.16792359      2.26268141
H       1.94724280      1.21071429      2.20034754
H       0.57611990      2.23460719      4.19702640
H      -0.38020955      0.77338624      4.28164606
H       1.61100976     -0.57748046      4.90045911
H       2.67493609      0.85705801      4.63246937
H       3.67680782      0.20802956      8.76101457
H       1.79868947      0.39891075      8.93648471
H       2.93517782      1.76447307      8.55462782
23
Frame 85  Energy = -425.5039504666 Hartree
C       0.15941393      1.14125294      0.01714270
C      -0.09797832      1.51428958      1.48367224
C       0.90447123      0.90918659      2.49710646
C       0.62455619      1.16618951      3.98453324
C       1.67085313      0.52863672      4.94208028
C       1.54995672      0.88911308      6.41104265
O       0.66480060      1.54288098      6.92760852
O       2.63402728      0.37605787      7.01617777
C       2.70554293      0.71117235      8.42076701
H      -0.43953722      1.78923428     -0.58618809
H       1.25575907      1.23727887     -0.21449912
H      -0.08842380      0.06237308     -0.16367987
H      -1.15225595      1.17675058      1.75371100
H      -0.13715254      2.59365730      1.56474712
H       0.93561480     -0.15896018      2.27144585
H       1.95172667      1.21800002      2.19101719
H       0.58320307      2.23539376      4.19758622
H      -0.38789432      0.77425453      4.29303170
H       1.61192015     -0.57689359      4.91087259
H       2.67197145      0.86020644      4.64288545
H       3.68664841      0.20304103      8.76052761
H       1.79854169      0.39257094      8.93571258
H       2.94087422      1.76720035      8.55313332
23
Frame 90  Energy = -425.5043792888 Hartree
C       0.15964328      1.14121960      0.01500444
C      -0.09410606      1.51744627      1.48313246
C       0.90243131      0.90869215      2.49801179
C       0.62345710      1.16431470      3.98658017
C       1.66899128      0.52821214      4.94565331
C       1.54852503      0.88778961      6.40856054
O       0.66726716      1.53965040      6.92827045
O       2.63395874      0.37604520      7.01600706
C       2.70622543      0.71164849      8.41763377
H      -0.43459601      1.79020797     -0.58674068
H       1.26036218      1.24434743     -0.21123282
H      -0.08641610      0.06142324     -0.16712348
H      -1.15889009      1.17380269      1.74893180
H      -0.13774769      2.58583779      1.56226546
H       0.93746661     -0.15119555      2.28080493
H       1.95430873      1.22581818      2.18300504
H       0.59030071      2.23654573      4.19772369
H      -0.39381773      0.77567309      4.30310928
H       1.61367903     -0.57607304      4.92070170
H       2.66919235      0.86242895      4.65301306
H       3.69186631      0.19873406      8.75954858
H       1.79901115      0.38626148      8.93540892
H       2.94539840      1.77052327      8.55153797
23
Frame 95  Energy = -425.5041814434 Hartree
C       0.16010594      1.14098633      0.01319022
C      -0.09056472      1.52041558      1.48275182
C       0.90053494      0.90828338      2.49873799
C       0.62216115      1.16230782      3.98888787
C       1.66695778      0.52778102      4.94894475
C       1.54704610      0.88652324      6.40588787
O       0.66977751      1.53637716      6.92901870
O       2.63392679      0.37622531      7.01606154
C       2.70733546      0.71199440      8.41451873
H      -0.43076107      1.79192218     -0.58944190
H       1.26261488      1.25149796     -0.20786829
H      -0.08471140      0.06299238     -0.17064458
H      -1.16236237      1.17204422      1.74359537
H      -0.13800837      2.58031885      1.55999221
H       0.93872246     -0.14513013      2.29088543
H       1.95432026      1.23397776      2.17647100
H       0.59713623      2.23783372      4.19769085
H      -0.39767793      0.77805894      4.31176923
H       1.61626222     -0.57442286      4.92975815
H       2.66694501      0.86400829      4.66265112
H       3.69231240      0.19531822      8.75839427
H       1.80061525      0.38023916      8.93541926
H       2.94826294      1.77419883      8.54966777
23
Frame 100  Energy = -425.5042455948 Hartree
C       0.16089117      1.14059509      0.01168438
C      -0.08742570      1.52307305      1.48242843
C       0.89884494      0.90811520      2.49921762
C       0.62065922      1.16016071      3.99131719
C       1.66473338      0.52729351      4.95200497
C       1.54552575      0.88526679      6.40309876
O       0.67234745      1.53304092      6.92987102
O       2.63383409      0.37651316      7.01629799
C       2.70900966      0.71207558      8.41142305
H      -0.42779578      1.79421473     -0.59425566
H       1.26230476      1.25865912     -0.20459537
H      -0.08305119      0.06716104     -0.17428345
H      -1.16225481      1.17110085      1.73789630
H      -0.13774960      2.57745023      1.55835073
H       0.93976702     -0.14135990      2.30124753
H       1.95146281      1.24244494      2.17160079
H       0.60398455      2.23921812      4.19749349
H      -0.39924176      0.78118565      4.31875534
H       1.61959539     -0.57217915      4.93797783
H       2.66539288      0.86469082      4.67154518
H       3.68760816      0.19296545      8.75647578
H       1.80314706      0.37455129      8.93600882
H       2.94937910      1.77814733      8.54782738
23
Frame 105  Energy = -425.5043769681 Hartree
C       0.16206504      1.14000509      0.01049340
C      -0.08470076      1.52532542      1.48211999
C       0.89725713      0.90827945      2.49953976
C       0.61899003      1.15789297      3.99390689
C       1.66236472      0.52682998      4.95488899
C       1.54393568      0.88409478      6.40023324
O       0.67480770      1.52967729      6.93081597
O       2.63367516      0.37687321      7.01662041
C       2.71122019      0.71208543      8.40828080
H      -0.42569672      1.79699070     -0.60095151
H       1.25932429      1.26542914     -0.20183355
H      -0.08141431      0.07329182     -0.17741090
H      -1.15868376      1.17111895      1.73184761
H      -0.13698771      2.57777731      1.55721915
H       0.94033221     -0.14054902      2.31155024
H       1.94539270      1.25063662      2.16868265
H       0.61094396      2.24038475      4.19705517
H      -0.39884613      0.78506079      4.32420145
H       1.62348679     -0.56937534      4.94539746
H       2.66432518      0.86425240      4.67976913
H       3.67835098      0.19160199      8.75375672
H       1.80694120      0.36955048      8.93685507
H       2.94845395      1.78181002      8.54619352
23
Frame 110  Energy = -425.5044254835 Hartree
C       0.16355768      1.13933410      0.00955727
C      -0.08243293      1.52709605      1.48186621
C       0.89592461      0.90868908      2.49977142
C       0.61719220      1.15558623      3.99671718
C       1.65994282      0.52646136      4.95757949
C       1.54236678      0.88294512      6.39737211
O       0.67713432      1.52632862      6.93174695
O       2.63347821      0.37730489      7.01710790
C       2.71397440      0.71204949      8.40516098
H      -0.42392602      1.80005469     -0.60943255
H       1.25423923      1.27190713     -0.19940749
H      -0.07949247      0.08061504     -0.18040932
H      -1.15180511      1.17193800      1.72552396
H      -0.13590952      2.58190494      1.55656769
H       0.94068924     -0.14279839      2.32175631
H       1.93637166      1.25883230      2.16771116
H       0.61792474      2.24146355      4.19595270
H      -0.39640868      0.78946995      4.32819563
H       1.62774923     -0.56651217      4.95209233
H       2.66391532      0.86312412      4.68729697
H       3.66511555      0.19113666      8.75013289
H       1.81163378      0.36498772      8.93744895
H       2.94578159      1.78482525      8.54434009
23
Frame 115  Energy = -425.5045356635 Hartree
C       0.16533966      1.13871873      0.00887124
C      -0.08061473      1.52844330      1.48165146
C       0.89485702      0.90942156      2.49987356
C       0.61537057      1.15333663      3.99964717
C       1.65751164      0.52610252      4.96001581
C       1.54089725      0.88187353      6.39445762
O       0.67941537      1.52304687      6.93273156
O       2.63325632      0.37787859      7.01774286
C       2.71735926      0.71194779      8.40221931
H      -0.42272318      1.80306047     -0.61901792
H       1.24766587      1.27825104     -0.19761042
H      -0.07753948      0.08876518     -0.18339561
H      -1.14165575      1.17369794      1.71926463
H      -0.13418678      2.58931124      1.55663069
H       0.94089802     -0.14788650      2.33191293
H       1.92491157      1.26666171      2.16851017
H       0.62485904      2.24222300      4.19451958
H      -0.39227485      0.79466024      4.33096750
H       1.63250069     -0.56455065      4.95764116
H       2.66401340      0.86171033      4.69404929
H       3.64868536      0.19100297      8.74606013
H       1.81712866      0.36078781      8.93775275
H       2.94130583      1.78742614      8.54234930
23
Frame 120  Energy = -425.5042855617 Hartree
C       0.16730785      1.13809493      0.00849378
C      -0.07921216      1.52945422      1.48154478
C       0.89407653      0.91038392      2.49980836
C       0.61352971      1.15117605      4.00268278
C       1.65501991      0.52564469      4.96220393
C       1.53950463      0.88080589      6.39158079
O       0.68168261      1.51979508      6.93378592
O       2.63302326      0.37857212      7.01842863
C       2.72123177      0.71165286      8.39927992
H      -0.42149985      1.80564519     -0.62963837
H       1.24016548      1.28479651     -0.19618219
H      -0.07595528      0.09707968     -0.18649772
H      -1.12896224      1.17669075      1.71310447
H      -0.13191521      2.59956214      1.55757440
H       0.94086920     -0.15542449      2.34199960
H       1.91150667      1.27410113      2.17128652
H       0.63135817      2.24211506      4.19278693
H      -0.38706128      0.80007336      4.33250113
H       1.63785437     -0.56346810      4.96186190
H       2.66441404      0.85964697      4.69988935
H       3.63010006      0.19115563      8.74201401
H       1.82345222      0.35720618      8.93787207
H       2.93498027      1.78959488      8.54057611
23
Frame 125  Energy = -425.5043574160 Hartree
C       0.16947164      1.13769515      0.00831085
C      -0.07816553      1.53015088      1.48158068
C       0.89350153      0.91139255      2.49970449
C       0.61161312      1.14912475      4.00577632
C       1.65245948      0.52525099      4.96406339
C       1.53817490      0.87981147      6.38874574
O       0.68385030      1.51666994      6.93493493
O       2.63270192      0.37931794      7.01918785
C       2.72522144      0.71132692      8.39635909
H      -0.41998603      1.80777599     -0.64084140
H       1.23226716      1.29104089     -0.19542833
H      -0.07496976      0.10521003     -0.19005351
H      -1.11418118      1.18048976      1.70708119
H      -0.12921132      2.61168251      1.55903293
H       0.94048953     -0.16497774      2.35124861
H       1.89663490      1.28105938      2.17601142
H       0.63720498      2.24119980      4.19101931
H      -0.38107642      0.80586731      4.33263799
H       1.64373717     -0.56355120      4.96488503
H       2.66504618      0.85725766      4.70482333
H       3.61046319      0.19101949      8.73813809
H       1.83071337      0.35455747      8.93747493
H       2.92723372      1.79058788      8.53917328
23
Frame 130  Energy = -425.5042003086 Hartree
C       0.17171865      1.13752620      0.00823388
C      -0.07745615      1.53065314      1.48161652
C       0.89307152      0.91242415      2.49958327
C       0.60984096      1.14722618      4.00891271
C       1.64989227      0.52479719      4.96559977
C       1.53707022      0.87878015      6.38585623
O       0.68593090      1.51363800      6.93617772
O       2.63237769      0.38012314      7.02000113
C       2.72913777      0.71101490      8.39363455
H      -0.41780374      1.80902425     -0.65170023
H       1.22464632      1.29729368     -0.19547204
H      -0.07454659      0.11239317     -0.19387213
H      -1.09804127      1.18450965      1.70123967
H      -0.12562370      2.62471115      1.56084664
H       0.93991006     -0.17533011      2.35961456
H       1.88113890      1.28749104      2.18252161
H       0.64231479      2.23959364      4.18918918
H      -0.37498686      0.81171048      4.33165001
H       1.64964155     -0.56455746      4.96653027
H       2.66556064      0.85430076      4.70919839
H       3.59129827      0.19033690      8.73475315
H       1.83886998      0.35312252      8.93703129
H       2.91804505      1.79078257      8.53759568
23
Frame 135  Energy = -425.5041288477 Hartree
C       0.17405685      1.13761934      0.00839292
C      -0.07697418      1.53099809      1.48160039
C       0.89266213      0.91341129      2.49945378
C       0.60819536      1.14542196      4.01196066
C       1.64734669      0.52424555      4.96680173
C       1.53612048      0.87769638      6.38297646
O       0.68783238      1.51063987      6.93742849
O       2.63202978      0.38092730      7.02078351
C       2.73291982      0.71068354      8.39081141
H      -0.41487423      1.80917474     -0.66206462
H       1.21794285      1.30328696     -0.19662019
H      -0.07467654      0.11781169     -0.19816354
H      -1.08212614      1.18881078      1.69557533
H      -0.12145229      2.63743807      1.56267870
H       0.93912027     -0.18561239      2.36724324
H       1.86565759      1.29376710      2.19069006
H       0.64715219      2.23756175      4.18749726
H      -0.36952909      0.81697129      4.32966165
H       1.65533003     -0.56668968      4.96679945
H       2.66603105      0.85103965      4.71284901
H       3.57393191      0.18862860      8.73246822
H       1.84752628      0.35259625      8.93660951
H       2.90757935      1.79033981      8.53629506
23
Frame 140  Energy = -425.5041100658 Hartree
C       0.17637908      1.13792235      0.00875269
C      -0.07661069      1.53127719      1.48151643
C       0.89213084      0.91425356      2.49944632
C       0.60677788      1.14380571      4.01493727
C       1.64481143      0.52363488      4.96765199
C       1.53531621      0.87661738      6.38028650
O       0.68950739      1.50769324      6.93879800
O       2.63156874      0.38177195      7.02154452
C       2.73653523      0.71045481      8.38796873
H      -0.41116418      1.80795086     -0.67157855
H       1.21273419      1.30904318     -0.19892569
H      -0.07549016      0.12116760     -0.20280060
H      -1.06772315      1.19287931      1.69081003
H      -0.11684875      2.64896713      1.56452670
H       0.93783572     -0.19531042      2.37428734
H       1.85139915      1.29979142      2.19985258
H       0.65154196      2.23517285      4.18584473
H      -0.36562964      0.82160742      4.32711883
H       1.66082903     -0.56947457      4.96559771
H       2.66620928      0.84757672      4.71505639
H       3.56008442      0.18505944      8.73168469
H       1.85645114      0.35262862      8.93582788
H       2.89636880      1.78939773      8.53526456
23
Frame 145  Energy = -425.5041975134 Hartree
C       0.17869699      1.13846811      0.00921048
C      -0.07621665      1.53157346      1.48140502
C       0.89150818      0.91487409      2.49951420
C       0.60564886      1.14243862      4.01781076
C       1.64222256      0.52304724      4.96813494
C       1.53471597      0.87553300      6.37780552
O       0.69106830      1.50483061      6.94023021
O       2.63096000      0.38258656      7.02217776
C       2.73990611      0.71040843      8.38510157
H      -0.40659612      1.80502065     -0.67976868
H       1.20975636      1.31495909     -0.20275264
H      -0.07661713      0.12239877     -0.20794201
H      -1.05622392      1.19666122      1.68728603
H      -0.11171840      2.65857310      1.56627924
H       0.93626259     -0.20398258      2.38062462
H       1.83948776      1.30617279      2.20983845
H       0.65511533      2.23227266      4.18445038
H      -0.36386462      0.82502994      4.32436357
H       1.66624874     -0.57239173      4.96322433
H       2.66641619      0.84399438      4.71590519
H       3.55112055      0.17939638      8.73274904
H       1.86530291      0.35375984      8.93508780
H       2.88486493      1.78818098      8.53462104
23
Frame 150  Energy = -425.5040956399 Hartree
C       0.18096879      1.13938868      0.00973680
C      -0.07576580      1.53205459      1.48135792
C       0.89071523      0.91518050      2.49974965
C       0.60478912      1.14131530      4.02062944
C       1.63973837      0.52243790      4.96831016
C       1.53442340      0.87434746      6.37557127
O       0.69245018      1.50205248      6.94176139
O       2.63029403      0.38340996      7.02271002
C       2.74300711      0.71070994      8.38236625
H      -0.40124352      1.80038252     -0.68625936
H       1.20907457      1.32088419     -0.20813408
H      -0.07814168      0.12154864     -0.21338040
H      -1.04833344      1.20027392      1.68538156
H      -0.10594503      2.66542178      1.56782837
H       0.93425206     -0.21064198      2.38610585
H       1.83057072      1.31297111      2.22062917
H       0.65803973      2.22894593      4.18355086
H      -0.36484037      0.82758020      4.32155664
H       1.67131698     -0.57524518      4.95953204
H       2.66658974      0.84023390      4.71540176
H       3.54740567      0.17086423      8.73572221
H       1.87411626      0.35569840      8.93445902
H       2.87299832      1.78689357      8.53453325
23
Frame 155  Energy = -425.5044042097 Hartree
C       0.18311616      1.14072890      0.01038040
C      -0.07518757      1.53283656      1.48133455
C       0.88972821      0.91518150      2.50014923
C       0.60423613      1.14047045      4.02323918
C       1.63750501      0.52171061      4.96809586
C       1.53441022      0.87306862      6.37365072
O       0.69367516      1.49938531      6.94338994
O       2.62958150      0.38423193      7.02313696
C       2.74584547      0.71124189      8.37970706
H      -0.39532236      1.79475587     -0.69104753
H       1.21089988      1.32656154     -0.21461575
H      -0.07976472      0.11895175     -0.21895758
H      -1.04471689      1.20276579      1.68533892
H      -0.09984170      2.66931821      1.56941712
H       0.93233079     -0.21463967      2.39067118
H       1.82554448      1.32034639      2.23164325
H       0.66021540      2.22563465      4.18310321
H      -0.36844184      0.82917986      4.31869930
H       1.67620346     -0.57799292      4.95474780
H       2.66638268      0.83614874      4.71385664
H       3.54871527      0.15955116      8.74071760
H       1.88238476      0.35858046      8.93428082
H       2.86093877      1.78584187      8.53468647
23
Frame 160  Energy = -425.5048046018 Hartree
C       0.18505513      1.14233991      0.01107578
C      -0.07442728      1.53386488      1.48125183
C       0.88863772      0.91496042      2.50067933
C       0.60398021      1.13987219      4.02558754
C       1.63556753      0.52076988      4.96748010
C       1.53465376      0.87180901      6.37211312
O       0.69463764      1.49683639      6.94503910
O       2.62875583      0.38502423      7.02340567
C       2.74839952      0.71182255      8.37713147
H      -0.38884924      1.78813335     -0.69441522
H       1.21531838      1.33149236     -0.22198790
H      -0.08134801      0.11520293     -0.22432039
H      -1.04623927      1.20427694      1.68680999
H      -0.09335782      2.67029727      1.57070431
H       0.93070081     -0.21611517      2.39436406
H       1.82464608      1.32831001      2.24268332
H       0.66178773      2.22222667      4.18319680
H      -0.37464547      0.82984836      4.31616658
H       1.68060512     -0.58075292      4.94887425
H       2.66551823      0.83183924      4.71149945
H       3.55429817      0.14626882      8.74728888
H       1.88986705      0.36175723      8.93471215
H       2.84917545      1.78538454      8.53491779
23
Frame 165  Energy = -425.5048895720 Hartree
C       0.18683723      1.14407766      0.01180415
C      -0.07358446      1.53510107      1.48105891
C       0.88740589      0.91441865      2.50134968
C       0.60390408      1.13954052      4.02775665
C       1.63393301      0.51966424      4.96645964
C       1.53519985      0.87053488      6.37093282
O       0.69535255      1.49435609      6.94673082
O       2.62780430      0.38577909      7.02346891
C       2.75068096      0.71254139      8.37457792
H      -0.38170233      1.78079172     -0.69629689
H       1.22181902      1.33593330     -0.23017946
H      -0.08271167      0.11095439     -0.22879944
H      -1.05279504      1.20483016      1.68994391
H      -0.08641621      2.66833563      1.57184784
H       0.92904112     -0.21490525      2.39707973
H       1.82773066      1.33638873      2.25403420
H       0.66247882      2.21901596      4.18414423
H      -0.38303343      0.82953338      4.31353988
H       1.68432285     -0.58343234      4.94216382
H       2.66409095      0.82739651      4.70844705
H       3.56335012      0.13193887      8.75498920
H       1.89620638      0.36491084      8.93558811
H       2.83779993      1.78499869      8.53572583
23
Frame 170  Energy = -425.5049897853 Hartree
C       0.18856155      1.14596163      0.01252433
C      -0.07266593      1.53656383      1.48080511
C       0.88600278      0.91353653      2.50213193
C       0.60399755      1.13937791      4.02973552
C       1.63247909      0.51853025      4.96503298
C       1.53593880      0.86923793      6.37001437
O       0.69589971      1.49190841      6.94843647
O       2.62687373      0.38643349      7.02340811
C       2.75280121      0.71320848      8.37217985
H      -0.37442106      1.77306881     -0.69681453
H       1.23003639      1.33977818     -0.23862893
H      -0.08361765      0.10631232     -0.23240793
H      -1.06309806      1.20466585      1.69441313
H      -0.07905233      2.66339004      1.57283666
H       0.92736469     -0.21089896      2.39879875
H       1.83470614      1.34467981      2.26510080
H       0.66231872      2.21609532      4.18605911
H      -0.39269465      0.82851212      4.31098005
H       1.68738817     -0.58601032      4.93465251
H       2.66217680      0.82297189      4.70481139
H       3.57445524      0.11781832      8.76300974
H       1.90103373      0.36799145      8.93701251
H       2.82696825      1.78507734      8.53668943
23
Frame 175  Energy = -425.5047726399 Hartree
C       0.19028423      1.14793108      0.01324557
C      -0.07174496      1.53823581      1.48049775
C       0.88447497      0.91235570      2.50303110
C       0.60415026      1.13931475      4.03154996
C       1.63122185      0.51730487      4.96327792
C       1.53678421      0.86801061      6.36940568
O       0.69631465      1.48960379      6.95011727
O       2.62599594      0.38699955      7.02322361
C       2.75487388      0.71371553      8.36998840
H      -0.36748013      1.76502855     -0.69622950
H       1.23905724      1.34289298     -0.24762358
H      -0.08396128      0.10182184     -0.23521221
H      -1.07620964      1.20434254      1.69999823
H      -0.07154554      2.65611600      1.57387861
H       0.92590995     -0.20426801      2.39932821
H       1.84515474      1.35302029      2.27614386
H       0.66127396      2.21345293      4.18840266
H      -0.40334360      0.82680789      4.30843327
H       1.68970250     -0.58814863      4.92632333
H       2.65981241      0.81856022      4.70050183
H       3.58674718      0.10450518      8.77104420
H       1.90402425      0.37101308      8.93927235
H       2.81731071      1.78594777      8.53767530
23
Frame 180  Energy = -425.5046555708 Hartree
C       0.19211412      1.14989455      0.01397013
C      -0.07078735      1.53996640      1.48012198
C       0.88283167      0.91106531      2.50410250
C       0.60426148      1.13935240      4.03315425
C       1.63023180      0.51586549      4.96122417
C       1.53776420      0.86679982      6.36920241
O       0.69659084      1.48747966      6.95181885
O       2.62515878      0.38753956      7.02284124
C       2.75689244      0.71404585      8.36818883
H      -0.36114932      1.75742787     -0.69493741
H       1.24803809      1.34536087     -0.25688723
H      -0.08354679      0.09810288     -0.23715764
H      -1.09089502      1.20445080      1.70600504
H      -0.06345436      2.64712359      1.57467902
H       0.92466193     -0.19538361      2.39885538
H       1.85771901      1.36095220      2.28718761
H       0.65971079      2.21152611      4.19114765
H      -0.41421631      0.82502962      4.30559775
H       1.69114474     -0.58999790      4.91736424
H       2.65701152      0.81428827      4.69522503
H       3.59937439      0.09321663      8.77845665
H       1.90542784      0.37386649      8.94190988
H       2.80893604      1.78737934      8.53849229
23
Frame 185  Energy = -425.5044238004 Hartree
C       0.19412130      1.15181317      0.01467331
C      -0.06992556      1.54153386      1.47963577
C       0.88115597      0.90969597      2.50543344
C       0.60420507      1.13946098      4.03450821
C       1.62941085      0.51416093      4.95877602
C       1.53897729      0.86555695      6.36942662
O       0.69656684      1.48546624      6.95354960
O       2.62429299      0.38801663      7.02222298
C       2.75903663      0.71413589      8.36679961
H      -0.35595084      1.75067637     -0.69369363
H       1.25617954      1.34696977     -0.26586862
H      -0.08206277      0.09578533     -0.23818353
H      -1.10604230      1.20507632      1.71231075
H      -0.05513970      2.63666495      1.57532138
H       0.92364967     -0.18514390      2.39738027
H       1.87111750      1.36822574      2.29847446
H       0.65787404      2.21062882      4.19464705
H      -0.42431839      0.82326549      4.30252142
H       1.69157229     -0.59132348      4.90810030
H       2.65364440      0.81012860      4.68898288
H       3.61121008      0.08450597      8.78451234
H       1.90538713      0.37694361      8.94502429
H       2.80204180      1.78908605      8.53929657
23
Frame 190  Energy = -425.5045157011 Hartree
C       0.19629921      1.15358073      0.01537685
C      -0.06928780      1.54292709      1.47911620
C       0.87965720      0.90834974      2.50698068
C       0.60399945      1.13963173      4.03566973
C       1.62883805      0.51212174      4.95584245
C       1.54026709      0.86435543      6.37009326
O       0.69633537      1.48354268      6.95536406
O       2.62345806      0.38848886      7.02145772
C       2.76122168      0.71398021      8.36574272
H      -0.35186105      1.74492973     -0.69265381
H       1.26329462      1.34755236     -0.27394227
H      -0.07894480      0.09520033     -0.23778913
H      -1.12032093      1.20665125      1.71819572
H      -0.04675896      2.62598449      1.57613250
H       0.92312685     -0.17478358      2.39500656
H       1.88438192      1.37392904      2.30995229
H       0.65565827      2.21087305      4.19907846
H      -0.43324021      0.82182247      4.29903496
H       1.69117776     -0.59226098      4.89890629
H       2.64985080      0.80586527      4.68171560
H       3.62158320      0.07923084      8.78922436
H       1.90430753      0.37995115      8.94841562
H       2.79650985      1.79065969      8.54016917
23
Frame 195  Energy = -425.5046725855 Hartree
C       0.19867185      1.15521959      0.01609978
C      -0.06885860      1.54403317      1.47865001
C       0.87833641      0.90715349      2.50863149
C       0.60360731      1.13993898      4.03661799
C       1.62844642      0.50988108      4.95264917
C       1.54164686      0.86318681      6.37115427
O       0.69591587      1.48170148      6.95712381
O       2.62271438      0.38896278      7.02060496
C       2.76355521      0.71348919      8.36506963
H      -0.34944922      1.74052083     -0.69218261
H       1.26926973      1.34698265     -0.28120757
H      -0.07430042      0.09632387     -0.23599513
H      -1.13270751      1.20941618      1.72356942
H      -0.03850065      2.61611626      1.57702847
H       0.92286117     -0.16557933      2.39182920
H       1.89639911      1.37790110      2.32169382
H       0.65280460      2.21215763      4.20405115
H      -0.44033034      0.82052914      4.29502076
H       1.68978985     -0.59262219      4.88934290
H       2.64607209      0.80195327      4.67326083
H       3.63006033      0.07766179      8.79154604
H       1.90222177      0.38268872      8.95153032
H       2.79280059      1.79250641      8.54117567
23
Frame 200  Energy = -425.5047064739 Hartree
C       0.20131232      1.15664838      0.01682226
C      -0.06874546      1.54476501      1.47819446
C       0.87720642      0.90621022      2.51036654
C       0.60296156      1.14035970      4.03739930
C       1.62819364      0.50743567      4.94918815
C       1.54304522      0.86201489      6.37249219
O       0.69542737      1.47992891      6.95883298
O       2.62210996      0.38947186      7.01961085
C       2.76598492      0.71271697      8.36487891
H      -0.34889748      1.73752974     -0.69250686
H       1.27372338      1.34494680     -0.28744830
H      -0.06840550      0.09883872     -0.23325437
H      -1.14279577      1.21322089      1.72863654
H      -0.03028815      2.60802010      1.57832945
H       0.92311672     -0.15765138      2.38724790
H       1.90647239      1.37972764      2.33379867
H       0.64926988      2.21391881      4.20941948
H      -0.44530320      0.81935421      4.29097585
H       1.68764102     -0.59264601      4.87946726
H       2.64249766      0.79888338      4.66407803
H       3.63623666      0.08017954      8.79149575
H       1.89953663      0.38508352      8.95440810
H       2.79099822      1.79463053      8.54187314
23
Frame 205  Energy = -425.5049834598 Hartree
C       0.20424502      1.15785770      0.01754839
C      -0.06897979      1.54514648      1.47776416
C       0.87635986      0.90557318      2.51220450
C       0.60213127      1.14088788      4.03806539
C       1.62810688      0.50483651      4.94550533
C       1.54446132      0.86093176      6.37410268
O       0.69487922      1.47825712      6.96060392
O       2.62154693      0.38991186      7.01843665
C       2.76845582      0.71177419      8.36514153
H      -0.35034400      1.73645396     -0.69361335
H       1.27640201      1.34174157     -0.29271518
H      -0.06116510      0.10271251     -0.22938208
H      -1.14977113      1.21802641      1.73322803
H      -0.02230919      2.60253683      1.58005031
H       0.92382943     -0.15164217      2.38127472
H       1.91411645      1.37936692      2.34579311
H       0.64516707      2.21645937      4.21527337
H      -0.44823694      0.81806505      4.28674543
H       1.68436295     -0.59282919      4.86928384
H       2.63952012      0.79650718      4.65424265
H       3.63998369      0.08626703      8.78944324
H       1.89648558      0.38715948      8.95700106
H       2.79110186      1.79655914      8.54218774
23
Frame 210  Energy = -425.5050180172 Hartree
C       0.20743238      1.15890137      0.01820147
C      -0.06961015      1.54522254      1.47747264
C       0.87584636      0.90524338      2.51423584
C       0.60094381      1.14147615      4.03847974
C       1.62819940      0.50219877      4.94164433
C       1.54582530      0.85987796      6.37604349
O       0.69418718      1.47671513      6.96237611
O       2.62105699      0.39026359      7.01722271
C       2.77095849      0.71068175      8.36586352
H      -0.35370436      1.73703045     -0.69497936
H       1.27730147      1.33752884     -0.29669276
H      -0.05253044      0.10762871     -0.22449388
H      -1.15310433      1.22441356      1.73733545
H      -0.01424776      2.60013113      1.58217192
H       0.92531749     -0.14802647      2.37404083
H       1.91917623      1.37646570      2.35774687
H       0.64028220      2.21973171      4.22125238
H      -0.44908092      0.81684023      4.28251195
H       1.67999402     -0.59323795      4.85911022
H       2.63719498      0.79425483      4.64382343
H       3.64146895      0.09581601      8.78511208
H       1.89322857      0.38896250      8.95918928
H       2.79263641      1.79835662      8.54249758
23
Frame 215  Energy = -425.5050942166 Hartree
C       0.21079207      1.15980701      0.01877342
C      -0.07056731      1.54484855      1.47733000
C       0.87563825      0.90517708      2.51648750
C       0.59948195      1.14214650      4.03870410
C       1.62843226      0.49949759      4.93776809
C       1.54711019      0.85881654      6.37823161
O       0.69345358      1.47528147      6.96419517
O       2.62059436      0.39051839      7.01590900
C       2.77345611      0.70945984      8.36703298
H      -0.35858547      1.73902350     -0.69661602
H       1.27622170      1.33263151     -0.29911842
H      -0.04301824      0.11324776     -0.21867514
H      -1.15300004      1.23209847      1.74081402
H      -0.00642858      2.60091753      1.58478075
H       0.92772924     -0.14726268      2.36539808
H       1.92150070      1.37107244      2.36941680
H       0.63478195      2.22319910      4.22721408
H      -0.44782415      0.81592103      4.27841709
H       1.67458404     -0.59352401      4.84939069
H       2.63530874      0.79236552      4.63284292
H       3.64096764      0.10833850      8.77848937
H       1.89007656      0.39080755      8.96043572
H       2.79575912      1.79968077      8.54255593
23
Frame 220  Energy = -425.5047776504 Hartree
C       0.21435866      1.16061702      0.01915544
C      -0.07181823      1.54405404      1.47731458
C       0.87569159      0.90542085      2.51895300
C       0.59764751      1.14281736      4.03869952
C       1.62868462      0.49672651      4.93373769
C       1.54825898      0.85785098      6.38057469
O       0.69264496      1.47398460      6.96597519
O       2.62017447      0.39065318      7.01447961
C       2.77588203      0.70805784      8.36865055
H      -0.36480115      1.74217548     -0.69837934
H       1.27327706      1.32742252     -0.30040238
H      -0.03294032      0.11924116     -0.21186140
H      -1.14950804      1.24093672      1.74321716
H       0.00134462      2.60467352      1.58809075
H       0.93080350     -0.14918290      2.35549003
H       1.92090714      1.36305156      2.38098471
H       0.62881329      2.22685558      4.23305289
H      -0.44476621      0.81550572      4.27456659
H       1.66853174     -0.59388201      4.83990989
H       2.63384168      0.79071408      4.62111647
H       3.63896202      0.12364932      8.77004208
H       1.88738052      0.39271566      8.96076421
H       2.80043691      1.80042343      8.54215591
23
Frame 225  Energy = -425.5045201089 Hartree
C       0.21792485      1.16131076      0.01939848
C      -0.07339960      1.54300932      1.47741039
C       0.87590270      0.90601275      2.52163444
C       0.59546354      1.14365413      4.03844780
C       1.62900412      0.49384423      4.92954326
C       1.54945931      0.85693635      6.38306049
O       0.69173373      1.47277271      6.96761784
O       2.61991379      0.39071576      7.01291677
C       2.77812420      0.70659097      8.37059244
H      -0.37161500      1.74595685     -0.69981043
H       1.26928216      1.32196872     -0.30051048
H      -0.02242695      0.12519587     -0.20418736
H      -1.14258907      1.25108632      1.74463328
H       0.00934895      2.61096421      1.59200840
H       0.93437805     -0.15369300      2.34519994
H       1.91738767      1.35258429      2.39205704
H       0.62259157      2.23010826      4.23903614
H      -0.44028309      0.81504368      4.27117182
H       1.66173554     -0.59425587      4.83058863
H       2.63279501      0.78940206      4.60886839
H       3.63635859      0.14134831      8.76028585
H       1.88533534      0.39457038      8.96015730
H       2.80675074      1.80055630      8.54111827
23
Frame 230  Energy = -425.5040917491 Hartree
C       0.22153814      1.16199557      0.01954645
C      -0.07528581      1.54174440      1.47761944
C       0.87635933      0.90696305      2.52446756
C       0.59297261      1.14469658      4.03795702
C       1.62937378      0.49096782      4.92524596
C       1.55065601      0.85602578      6.38568670
O       0.69075234      1.47171773      6.96921390
O       2.61993417      0.39065905      7.01123808
C       2.78012154      0.70516312      8.37287234
H      -0.37868969      1.74963063     -0.70033775
H       1.26456117      1.31648723     -0.29934740
H      -0.01210194      0.13038994     -0.19596620
H      -1.13325416      1.26248285      1.74522312
H       0.01710926      2.61912560      1.59607928
H       0.93817794     -0.16019493      2.33476559
H       1.91140455      1.34022096      2.40192593
H       0.61634535      2.23253982      4.24519215
H      -0.43473985      0.81440776      4.26815254
H       1.65421749     -0.59530380      4.82134353
H       2.63223547      0.78829232      4.59649394
H       3.63386190      0.16030517      8.74993704
H       1.88393873      0.39624121      8.95863524
H       2.81467141      1.79982218      8.53959462
23
Frame 235  Energy = -425.5039564174 Hartree
C       0.22519288      1.16267801      0.01971595
C      -0.07714315      1.54040035      1.47797538
C       0.87705693      0.90806912      2.52737064
C       0.59024917      1.14575824      4.03720255
C       1.62981942      0.48809915      4.92083447
C       1.55171831      0.85508752      6.38836169
O       0.68971842      1.47071150      6.97081209
O       2.62018699      0.39051006      7.00950606
C       2.78183570      0.70384284      8.37537664
H      -0.38580706      1.75298232     -0.69979867
H       1.25957774      1.31100559     -0.29733156
H      -0.00178712      0.13394910     -0.18758519
H      -1.12202918      1.27459477      1.74514724
H       0.02455085      2.62837383      1.60018988
H       0.94229382     -0.16759646      2.32426065
H       1.90360893      1.32628465      2.41079948
H       0.61010430      2.23391348      4.25121640
H      -0.42847569      0.81346334      4.26568104
H       1.64580126     -0.59690821      4.81223030
H       2.63205485      0.78769371      4.58396116
H       3.63243359      0.17940112      8.73918576
H       1.88364564      0.39714957      8.95664867
H       2.82388370      1.79800064      8.53752799
23
Frame 240  Energy = -425.5035895656 Hartree
C       0.22883004      1.16340847      0.01986020
C      -0.07885068      1.53894004      1.47854936
C       0.87785579      0.90923156      2.53032770
C       0.58734034      1.14692984      4.03627020
C       1.63040518      0.48521606      4.91635098
C       1.55270470      0.85415095      6.39101503
O       0.68868484      1.46973600      6.97237823
O       2.62065864      0.39029003      7.00784642
C       2.78313614      0.70269747      8.37810053
H      -0.39241002      1.75567205     -0.69777590
H       1.25520218      1.30595464     -0.29483081
H       0.00837372      0.13534757     -0.17931273
H      -1.10990889      1.28683713      1.74438600
H       0.03140189      2.63738857      1.60430191
H       0.94661004     -0.17538360      2.31396521
H       1.89512396      1.31182157      2.41884698
H       0.60360277      2.23443427      4.25681821
H      -0.42220279      0.81200176      4.26374202
H       1.63673911     -0.59961812      4.80330052
H       2.63178288      0.78752272      4.57123961
H       3.63347178      0.19745068      8.72868238
H       1.88447554      0.39783634      8.95365464
H       2.83417736      1.79532271      8.53457698
23
Frame 245  Energy = -425.5035485833 Hartree
C       0.23230431      1.16428511      0.01996990
C      -0.08027477      1.53755293      1.47924487
C       0.87869698      0.91042256      2.53324719
C       0.58437127      1.14823611      4.03507706
C       1.63109780      0.48243144      4.91168139
C       1.55358895      0.85323557      6.39350636
O       0.68757928      1.46881865      6.97388145
O       2.62134329      0.38995378      7.00624360
C       2.78398467      0.70181002      8.38099607
H      -0.39816267      1.75781306     -0.69432992
H       1.25232741      1.30160143     -0.29163122
H       0.01799451      0.13441232     -0.17159996
H      -1.09826122      1.29882374      1.74324741
H       0.03732920      2.64543293      1.60796118
H       0.95105614     -0.18252036      2.30431439
H       1.88678190      1.29711274      2.42543531
H       0.59684772      2.23388567      4.26207483
H      -0.41645929      0.81032019      4.26208962
H       1.62715907     -0.60286932      4.79476053
H       2.63143138      0.78775314      4.55858890
H       3.63761160      0.21411216      8.71882645
H       1.88648026      0.39816461      8.94964920
H       2.84522324      1.79188496      8.53125518
23
Frame 250  Energy = -425.5035449929 Hartree
C       0.23550106      1.16530092      0.02002619
C      -0.08131945      1.53634858      1.48012468
C       0.87946595      0.91151822      2.53619097
C       0.58134838      1.14968835      4.03370467
C       1.63192625      0.47980554      4.90697149
C       1.55432087      0.85227377      6.39585496
O       0.68651387      1.46784239      6.97535598
O       2.62223193      0.38945117      7.00461642
C       2.78428821      0.70119894      8.38387943
H      -0.40271833      1.75938610     -0.68930760
H       1.25117343      1.29814901     -0.28793076
H       0.02651067      0.13116425     -0.16389157
H      -1.08811083      1.31017966      1.74226683
H       0.04232138      2.65209649      1.61109977
H       0.95544699     -0.18838589      2.29578102
H       1.87940381      1.28269722      2.43038445
H       0.58984544      2.23209716      4.26702592
H      -0.41230882      0.80769438      4.26130653
H       1.61742649     -0.60625261      4.78700884
H       2.63086985      0.78816424      4.54606491
H       3.64586798      0.22874149      8.71032735
H       1.88947223      0.39792264      8.94532720
H       2.85653300      1.78789963      8.52774543
23
Frame 255  Energy = -425.5035587967 Hartree
C       0.23834518      1.16654705      0.02008405
C      -0.08194833      1.53547472      1.48124411
C       0.88003076      0.91240981      2.53918313
C       0.57838236      1.15125972      4.03224612
C       1.63292554      0.47727524      4.90236233
C       1.55484197      0.85134973      6.39802231
O       0.68548846      1.46681164      6.97672637
O       2.62328396      0.38887225      7.00300539
C       2.78408818      0.70077198      8.38663483
H      -0.40605987      1.76033860     -0.68279644
H       1.25205201      1.29562891     -0.28383513
H       0.03421030      0.12591097     -0.15620347
H      -1.08066030      1.32083533      1.74153371
H       0.04663167      2.65699030      1.61325955
H       0.95960701     -0.19277023      2.28812848
H       1.87405096      1.26939520      2.43376853
H       0.58337628      2.22947443      4.27119135
H      -0.40970553      0.80398389      4.26147922
H       1.60735283     -0.60973706      4.77982048
H       2.62987707      0.78862746      4.53368822
H       3.65834566      0.24085858      8.70330263
H       1.89285000      0.39707912      8.94083537
H       2.86823098      1.78354213      8.52392751
23
Frame 260  Energy = -425.5038910443 Hartree
C       0.24079008      1.16790949      0.02014644
C      -0.08201649      1.53500208      1.48248108
C       0.88035639      0.91300180      2.54219676
C       0.57553331      1.15290973      4.03066709
C       1.63405988      0.47475635      4.89782064
C       1.55520911      0.85052678      6.39997631
O       0.68434117      1.46580797      6.97798437
O       2.62453080      0.38820178      7.00150231
C       2.78348089      0.70065259      8.38930649
H      -0.40820074      1.76048910     -0.67489540
H       1.25531075      1.29412810     -0.27967465
H       0.04082700      0.11910596     -0.14902253
H      -1.07700889      1.33009468      1.74123759
H       0.05031549      2.65989803      1.61462382
H       0.96341551     -0.19486693      2.28213223
H       1.87179980      1.25781470      2.43525939
H       0.57702976      2.22633482      4.27472887
H      -0.40886326      0.79944588      4.26284290
H       1.59719212     -0.61296765      4.77313469
H       2.62817617      0.78906822      4.52202204
H       3.67481639      0.25014889      8.69749328
H       1.89678364      0.39542776      8.93654997
H       2.88046410      1.77926717      8.51986972
23
Frame 265  Energy = -425.5042875960 Hartree
C       0.24284661      1.16933320      0.02024135
C      -0.08154784      1.53488600      1.48375638
C       0.88042156      0.91330215      2.54516838
C       0.57275837      1.15458153      4.02903012
C       1.63522016      0.47244604      4.89330860
C       1.55550760      0.84961740      6.40164507
O       0.68313735      1.46480137      6.97919620
O       2.62596967      0.38735321      7.00021539
C       2.78264499      0.70090304      8.39170541
H      -0.40930594      1.75980322     -0.66592223
H       1.26117909      1.29395205     -0.27544669
H       0.04663044      0.11110814     -0.14239703
H      -1.07761391      1.33803555      1.74138015
H       0.05317334      2.66040713      1.61501961
H       0.96670957     -0.19460523      2.27820717
H       1.87314396      1.24835860      2.43526313
H       0.57042055      2.22332158      4.27756357
H      -0.41046478      0.79400188      4.26519326
H       1.58671854     -0.61625475      4.76670121
H       2.62600424      0.78957130      4.51130308
H       3.69419445      0.25665452      8.69288850
H       1.90103785      0.39327963      8.93287222
H       2.89269541      1.77558897      8.51541900
23
Frame 270  Energy = -425.5040793962 Hartree
C       0.24457771      1.17071235      0.02041339
C      -0.08048714      1.53527612      1.48504940
C       0.88027377      0.91327495      2.54808065
C       0.57008993      1.15630701      4.02734951
C       1.63644215      0.47025202      4.88886927
C       1.55561347      0.84868400      6.40300932
O       0.68190008      1.46382831      6.98043607
O       2.62762456      0.38633413      6.99910417
C       2.78168138      0.70135852      8.39392302
H      -0.40929339      1.75828546     -0.65647369
H       1.26973130      1.29528397     -0.27108528
H       0.05176354      0.10260737     -0.13622244
H      -1.08277262      1.34482320      1.74195781
H       0.05479350      2.65819396      1.61472245
H       0.96906266     -0.19222059      2.27585779
H       1.87822734      1.24079028      2.43358614
H       0.56346437      2.22044123      4.27945232
H      -0.41434933      0.78805329      4.26826226
H       1.57596153     -0.61995888      4.76069331
H       2.62335818      0.78952769      4.50154313
H       3.71569354      0.26084114      8.68896172
H       1.90451615      0.39060694      8.93008011
H       2.90419868      1.77280549      8.51120472
23
Frame 275  Energy = -425.5038809865 Hartree
C       0.24600860      1.17203023      0.02076372
C      -0.07880272      1.53603540      1.48646136
C       0.87983167      0.91288619      2.55080254
C       0.56757878      1.15806487      4.02568454
C       1.63758781      0.46819151      4.88451317
C       1.55570312      0.84771071      6.40422725
O       0.68063724      1.46293553      6.98165385
O       2.62952196      0.38520524      6.99812563
C       2.78064959      0.70197507      8.39588746
H      -0.40825935      1.75566736     -0.64655012
H       1.28033041      1.29797293     -0.26657693
H       0.05644821      0.09405695     -0.13040067
H      -1.09179091      1.35055832      1.74300092
H       0.05548124      2.65361029      1.61404938
H       0.97060827     -0.18784336      2.27531311
H       1.88670836      1.23503902      2.43007861
H       0.55661948      2.21796662      4.28076692
H      -0.42007102      0.78159355      4.27180498
H       1.56561687     -0.62395619      4.75493503
H       2.62015481      0.78935829      4.49269161
H       3.73801862      0.26340500      8.68560102
H       1.90733009      0.38694194      8.92855392
H       2.91512259      1.77091407      8.50704681
23
Frame 280  Energy = -425.5038982953 Hartree
C       0.24717671      1.17328214      0.02124108
C      -0.07661589      1.53713358      1.48795995
C       0.87921441      0.91224430      2.55321229
C       0.56493482      1.15974097      4.02402056
C       1.63865009      0.46624900      4.88032789
C       1.55579950      0.84671155      6.40506181
O       0.67937994      1.46210727      6.98277775
O       2.63165377      0.38410049      6.99733298
C       2.77979113      0.70266728      8.39760012
H      -0.40676427      1.75241148     -0.63632101
H       1.29215491      1.30189403     -0.26198276
H       0.06091174      0.08606604     -0.12469788
H      -1.10398494      1.35493076      1.74424541
H       0.05528265      2.64689325      1.61288525
H       0.97160588     -0.18166372      2.27683877
H       1.89810594      1.23097303      2.42529587
H       0.54971830      2.21617554      4.28121401
H      -0.42696627      0.77480146      4.27540774
H       1.55578880     -0.62792599      4.74964630
H       2.61639453      0.78879795      4.48506204
H       3.75940370      0.26482853      8.68286641
H       1.90959199      0.38227071      8.92860342
H       2.92534317      1.77004578      8.50319464
23
Frame 285  Energy = -425.5036718028 Hartree
C       0.24809846      1.17437940      0.02192956
C      -0.07400265      1.53853489      1.48960202
C       0.87842213      0.91140300      2.55543536
C       0.56222464      1.16115535      4.02237755
C       1.63956150      0.46440739      4.87624847
C       1.55569902      0.84567283      6.40549491
O       0.67821757      1.46127244      6.98371628
O       2.63394865      0.38298707      6.99669125
C       2.77916533      0.70340589      8.39905165
H      -0.40488248      1.74890358     -0.62633155
H       1.30444402      1.30658947     -0.25706499
H       0.06505242      0.07916421     -0.11943593
H      -1.11831535      1.35813063      1.74550340
H       0.05452295      2.63869123      1.61144059
H       0.97187429     -0.17400642      2.28010380
H       1.91091189      1.22844673      2.41917967
H       0.54280856      2.21522903      4.28096399
H      -0.43408765      0.76748147      4.27903917
H       1.54622465     -0.63126576      4.74499478
H       2.61242083      0.78784675      4.47838801
H       3.77874651      0.26571884      8.68062655
H       1.91105616      0.37673283      8.93014976
H       2.93455244      1.77038914      8.49973717
23
Frame 290  Energy = -425.5038429495 Hartree
C       0.24899077      1.17527863      0.02277378
C      -0.07113147      1.54015269      1.49139777
C       0.87757287      0.91045809      2.55736431
C       0.55954981      1.16226361      4.02075219
C       1.64032299      0.46274370      4.87220247
C       1.55538715      0.84458079      6.40567176
O       0.67721381      1.46042225      6.98449855
O       2.63641509      0.38184318      6.99611826
C       2.77893542      0.70414686      8.40017814
H      -0.40328004      1.74565200     -0.61705879
H       1.31614809      1.31227499     -0.25188788
H       0.06880163      0.07378586     -0.11463551
H      -1.13291953      1.36033051      1.74642502
H       0.05308616      2.62958803      1.60977168
H       0.97106616     -0.16501645      2.28531939
H       1.92376106      1.22722117      2.41197358
H       0.53617674      2.21516201      4.28049202
H      -0.44103658      0.75989573      4.28248081
H       1.53722728     -0.63381534      4.74116091
H       2.60848754      0.78636152      4.47219202
H       3.79504639      0.26641394      8.67853236
H       1.91159476      0.37043010      8.93358571
H       2.94305790      1.77191789      8.49665490
23
Frame 295  Energy = -425.5036969690 Hartree
C       0.24996185      1.17594820      0.02375389
C      -0.06806444      1.54194244      1.49332685
C       0.87673134      0.90937174      2.55899496
C       0.55687952      1.16318080      4.01922755
C       1.64080502      0.46128470      4.86830862
C       1.55491920      0.84341713      6.40552726
O       0.67619734      1.45960300      6.98518679
O       2.63894410      0.38062101      6.99561469
C       2.77924314      0.70477477      8.40109007
H      -0.40211535      1.74272409     -0.60893190
H       1.32664391      1.31871883     -0.24615339
H       0.07234051      0.07083346     -0.10978326
H      -1.14651715      1.36161179      1.74706129
H       0.05102933      2.62076282      1.60784569
H       0.96923609     -0.15587108      2.29229714
H       1.93578018      1.22690090      2.40446729
H       0.52964812      2.21623838      4.27934550
H      -0.44708467      0.75268508      4.28574803
H       1.52902931     -0.63553539      4.73802720
H       2.60473026      0.78432433      4.46646701
H       3.80732491      0.26714867      8.67639657
H       1.91179207      0.36340119      8.93889137
H       2.95011368      1.77441598      8.49423042
23
Frame 300  Energy = -425.5038548597 Hartree
C       0.25099751      1.17632184      0.02488159
C      -0.06485427      1.54380830      1.49533174
C       0.87596719      0.90820445      2.56033081
C       0.55416716      1.16384107      4.01782686
C       1.64102632      0.46003541      4.86459623
C       1.55423685      0.84217978      6.40505315
O       0.67525222      1.45867536      6.98575850
O       2.64156471      0.37933589      6.99529132
C       2.77996336      0.70541205      8.40179532
H      -0.40175980      1.74044439     -0.60303019
H       1.33534143      1.32591244     -0.23970755
H       0.07571194      0.07051254     -0.10520959
H      -1.15830011      1.36193053      1.74750769
H       0.04825223      2.61272687      1.60563150
H       0.96632225     -0.14737408      2.30038760
H       1.94655356      1.22723408      2.39679125
H       0.52315695      2.21833256      4.27769170
H      -0.45164952      0.74634147      4.28863479
H       1.52169023     -0.63628785      4.73573737
H       2.60181780      0.78175782      4.46106559
H       3.81529383      0.26800714      8.67393681
H       1.91202947      0.35591236      8.94573904
H       2.95607041      1.77774191      8.49231398
