23
Frame 5  Energy = -425.5073583323 Hartree
C       0.04358734      1.06565792      0.14500079
C      -0.16239404      1.43457407      1.60324470
C       0.92581171      0.82544539      2.48840332
C       0.71229345      1.20146144      3.96128984
C       1.78175617      0.60566594      4.87742906
C       1.59665567      0.96681660      6.33316802
O       0.69313315      1.66302838      6.77344293
O       2.60660342      0.41888322      7.06188083
C       2.58648377      0.70202602      8.46832696
H      -0.73650873      1.51144963     -0.48959366
H       1.01025978      1.40830304     -0.22170998
H      -0.00855434     -0.01137723      0.01801631
H      -1.13636269      1.09500378      1.92931773
H      -0.14199747      2.53890201      1.69808131
H       0.91046030     -0.27381981      2.36651867
H       1.90129265      1.17942599      2.17667469
H       0.75035287      2.29560309      4.04867138
H      -0.28003196      0.89291276      4.27517633
H       1.79039778     -0.48932700      4.76948441
H       2.76549053      0.97690997      4.56564253
H       3.41796394      0.21113530      8.91916880
H       1.65308892      0.33679365      8.89908771
H       2.65225277      1.78050984      8.59619537
23
Frame 10  Energy = -425.5067019156 Hartree
C       0.04714518      1.06735267      0.14697850
C      -0.16466108      1.43328976      1.60245327
C       0.92747967      0.82673831      2.48486748
C       0.70963860      1.20090896      3.96055022
C       1.77839495      0.60626079      4.87877944
C       1.59826723      0.96569744      6.33432771
O       0.69440618      1.65991501      6.77490140
O       2.60416748      0.41982355      7.06080402
C       2.58974642      0.70215381      8.47156898
H      -0.73274170      1.51654056     -0.49530814
H       1.00901582      1.40512533     -0.22395796
H      -0.01798804     -0.00047662      0.01585711
H      -1.12549804      1.10086186      1.92812753
H      -0.13392759      2.55030233      1.69397029
H       0.90819206     -0.28083235      2.35552005
H       1.89467840      1.18620181      2.19307225
H       0.74972274      2.29625259      4.04235421
H      -0.27884139      0.89855371      4.26212641
H       1.79322040     -0.49145485      4.76342885
H       2.76321122      0.96971198      4.55734496
H       3.40373648      0.20697015      8.90182436
H       1.65892964      0.33978752      8.91823747
H       2.65267619      1.78228430      8.59819174
23
Frame 15  Energy = -425.5066511293 Hartree
C       0.05057435      1.06911127      0.14884863
C      -0.16670809      1.43216018      1.60156621
C       0.92887001      0.82790979      2.48144139
C       0.70718437      1.20039625      3.95976705
C       1.77493250      0.60679404      4.88003297
C       1.59979579      0.96455273      6.33553094
O       0.69584538      1.65671124      6.77638009
O       2.60162515      0.42087235      7.05971166
C       2.59265933      0.70249800      8.47459616
H      -0.72836177      1.52124516     -0.50074531
H       1.00826133      1.40224147     -0.22663439
H      -0.02752248      0.00873299      0.01351881
H      -1.11687793      1.10656658      1.92765000
H      -0.12590568      2.56037728      1.68999684
H       0.90634998     -0.28672246      2.34513054
H       1.88986892      1.19363969      2.20849896
H       0.74892281      2.29721611      4.03616378
H      -0.27888476      0.90375986      4.24996047
H       1.79627450     -0.49322519      4.75784448
H       2.76106996      0.96236023      4.54894208
H       3.39307476      0.20092175      8.88565008
H       1.66489085      0.34330405      8.93720576
H       2.65323558      1.78390187      8.60055332
23
Frame 20  Energy = -425.5066084639 Hartree
C       0.05370403      1.07101849      0.15053635
C      -0.16830093      1.43135940      1.60056911
C       0.92988069      0.82896813      2.47822810
C       0.70487962      1.19999412      3.95878018
C       1.77139395      0.60725298      4.88120206
C       1.60122028      0.96346629      6.33672251
O       0.69743421      1.65336370      6.77793283
O       2.59894504      0.42201439      7.05868080
C       2.59505908      0.70311270      8.47728282
H      -0.72310992      1.52565031     -0.50540992
H       1.00846880      1.39959971     -0.22945171
H      -0.03695399      0.01533470      0.01099520
H      -1.11147220      1.11121873      1.92826859
H      -0.11823141      2.56806913      1.68616559
H       0.90520580     -0.29107174      2.33543718
H       1.88773244      1.20221961      2.22214635
H       0.74810036      2.29831850      4.03027858
H      -0.28077952      0.90849914      4.23878641
H       1.79951849     -0.49419915      4.75318183
H       2.75845221      0.95456480      4.54068878
H       3.38758115      0.19201697      8.87123668
H       1.67107179      0.34674188      8.95579422
H       2.65391073      1.78527438      8.60347007
23
Frame 25  Energy = -425.5065067587 Hartree
C       0.05651495      1.07307640      0.15201550
C      -0.16936149      1.43097561      1.59947361
C       0.93057448      0.82979554      2.47525608
C       0.70281793      1.19983457      3.95766479
C       1.76777576      0.60764023      4.88218269
C       1.60263709      0.96247065      6.33788791
O       0.69921892      1.64994501      6.77950340
O       2.59625777      0.42316297      7.05775704
C       2.59689295      0.70393560      8.47966484
H      -0.71688868      1.52987316     -0.50923999
H       1.01021017      1.39751813     -0.23226893
H      -0.04651909      0.01959560      0.00770320
H      -1.11011890      1.11487391      1.93023561
H      -0.11087881      2.57277757      1.68275760
H       0.90485941     -0.29320270      2.32582491
H       1.88864191      1.21149432      2.23447418
H       0.74694829      2.29932968      4.02470962
H      -0.28502826      0.91270216      4.22909277
H       1.80237950     -0.49436102      4.74912374
H       2.75569220      0.94687120      4.53291859
H       3.38777550      0.18025021      8.85904325
H       1.67739469      0.35000281      8.97393024
H       2.65502188      1.78649919      8.60717115
23
Frame 30  Energy = -425.5065888212 Hartree
C       0.05903062      1.07531013      0.15339730
C      -0.16985696      1.43106662      1.59822815
C       0.93094997      0.83034054      2.47248641
C       0.70098846      1.19983261      3.95637919
C       1.76422134      0.60799661      4.88295259
C       1.60399623      0.96149217      6.33902460
O       0.70107781      1.64650183      6.78106562
O       2.59353940      0.42431389      7.05688992
C       2.59828073      0.70502695      8.48169311
H      -0.70924603      1.53392450     -0.51221639
H       1.01342105      1.39570979     -0.23511914
H      -0.05567235      0.02114655      0.00426633
H      -1.11267416      1.11754721      1.93348478
H      -0.10411338      2.57447952      1.67962235
H       0.90508863     -0.29320953      2.31649677
H       1.89293059      1.22120751      2.24492941
H       0.74547698      2.29983394      4.01936144
H      -0.29148046      0.91623303      4.22071955
H       1.80496936     -0.49356310      4.74531253
H       2.75287926      0.93953830      4.52586186
H       3.39371186      0.16585179      8.84960992
H       1.68423504      0.35332711      8.99133048
H       2.65706317      1.78738913      8.61164485
23
Frame 35  Energy = -425.5067452216 Hartree
C       0.06125204      1.07766486      0.15462205
C      -0.16981763      1.43161860      1.59686214
C       0.93107299      0.83056917      2.46999836
C       0.69930196      1.19989159      3.95489747
C       1.76074886      0.60822135      4.88354587
C       1.60535365      0.96042556      6.34005992
O       0.70300176      1.64299803      6.78265752
O       2.59087007      0.42543126      7.05615775
C       2.59917352      0.70632387      8.48349377
H      -0.70070641      1.53754331     -0.51408741
H       1.01792769      1.39390345     -0.23779776
H      -0.06419565      0.02065800      0.00048690
H      -1.11945041      1.11875704      1.93793364
H      -0.09813576      2.57281994      1.67667081
H       0.90608253     -0.29112923      2.30745926
H       1.89991323      1.23155247      2.25304733
H       0.74401950      2.30010374      4.01403713
H      -0.29970353      0.91865527      4.21358714
H       1.80726470     -0.49215440      4.74193247
H       2.74990781      0.93258841      4.51943801
H       3.40499989      0.14920359      8.84260823
H       1.69117128      0.35715395      9.00785571
H       2.65959416      1.78785968      8.61662444
23
Frame 40  Energy = -425.5065225041 Hartree
C       0.06316364      1.08007399      0.15561293
C      -0.16929611      1.43252345      1.59535842
C       0.93088012      0.83057600      2.46769087
C       0.69780624      1.19992448      3.95330870
C       1.75740217      0.60837354      4.88399917
C       1.60659030      0.95919300      6.34099021
O       0.70492283      1.63945695      6.78437375
O       2.58821965      0.42645448      7.05557256
C       2.59969696      0.70779482      8.48507788
H      -0.69134117      1.54099076     -0.51507117
H       1.02370800      1.39199198     -0.24029478
H      -0.07223084      0.01802970     -0.00362469
H      -1.12961378      1.11901054      1.94350673
H      -0.09300868      2.56772682      1.67405337
H       0.90802972     -0.28681963      2.29911752
H       1.90890894      1.24228866      2.25905210
H       0.74199740      2.30044907      4.00903558
H      -0.30957026      0.92032991      4.20777192
H       1.80903094     -0.49017263      4.73966649
H       2.74671350      0.92598265      4.51392116
H       3.42003899      0.13114227      8.83738439
H       1.69813280      0.36134165      9.02279083
H       2.66282384      1.78829333      8.62193847
23
Frame 45  Energy = -425.5064185560 Hartree
C       0.06482956      1.08247837      0.15628570
C      -0.16831050      1.43377464      1.59370650
C       0.93044609      0.83045903      2.46560066
C       0.69640361      1.19997902      3.95161321
C       1.75417323      0.60844348      4.88422718
C       1.60767548      0.95797970      6.34182161
O       0.70687445      1.63588784      6.78614430
O       2.58560005      0.42744770      7.05521348
C       2.59996865      0.70934556      8.48652915
H      -0.68144757      1.54451782     -0.51532368
H       1.03076201      1.39014608     -0.24241270
H      -0.07949446      0.01387800     -0.00807945
H      -1.14179667      1.11885289      1.94980268
H      -0.08834966      2.55986576      1.67179336
H       0.91091530     -0.28016230      2.29165436
H       1.91904932      1.25315498      2.26296200
H       0.73971227      2.30020345      4.00448755
H      -0.32098838      0.92138539      4.20327502
H       1.81000665     -0.48760681      4.73855049
H       2.74306467      0.91983251      4.50916080
H       3.43753992      0.11298887      8.83308541
H       1.70509671      0.36537113      9.03628156
H       2.66685734      1.78876514      8.62748698
23
Frame 50  Energy = -425.5058814232 Hartree
C       0.06633481      1.08485740      0.15666801
C      -0.16694107      1.43525719      1.59203804
C       0.92982194      0.83025855      2.46377800
C       0.69491040      1.20006120      3.94979476
C       1.75096602      0.60841999      4.88418114
C       1.60858205      0.95671122      6.34252902
O       0.70874310      1.63234759      6.78797367
O       2.58304879      0.42841143      7.05503854
C       2.60010296      0.71080512      8.48792702
H      -0.67117520      1.54818819     -0.51452907
H       1.03907368      1.38820977     -0.24451429
H      -0.08586767      0.00893304     -0.01251248
H      -1.15489567      1.11836481      1.95625383
H      -0.08472695      2.54997983      1.66994006
H       0.91480221     -0.27148231      2.28499368
H       1.92930795      1.26365309      2.26498343
H       0.73734432      2.29931336      4.00064440
H      -0.33334630      0.92165913      4.19985923
H       1.81034532     -0.48468486      4.73835095
H       2.73951579      0.91474502      4.50501704
H       3.45574718      0.09565141      8.82912043
H       1.71215614      0.36919278      9.04811143
H       2.67195799      1.78923026      8.63354151
23
Frame 55  Energy = -425.5054951674 Hartree
C       0.06764893      1.08716679      0.15682264
C      -0.16526225      1.43700252      1.59041618
C       0.92916621      0.83008444      2.46216450
C       0.69332024      1.20010743      3.94778400
C       1.74781477      0.60843437      4.88382988
C       1.60931080      0.95551417      6.34294993
O       0.71062262      1.62887154      6.78990609
O       2.58064408      0.42931263      7.05502256
C       2.60026666      0.71209382      8.48923382
H      -0.66113193      1.55223297     -0.51321063
H       1.04813505      1.38586729     -0.24599322
H      -0.09150423      0.00405348     -0.01692066
H      -1.16808354      1.11764679      1.96219275
H      -0.08208229      2.53846299      1.66860336
H       0.91947558     -0.26123177      2.27915636
H       1.93913184      1.27300333      2.26506052
H       0.73520878      2.29814462      3.99744775
H      -0.34542306      0.92155160      4.19743909
H       1.81010018     -0.48163189      4.73898126
H       2.73595501      0.91057743      4.50163401
H       3.47365571      0.08020102      8.82521723
H       1.71932972      0.37293450      9.05844497
H       2.67852011      1.78952928      8.64012220
23
Frame 60  Energy = -425.5054946361 Hartree
C       0.06882462      1.08917704      0.15671115
C      -0.16350821      1.43885490      1.58888992
C       0.92849767      0.82992024      2.46077236
C       0.69160090      1.20009125      3.94563869
C       1.74470693      0.60835827      4.88321401
C       1.60988193      0.95434889      6.34315148
O       0.71245871      1.62541320      6.79199103
O       2.57837337      0.43014711      7.05515570
C       2.60057235      0.71318951      8.49048800
H      -0.65148584      1.55691118     -0.51153051
H       1.05691766      1.38302844     -0.24629085
H      -0.09602425     -0.00028547     -0.02111615
H      -1.17980060      1.11713535      1.96738809
H      -0.08042419      2.52616723      1.66786325
H       0.92518587     -0.25018680      2.27383633
H       1.94764344      1.28093584      2.26348901
H       0.73319499      2.29691888      3.99450734
H      -0.35662669      0.92125598      4.19588266
H       1.80917466     -0.47862900      4.74039306
H       2.73235067      0.90687683      4.49916633
H       3.48983952      0.06763733      8.82084698
H       1.72646482      0.37636225      9.06711016
H       2.68593814      1.78947235      8.64704966
23
Frame 65  Energy = -425.5056051415 Hartree
C       0.06993876      1.09083823      0.15629433
C      -0.16175200      1.44074273      1.58747583
C       0.92788312      0.82979589      2.45957740
C       0.68968157      1.19994569      3.94346031
C       1.74164130      0.60830592      4.88240805
C       1.61040112      0.95322188      6.34312117
O       0.71423897      1.62198102      6.79415754
O       2.57629233      0.43089577      7.05548273
C       2.60114662      0.71406365      8.49169378
H      -0.64241591      1.56244574     -0.50991014
H       1.06531701      1.37961733     -0.24539848
H      -0.09919451     -0.00340946     -0.02479284
H      -1.18901850      1.11761914      1.97144241
H      -0.07958140      2.51441054      1.66794835
H       0.93188446     -0.23918982      2.26895335
H       1.95387655      1.28703755      2.26077963
H       0.73097590      2.29595234      3.99232801
H      -0.36619966      0.92094941      4.19501638
H       1.80714841     -0.47599190      4.74251860
H       2.72870421      0.90407859      4.49762047
H       3.50324276      0.05836710      8.81598262
H       1.73347604      0.37899146      9.07416453
H       2.69407853      1.78950046      8.65410122
23
Frame 70  Energy = -425.5056787428 Hartree
C       0.07103947      1.09212087      0.15550231
C      -0.15997320      1.44260220      1.58624484
C       0.92748330      0.82994019      2.45857212
C       0.68761714      1.19971409      3.94130141
C       1.73855170      0.60822471      4.88145022
C       1.61070072      0.95217439      6.34285766
O       0.71594605      1.61856788      6.79629469
O       2.57440989      0.43147010      7.05602077
C       2.60204132      0.71462100      8.49291694
H      -0.63418511      1.56887304     -0.50827784
H       1.07301961      1.37546271     -0.24304496
H      -0.10099762     -0.00468332     -0.02820230
H      -1.19494124      1.11911417      1.97437741
H      -0.07933933      2.50412593      1.66867771
H       0.93929024     -0.22912190      2.26448824
H       1.95701773      1.29086296      2.25669952
H       0.72853126      2.29558394      3.99090905
H      -0.37366423      0.92095982      4.19470658
H       1.80408342     -0.47370060      4.74559841
H       2.72520833      0.90211518      4.49663171
H       3.51352380      0.05311720      8.81072672
H       1.74001718      0.38125453      9.07963958
H       2.70327133      1.78949699      8.66079495
23
Frame 75  Energy = -425.5058626320 Hartree
C       0.07218749      1.09306982      0.15427565
C      -0.15812866      1.44437913      1.58522104
C       0.92715086      0.83044263      2.45773638
C       0.68544885      1.19942000      3.93913209
C       1.73553802      0.60805542      4.88035105
C       1.61080807      0.95119293      6.34239482
O       0.71754883      1.61518953      6.79847071
O       2.57265982      0.43195908      7.05689762
C       2.60343833      0.71482382      8.49412690
H      -0.62730206      1.57608927     -0.50716387
H       1.07972813      1.37041194     -0.23923733
H      -0.10162275     -0.00419090     -0.03137650
H      -1.19746155      1.12171986      1.97574671
H      -0.07972661      2.49675430      1.67017516
H       0.94741061     -0.22073355      2.26029946
H       1.95705622      1.29261725      2.25124058
H       0.72561596      2.29550685      3.98996796
H      -0.37865294      0.92148079      4.19502014
H       1.80054626     -0.47205219      4.74957933
H       2.72227831      0.90100336      4.49669193
H       3.52062520      0.05210914      8.80503040
H       1.74586779      0.38313264      9.08390154
H       2.71320794      1.78917812      8.66748009
23
Frame 80  Energy = -425.5058600561 Hartree
C       0.07344736      1.09369084      0.15273309
C      -0.15640903      1.44590282      1.58441848
C       0.92696947      0.83134369      2.45724637
C       0.68314297      1.19910024      3.93682519
C       1.73268816      0.60774225      4.87901652
C       1.61069719      0.95027225      6.34167475
O       0.71903811      1.61189672      6.80082858
O       2.57110515      0.43238173      7.05804498
C       2.60525034      0.71478438      8.49535164
H      -0.62135526      1.58412280     -0.50643899
H       1.08537065      1.36468979     -0.23402006
H      -0.10085182     -0.00180209     -0.03398602
H      -1.19652507      1.12509917      1.97524999
H      -0.08065293      2.49309854      1.67236783
H       0.95616247     -0.21491952      2.25633933
H       1.95407163      1.29259352      2.24507455
H       0.72239517      2.29536718      3.98973782
H      -0.38079715      0.92213306      4.19589683
H       1.79604869     -0.47193683      4.75448756
H       2.71992571      0.90069749      4.49761910
H       3.52401357      0.05530537      8.79879759
H       1.75093170      0.38459568      9.08657636
H       2.72387200      1.78846957      8.67434443
23
Frame 85  Energy = -425.5060561085 Hartree
C       0.07475819      1.09395561      0.15087544
C      -0.15488147      1.44723014      1.58366072
C       0.92695765      0.83263764      2.45699606
C       0.68069030      1.19873095      3.93440172
C       1.73001896      0.60725569      4.87743472
C       1.61039789      0.94941521      6.34066209
O       0.72044295      1.60876606      6.80332365
O       2.56970938      0.43267167      7.05936068
C       2.60744369      0.71444457      8.49654376
H      -0.61684801      1.59306756     -0.50632620
H       1.08965077      1.35850066     -0.22730663
H      -0.09865331      0.00260168     -0.03575403
H      -1.19171656      1.12950766      1.97312202
H      -0.08178550      2.49349732      1.67528826
H       0.96538180     -0.21176664      2.25281730
H       1.94808088      1.29095261      2.23809712
H       0.71911958      2.29498588      3.99007137
H      -0.38040244      0.92318581      4.19744237
H       1.79054414     -0.47320248      4.76039695
H       2.71787617      0.90137074      4.49919023
H       3.52354386      0.06278933      8.79218541
H       1.75517882      0.38516212      9.08774523
H       2.73515497      1.78785736      8.68109990
23
Frame 90  Energy = -425.5061751330 Hartree
C       0.07611467      1.09397115      0.14876993
C      -0.15347003      1.44829068      1.58310354
C       0.92705429      0.83430706      2.45693670
C       0.67816402      1.19826241      3.93199290
C       1.72738618      0.60664997      4.87577767
C       1.61001119      0.94859110      6.33938385
O       0.72162687      1.60582767      6.80591653
O       2.56842940      0.43297083      7.06088186
C       2.61000869      0.71383212      8.49771059
H      -0.61368941      1.60305944     -0.50672285
H       1.09287205      1.35174935     -0.21958187
H      -0.09557104      0.00867159     -0.03716244
H      -1.18342496      1.13477765      1.96907893
H      -0.08330352      2.49805006      1.67869813
H       0.97487206     -0.21150970      2.24972965
H       1.93954988      1.28761283      2.23024506
H       0.71576190      2.29480401      3.99075033
H      -0.37760532      0.92446406      4.19957908
H       1.78412917     -0.47585397      4.76689422
H       2.71613887      0.90269005      4.50112486
H       3.51927515      0.07381239      8.78529880
H       1.75860230      0.38477569      9.08756616
H       2.74728328      1.78675295      8.68752194
23
Frame 95  Energy = -425.5061449996 Hartree
C       0.07740600      1.09390512      0.14642831
C      -0.15213588      1.44925870      1.58272812
C       0.92726684      0.83626783      2.45700032
C       0.67545672      1.19779203      3.92945419
C       1.72484174      0.60606458      4.87402835
C       1.60950267      0.94784836      6.33788310
O       0.72254488      1.60300422      6.80863965
O       2.56732887      0.43323824      7.06258368
C       2.61299326      0.71305233      8.49872240
H      -0.61162623      1.61379006     -0.50812019
H       1.09461044      1.34439200     -0.21085270
H      -0.09203829      0.01613026     -0.03796481
H      -1.17224352      1.14099596      1.96361263
H      -0.08520382      2.50629851      1.68264161
H       0.98468973     -0.21398884      2.24700852
H       1.92931849      1.28277814      2.22188681
H       0.71215425      2.29468214      3.99171972
H      -0.37263059      0.92568213      4.20209629
H       1.77698523     -0.47964150      4.77406513
H       2.71477869      0.90499082      4.50365825
H       3.51199683      0.08792160      8.77773586
H       1.76112418      0.38367882      9.08647368
H       2.75982665      1.78505474      8.69348085
23
Frame 100  Energy = -425.5058669341 Hartree
C       0.07861471      1.09372384      0.14386845
C      -0.15090679      1.45003551      1.58255947
C       0.92760638      0.83851736      2.45725400
C       0.67263860      1.19735516      3.92673066
C       1.72241697      0.60538335      4.87216297
C       1.60884695      0.94715088      6.33615377
O       0.72333860      1.60037963      6.81146966
O       2.56644598      0.43345431      7.06454975
C       2.61634090      0.71201573      8.49960924
H      -0.61031155      1.62548554     -0.51054802
H       1.09548684      1.33648037     -0.20125163
H      -0.08807483      0.02443318     -0.03832206
H      -1.15848037      1.14769998      1.95717977
H      -0.08729833      2.51765512      1.68685229
H       0.99426086     -0.21881933      2.24504322
H       1.91756595      1.27713352      2.21287049
H       0.70840943      2.29456864      3.99307098
H      -0.36564335      0.92682659      4.20484576
H       1.76914650     -0.48405388      4.78160102
H       2.71378145      0.90811709      4.50707473
H       3.50254110      0.10430237      8.77003612
H       1.76290871      0.38172677      9.08444472
H       2.77245180      1.78280397      8.69911209
23
Frame 105  Energy = -425.5055438843 Hartree
C       0.07964172      1.09343534      0.14111505
C      -0.14970916      1.45068201      1.58249322
C       0.92808267      0.84101235      2.45769718
C       0.66969902      1.19688096      3.92407072
C       1.71996733      0.60456210      4.87021993
C       1.60805522      0.94654058      6.33434344
O       0.72400056      1.59795236      6.81440938
O       2.56572151      0.43359407      7.06673026
C       2.61986177      0.71092073      8.50035865
H      -0.60956593      1.63779451     -0.51351992
H       1.09598680      1.32855730     -0.19105814
H      -0.08383612      0.03277226     -0.03847066
H      -1.14340221      1.15492441      1.95001304
H      -0.08952503      2.53130378      1.69142259
H       1.00391529     -0.22492780      2.24384356
H       1.90491076      1.27143513      2.20334950
H       0.70482341      2.29426732      3.99480551
H      -0.35774200      0.92789219      4.20790657
H       1.76089156     -0.48879878      4.78906365
H       2.71291945      0.91193042      4.51110450
H       3.49196487      0.12185355      8.76292001
H       1.76402198      0.37906610      9.08177690
H       2.78531498      1.77976066      8.70425851
23
Frame 110  Energy = -425.5053431412 Hartree
C       0.08054510      1.09313329      0.13813820
C      -0.14851565      1.45127208      1.58245552
C       0.92860442      0.84363466      2.45821244
C       0.66670958      1.19631352      3.92141300
C       1.71761585      0.60372062      4.86814062
C       1.60713097      0.94598468      6.33231619
O       0.72439340      1.59566058      6.81751406
O       2.56515714      0.43366072      7.06906416
C       2.62343963      0.70983545      8.50088067
H      -0.60902376      1.65013237     -0.51677265
H       1.09662345      1.32066193     -0.18061663
H      -0.07942669      0.04051635     -0.03841803
H      -1.12846001      1.16190404      1.94232927
H      -0.09209768      2.54593939      1.69640557
H       1.01325675     -0.23217907      2.24360325
H       1.89264855      1.26570729      2.19338559
H       0.70129477      2.29401658      3.99707894
H      -0.34909179      0.92851850      4.21149874
H       1.75223504     -0.49338255      4.79640508
H       2.71237513      0.91619936      4.51521275
H       3.48191095      0.13976633      8.75692759
H       1.76453964      0.37578880      9.07796771
H       2.79783720      1.77575399      8.70883178
23
Frame 115  Energy = -425.5052715740 Hartree
C       0.08138360      1.09302535      0.13505052
C      -0.14714364      1.45198760      1.58237355
C       0.92908609      0.84621906      2.45873200
C       0.66379341      1.19556859      3.91883189
C       1.71542133      0.60278648      4.86609758
C       1.60605948      0.94546757      6.33011031
O       0.72456279      1.59353648      6.82075799
O       2.56475759      0.43366386      7.07143097
C       2.62706789      0.70884654      8.50117845
H      -0.60811254      1.66218667     -0.51960487
H       1.09755493      1.31281630     -0.17042762
H      -0.07531031      0.04650474     -0.03854366
H      -1.11462514      1.16789375      1.93440157
H      -0.09522225      2.56004972      1.70112518
H       1.02244565     -0.23974611      2.24426095
H       1.88148201      1.26004270      2.18289826
H       0.69791057      2.29351348      3.99974010
H      -0.34086090      0.92853523      4.21545816
H       1.74296810     -0.49750891      4.80370633
H       2.71205706      0.92062712      4.51975593
H       3.47413499      0.15661475      8.75259772
H       1.76430420      0.37224281      9.07326602
H       2.81031642      1.77126767      8.71259794
23
Frame 120  Energy = -425.5053973503 Hartree
C       0.08209716      1.09313256      0.13179916
C      -0.14552883      1.45283315      1.58223443
C       0.92950019      0.84871679      2.45926530
C       0.66103795      1.19479654      3.91639160
C       1.71338071      0.60166132      4.86404171
C       1.60486110      0.94496497      6.32786212
O       0.72456610      1.59155094      6.82407235
O       2.56457650      0.43355088      7.07393428
C       2.63057131      0.70807181      8.50116826
H      -0.60653316      1.67354447     -0.52209908
H       1.09932215      1.30541323     -0.16068035
H      -0.07176281      0.04983412     -0.03899475
H      -1.10325917      1.17287631      1.92661326
H      -0.09838772      2.57280534      1.70580774
H       1.03064844     -0.24628027      2.24582408
H       1.87228144      1.25557461      2.17176536
H       0.69462930      2.29231760      4.00224811
H      -0.33361026      0.92733175      4.21990366
H       1.73290185     -0.50117038      4.81078396
H       2.71168230      0.92501165      4.52481652
H       3.46996846      0.17110796      8.75049214
H       1.76350882      0.36834555      9.06794812
H       2.82221269      1.76650842      8.71570974
23
Frame 125  Energy = -425.5054761905 Hartree
C       0.08257459      1.09338913      0.12842103
C      -0.14362455      1.45386199      1.58196490
C       0.92967801      0.85098817      2.45996399
C       0.65853321      1.19406222      3.91417430
C       1.71141012      0.60040730      4.86199658
C       1.60342209      0.94447760      6.32559111
O       0.72432120      1.58975025      6.82743264
O       2.56451673      0.43331447      7.07648223
C       2.63378772      0.70757829      8.50102245
H      -0.60405033      1.68392806     -0.52433630
H       1.10188488      1.29888239     -0.15114952
H      -0.06879087      0.05070091     -0.03981071
H      -1.09556265      1.17626473      1.91943212
H      -0.10155738      2.58319935      1.70998616
H       1.03785515     -0.25140307      2.24855067
H       1.86558546      1.25206358      2.15947836
H       0.69142582      2.29068710      4.00499644
H      -0.32806022      0.92511587      4.22468374
H       1.72240062     -0.50456084      4.81764749
H       2.71121081      0.92948811      4.53006239
H       3.47058954      0.18228039      8.75096576
H       1.76223886      0.36441171      9.06187916
H       2.83324908      1.76172935      8.71809802
23
Frame 130  Energy = -425.5058438199 Hartree
C       0.08280825      1.09376391      0.12500581
C      -0.14144654      1.45523833      1.58158818
C       0.92960685      0.85296780      2.46078566
C       0.65635274      1.19343573      3.91208489
C       1.70962172      0.59896915      4.85995249
C       1.60183169      0.94396625      6.32331429
O       0.72380902      1.58802070      6.83076404
O       2.56463867      0.43293712      7.07902679
C       2.63668322      0.70739733      8.50065706
H      -0.60069183      1.69298639     -0.52588982
H       1.10559236      1.29310397     -0.14199779
H      -0.06656660      0.04918634     -0.04115948
H      -1.09211215      1.17773941      1.91324762
H      -0.10493088      2.59083972      1.71342388
H       1.04419753     -0.25458307      2.25245913
H       1.86192541      1.24970880      2.14628509
H       0.68833397      2.28857788      4.00812062
H      -0.32452299      0.92191282      4.22996385
H       1.71213027     -0.50748106      4.82404782
H       2.71055852      0.93384043      4.53520304
H       3.47634016      0.18954520      8.75400821
H       1.76029812      0.36058145      9.05526190
H       2.84358705      1.75697262      8.71990900
23
Frame 135  Energy = -425.5059118887 Hartree
C       0.08295525      1.09437021      0.12160246
C      -0.13894775      1.45692668      1.58112493
C       0.92926195      0.85462333      2.46161315
C       0.65437852      1.19293671      3.91013250
C       1.70806691      0.59738153      4.85795576
C       1.60014376      0.94345003      6.32117280
O       0.72313801      1.58634985      6.83408756
O       2.56494565      0.43249800      7.08158851
C       2.63912094      0.70748706      8.49999244
H      -0.59572828      1.70033985     -0.52722957
H       1.11075841      1.28788728     -0.13357945
H      -0.06544526      0.04541399     -0.04283262
H      -1.09314696      1.17750835      1.90820029
H      -0.10854808      2.59544946      1.71651065
H       1.04949635     -0.25581580      2.25790623
H       1.86149406      1.24870297      2.13245295
H       0.68529344      2.28639707      4.01158412
H      -0.32328765      0.91735199      4.23595080
H       1.70233394     -0.50944020      4.82976546
H       2.70963054      0.93766483      4.54051887
H       3.48750443      0.19258831      8.76003280
H       1.75810573      0.35691864      9.04803508
H       2.85321719      1.75286866      8.72080458
23
Frame 140  Energy = -425.5061309318 Hartree
C       0.08297587      1.09517523      0.11822247
C      -0.13609633      1.45896749      1.58050010
C       0.92872768      0.85602939      2.46244967
C       0.65272068      1.19261368      3.90836291
C       1.70664605      0.59567522      4.85607834
C       1.59836576      0.94304524      6.31915350
O       0.72226603      1.58474942      6.83743003
O       2.56542107      0.43196473      7.08401876
C       2.64117273      0.70776023      8.49905538
H      -0.58947998      1.70650587     -0.52833407
H       1.11713893      1.28346189     -0.12591978
H      -0.06554335      0.03968197     -0.04488093
H      -1.09829832      1.17510826      1.90470052
H      -0.11182468      2.59678106      1.71924320
H       1.05335016     -0.25493956      2.26457774
H       1.86367911      1.24930279      2.11861406
H       0.68238176      2.28445540      4.01533387
H      -0.32428837      0.91112803      4.24262195
H       1.69283059     -0.51073215      4.83502002
H       2.70844978      0.94077533      4.54572970
H       3.50338034      0.19170693      8.76858668
H       1.75592850      0.35342593      9.04032125
H       2.86186355      1.74942182      8.72079065
23
Frame 145  Energy = -425.5064741810 Hartree
C       0.08286225      1.09613437      0.11498425
C      -0.13303677      1.46141927      1.57975063
C       0.92800263      0.85720379      2.46330851
C       0.65134773      1.19250655      3.90685190
C       1.70531595      0.59391076      4.85424957
C       1.59657656      0.94267062      6.31727449
O       0.72120465      1.58326535      6.84074838
O       2.56604124      0.43134928      7.08627489
C       2.64289531      0.70813607      8.49785953
H      -0.58245771      1.71110502     -0.52921988
H       1.12457881      1.27999390     -0.11889813
H      -0.06641285      0.03267601     -0.04702988
H      -1.10714388      1.17085738      1.90256130
H      -0.11485660      2.59484314      1.72132813
H       1.05624198     -0.25164698      2.27202392
H       1.86814487      1.25142621      2.10507269
H       0.67969697      2.28278278      4.01895684
H      -0.32714028      0.90385768      4.24930705
H       1.68397103     -0.51146194      4.83947735
H       2.70723168      0.94300747      4.55063417
H       3.52278800      0.18793236      8.77899608
H       1.75355966      0.35028112      9.03237166
H       2.86918350      1.74695993      8.72006042
23
Frame 150  Energy = -425.5061415237 Hartree
C       0.08260528      1.09721072      0.11189524
C      -0.12987781      1.46411339      1.57882269
C       0.92711891      0.85815528      2.46413686
C       0.65027933      1.19239208      3.90547118
C       1.70411811      0.59220862      4.85246637
C       1.59466039      0.94234792      6.31567130
O       0.72003325      1.58194083      6.84399694
O       2.56683564      0.43062251      7.08839797
C       2.64445788      0.70863242      8.49639017
H      -0.57456174      1.71433392     -0.52963728
H       1.13261539      1.27724665     -0.11279909
H      -0.06772185      0.02512413     -0.04946785
H      -1.11884055      1.16533548      1.90118203
H      -0.11763733      2.58972860      1.72293899
H       1.05805439     -0.24622459      2.27996386
H       1.87457877      1.25453737      2.09218875
H       0.67669909      2.28111273      4.02263544
H      -0.33149029      0.89558113      4.25583465
H       1.67576644     -0.51192140      4.84298600
H       2.70628540      0.94422990      4.55551750
H       3.54417595      0.18210436      8.79084781
H       1.75144857      0.34731305      9.02422814
H       2.87541281      1.74562544      8.71853117
23
Frame 155  Energy = -425.5060533623 Hartree
C       0.08225061      1.09837136      0.10892135
C      -0.12675719      1.46697600      1.57783439
C       0.92618942      0.85901785      2.46489444
C       0.64946703      1.19231559      3.90432002
C       1.70299971      0.59047357      4.85071942
C       1.59261729      0.94210160      6.31443048
O       0.71870599      1.58068114      6.84714315
O       2.56776829      0.42980940      7.09037233
C       2.64602596      0.70909395      8.49486024
H      -0.56598090      1.71656162     -0.52981032
H       1.14112569      1.27533175     -0.10773458
H      -0.06957290      0.01769810     -0.05208567
H      -1.13174908      1.15901481      1.90019394
H      -0.12025814      2.58200551      1.72403826
H       1.05875756     -0.23861317      2.28891419
H       1.88229947      1.25826351      2.08042979
H       0.67361542      2.27974422      4.02651630
H      -0.33679665      0.88649409      4.26226499
H       1.66800864     -0.51191977      4.84559898
H       2.70522062      0.94453197      4.56012608
H       3.56554374      0.17491753      8.80351828
H       1.74973553      0.34483527      9.01631603
H       2.88043189      1.74534670      8.71649673
23
Frame 160  Energy = -425.5059775860 Hartree
C       0.08194597      1.09955352      0.10596329
C      -0.12381854      1.46997291      1.57672241
C       0.92532737      0.85973319      2.46549993
C       0.64890545      1.19226285      3.90343303
C       1.70206304      0.58875196      4.84904038
C       1.59046763      0.94196568      6.31342516
O       0.71723755      1.57957168      6.85013892
O       2.56874776      0.42887627      7.09227570
C       2.64778713      0.70948538      8.49330832
H      -0.55652976      1.71786531     -0.53005951
H       1.14990794      1.27408891     -0.10366666
H      -0.07178185      0.01105863     -0.05490227
H      -1.14421706      1.15279087      1.89910259
H      -0.12239753      2.57234599      1.72455616
H       1.05805815     -0.22983960      2.29850560
H       1.89033280      1.26211286      2.07050831
H       0.67066134      2.27861403      4.03078162
H      -0.34283296      0.87702974      4.26805694
H       1.66055019     -0.51151652      4.84680808
H       2.70402113      0.94403676      4.56443149
H       3.58536710      0.16748853      8.81641919
H       1.74869552      0.34266583      9.00870188
H       2.88433550      1.74621983      8.71379516
23
Frame 165  Energy = -425.5058942795 Hartree
C       0.08177323      1.10066448      0.10310804
C      -0.12126628      1.47296634      1.57556603
C       0.92461313      0.86027794      2.46591791
C       0.64842705      1.19212819      3.90286233
C       1.70124098      0.58696463      4.84755719
C       1.58826671      0.94182914      6.31273319
O       0.71564873      1.57853057      6.85315872
O       2.56978232      0.42783735      7.09398756
C       2.64979009      0.70963741      8.49180417
H      -0.54697825      1.71837442     -0.53097595
H       1.15840502      1.27320736     -0.10039850
H      -0.07425754      0.00580954     -0.05821096
H      -1.15543628      1.14684544      1.89813879
H      -0.12392815      2.56178228      1.72444689
H       1.05596175     -0.22043400      2.30842962
H       1.89798305      1.26580531      2.06234790
H       0.66753837      2.27783336      4.03476495
H      -0.34886325      0.86735535      4.27279978
H       1.65407971     -0.51107639      4.84667035
H       2.70285599      0.94241686      4.56816154
H       3.60235938      0.16049567      8.82890528
H       1.74838358      0.34096528      9.00132680
H       2.88685858      1.74829683      8.71065282
23
Frame 170  Energy = -425.5061074571 Hartree
C       0.08181015      1.10168923      0.10041565
C      -0.11907047      1.47590385      1.57433557
C       0.92406964      0.86077774      2.46620520
C       0.64803983      1.19189137      3.90256369
C       1.70054631      0.58511379      4.84622326
C       1.58592546      0.94177783      6.31243522
O       0.71393654      1.57766015      6.85610347
O       2.57092603      0.42672136      7.09546464
C       2.65204096      0.70954928      8.49024411
H      -0.53768243      1.71853472     -0.53308102
H       1.16565616      1.27241797     -0.09834299
H      -0.07691149      0.00234665     -0.06151558
H      -1.16416424      1.14117551      1.89678281
H      -0.12491435      2.55151239      1.72368934
H       1.05261337     -0.21126784      2.31857914
H       1.90459843      1.26940980      2.05653650
H       0.66418913      2.27748253      4.03881667
H      -0.35407803      0.85759309      4.27625627
H       1.64825504     -0.51053048      4.84561734
H       2.70165418      0.93962372      4.57108615
H       3.61541069      0.15460511      8.84034389
H       1.74873008      0.34003366      8.99421484
H       2.88793976      1.75143809      8.70734119
23
Frame 175  Energy = -425.5059441647 Hartree
C       0.08217071      1.10264890      0.09792246
C      -0.11732638      1.47856521      1.57307046
C       0.92367294      0.86128183      2.46634319
C       0.64772122      1.19152409      3.90245108
C       1.69986808      0.58325745      4.84502372
C       1.58335379      0.94185043      6.31257834
O       0.71218677      1.57692961      6.85895002
O       2.57224243      0.42551509      7.09672945
C       2.65456580      0.70931003      8.48857211
H      -0.52876931      1.71847324     -0.53640536
H       1.17113311      1.27209512     -0.09746315
H      -0.08010797      0.00094697     -0.06477474
H      -1.17019679      1.13639274      1.89496784
H      -0.12545675      2.54246150      1.72278862
H       1.04811624     -0.20293473      2.32887592
H       1.90967081      1.27245902      2.05299866
H       0.66037228      2.27759799      4.04261460
H      -0.35809644      0.84809781      4.27819265
H       1.64327575     -0.50996166      4.84349999
H       2.70105888      0.93573280      4.57323966
H       3.62379884      0.14985940      8.85029118
H       1.75004163      0.33953016      8.98734212
H       2.88770688      1.75542897      8.70356332
23
Frame 180  Energy = -425.5059930063 Hartree
C       0.08284336      1.10346667      0.09564154
C      -0.11608788      1.48087933      1.57179198
C       0.92346287      0.86189624      2.46633275
C       0.64744721      1.19110265      3.90267371
C       1.69921130      0.58144016      4.84392786
C       1.58076387      0.94188341      6.31322308
O       0.71036931      1.57628356      6.86174768
O       2.57370813      0.42423699      7.09785083
C       2.65754559      0.70889196      8.48691478
H      -0.52045713      1.71838633     -0.54137889
H       1.17516947      1.27186659     -0.09732994
H      -0.08370182      0.00195635     -0.06766474
H      -1.17321520      1.13261348      1.89238141
H      -0.12553421      2.53552662      1.72162342
H       1.04263127     -0.19611327      2.33897889
H       1.91234958      1.27504113      2.05215847
H       0.65612022      2.27781261      4.04633026
H      -0.36026624      0.83939436      4.27818228
H       1.63923191     -0.50952214      4.84038116
H       2.70103358      0.93076420      4.57471450
H       3.62686143      0.14635730      8.85853425
H       1.75199192      0.33959049      8.98078425
H       2.88605509      1.75976667      8.69912756
23
Frame 185  Energy = -425.5061974705 Hartree
C       0.08387263      1.10403015      0.09369039
C      -0.11537812      1.48279143      1.57051567
C       0.92339384      0.86281211      2.46618208
C       0.64713906      1.19058700      3.90327518
C       1.69851534      0.57965556      4.84291205
C       1.57813364      0.94198658      6.31425506
O       0.70843023      1.57578031      6.86445265
O       2.57525248      0.42295870      7.09867744
C       2.66078354      0.70825454      8.48533217
H      -0.51301275      1.71863399     -0.54808562
H       1.17731733      1.27186165     -0.09803626
H      -0.08765851      0.00517330     -0.07027501
H      -1.17283094      1.13005516      1.88910728
H      -0.12534078      2.53136908      1.72011794
H       1.03685329     -0.19125015      2.34867882
H       1.91261472      1.27671401      2.05393303
H       0.65152815      2.27802156      4.05006663
H      -0.36056679      0.83102148      4.27636468
H       1.63595345     -0.50937520      4.83622842
H       2.70108057      0.92468902      4.57557531
H       3.62473989      0.14477128      8.86510515
H       1.75458375      0.34022453      8.97512439
H       2.88284813      1.76421074      8.69407962
23
Frame 190  Energy = -425.5062969522 Hartree
C       0.08526134      1.10434864      0.09202128
C      -0.11517482      1.48427124      1.56918229
C       0.92358718      0.86391608      2.46583913
C       0.64672298      1.18993709      3.90423901
C       1.69778724      0.57795370      4.84193999
C       1.57551477      0.94204840      6.31560754
O       0.70639532      1.57531347      6.86710500
O       2.57700733      0.42165345      7.09916430
C       2.66441012      0.70735506      8.48384862
H      -0.50663202      1.71962818     -0.55642410
H       1.17710014      1.27162930     -0.09993234
H      -0.09178433      0.01088899     -0.07268472
H      -1.16911121      1.12894897      1.88524322
H      -0.12493437      2.53069050      1.71849775
H       1.03062350     -0.18908386      2.35757634
H       1.91061020      1.27723510      2.05811607
H       0.64675958      2.27826151      4.05379425
H      -0.35879641      0.82328599      4.27278866
H       1.63331522     -0.50985997      4.83108710
H       2.70143067      0.91767201      4.57542208
H       3.61771813      0.14501201      8.87012473
H       1.75748424      0.34111124      8.97027112
H       2.87828458      1.76864589      8.68879975
23
Frame 195  Energy = -425.5064258475 Hartree
C       0.08696275      1.10456666      0.09054367
C      -0.11541400      1.48529343      1.56772613
C       0.92401151      0.86523594      2.46537486
C       0.64630690      1.18917779      3.90563038
C       1.69707602      0.57620789      4.84105371
C       1.57285295      0.94215038      6.31737893
O       0.70431732      1.57481777      6.86976069
O       2.57894235      0.42033303      7.09929576
C       2.66839234      0.70644116      8.48255460
H      -0.50101812      1.72119763     -0.56580587
H       1.17511593      1.27128934     -0.10282514
H      -0.09626689      0.01900187     -0.07511556
H      -1.16219533      1.12904701      1.88079607
H      -0.12457736      2.53332185      1.71751152
H       1.02414484     -0.18975216      2.36543534
H       1.90667822      1.27688386      2.06464176
H       0.64158814      2.27859342      4.05780119
H      -0.35508414      0.81654307      4.26712929
H       1.63139469     -0.51096910      4.82483625
H       2.70218934      0.90992620      4.57442057
H       3.60601969      0.14691860      8.87342839
H       1.76061449      0.34252208      8.96643489
H       2.87268393      1.77270011      8.68343305
23
Frame 200  Energy = -425.5069263779 Hartree
C       0.08894744      1.10471353      0.08927692
C      -0.11602187      1.48580194      1.56625020
C       0.92456566      0.86680379      2.46477185
C       0.64586733      1.18833005      3.90738564
C       1.69632377      0.57459168      4.84043146
C       1.57023946      0.94227166      6.31949402
O       0.70208931      1.57439159      6.87229072
O       2.58102981      0.41892266      7.09914051
C       2.67264913      0.70537697      8.48138615
H      -0.49618981      1.72259338     -0.57641454
H       1.17146873      1.27070306     -0.10684857
H      -0.10082910      0.02853330     -0.07723479
H      -1.15265676      1.13016032      1.87550848
H      -0.12383526      2.53921508      1.71715604
H       1.01772726     -0.19373017      2.37233976
H       1.90118019      1.27556414      2.07336404
H       0.63628541      2.27893408      4.06202229
H      -0.34957641      0.81037137      4.25977543
H       1.63032011     -0.51258458      4.81815657
H       2.70376139      0.90168355      4.57240643
H       3.59068327      0.15026035      8.87495019
H       1.76422712      0.34460340      8.96378406
H       2.86626909      1.77607152      8.67757921
23
Frame 205  Energy = -425.5070449311 Hartree
C       0.09126949      1.10491556      0.08823802
C      -0.11697451      1.48582126      1.56475853
C       0.92528877      0.86859473      2.46403688
C       0.64539867      1.18759566      3.90955836
C       1.69554309      0.57304030      4.83999405
C       1.56769816      0.94243757      6.32203805
O       0.69977283      1.57406599      6.87469856
O       2.58317366      0.41752983      7.09864367
C       2.67706887      0.70416011      8.48030230
H      -0.49181421      1.72422473     -0.58807836
H       1.16652182      1.27010722     -0.11184986
H      -0.10565126      0.03864342     -0.07900599
H      -1.14095314      1.13251216      1.86987039
H      -0.12287096      2.54805797      1.71652268
H       1.01150022     -0.20050380      2.37803604
H       1.89431356      1.27344445      2.08440718
H       0.63070274      2.27889528      4.06632650
H      -0.34272505      0.80504811      4.25089930
H       1.63026179     -0.51459583      4.81102237
H       2.70578955      0.89301372      4.56964331
H       3.57244609      0.15448202      8.87507534
H       1.76790371      0.34722843      8.96205276
H       2.85886553      1.77881752      8.67151229
23
Frame 210  Energy = -425.5067950975 Hartree
C       0.09383754      1.10519068      0.08733284
C      -0.11830271      1.48556979      1.56320126
C       0.92597402      0.87055469      2.46321710
C       0.64495624      1.18700510      3.91203174
C       1.69472177      0.57160816      4.83974858
C       1.56528973      0.94264086      6.32506516
O       0.69741502      1.57380461      6.87701312
O       2.58534377      0.41607806      7.09782434
C       2.68166503      0.70296147      8.47931511
H      -0.48797301      1.72595884     -0.59996423
H       1.16058056      1.26969282     -0.11782568
H      -0.11081369      0.04874554     -0.08058529
H      -1.12793016      1.13585665      1.86427774
H      -0.12165024      2.55929155      1.71560225
H       1.00521564     -0.20927834      2.38244251
H       1.88696931      1.27068483      2.09679265
H       0.62479272      2.27846966      4.07031590
H      -0.33525807      0.80072711      4.24081670
H       1.63103985     -0.51725126      4.80351881
H       2.70818504      0.88400161      4.56601191
H       3.55208839      0.15935858      8.87402859
H       1.77155351      0.35035250      8.96131073
H       2.85043911      1.78070641      8.66527196
23
Frame 215  Energy = -425.5065565686 Hartree
C       0.09655294      1.10556843      0.08661019
C      -0.11991301      1.48511006      1.56147709
C       0.92668643      0.87248328      2.46234095
C       0.64463745      1.18645736      3.91478525
C       1.69383317      0.57025322      4.83973862
C       1.56311453      0.94288075      6.32856519
O       0.69493470      1.57362196      6.87933491
O       2.58756365      0.41459515      7.09667444
C       2.68618364      0.70189137      8.47837177
H      -0.48436852      1.72724578     -0.61168343
H       1.15438057      1.26910625     -0.12449039
H      -0.11601512      0.05843244     -0.08228091
H      -1.11416479      1.13962515      1.85871682
H      -0.12015746      2.57162723      1.71413531
H       0.99866792     -0.21910172      2.38622960
H       1.88006270      1.26756411      2.11048277
H       0.61880961      2.27782580      4.07393064
H      -0.32746526      0.79710380      4.22978527
H       1.63219330     -0.52032557      4.79542659
H       2.71076169      0.87482359      4.56173071
H       3.53121767      0.16429038      8.87252685
H       1.77529552      0.35386473      8.96157050
H       2.84107188      1.78173036      8.65885237
23
Frame 220  Energy = -425.5063405977 Hartree
C       0.09943563      1.10625137      0.08595821
C      -0.12167966      1.48452441      1.55962176
C       0.92729068      0.87446371      2.46161050
C       0.64435144      1.18596026      3.91778585
C       1.69300358      0.56897770      4.83995951
C       1.56105481      0.94304469      6.33234464
O       0.69240856      1.57348064      6.88166104
O       2.58984135      0.41305538      7.09519816
C       2.69052254      0.70110140      8.47732057
H      -0.48106713      1.72806347     -0.62288843
H       1.14858626      1.26882642     -0.13215972
H      -0.12094231      0.06743924     -0.08432423
H      -1.10082618      1.14334610      1.85339522
H      -0.11832242      2.58389830      1.71234001
H       0.99177436     -0.22887785      2.38901788
H       1.87413668      1.26501817      2.12485621
H       0.61278327      2.27695442      4.07721787
H      -0.32018533      0.79356405      4.21838258
H       1.63361819     -0.52358460      4.78678157
H       2.71319961      0.86519310      4.55735235
H       3.51126720      0.16808838      8.87102926
H       1.77909260      0.35768736      8.96278354
H       2.83112534      1.78201828      8.65208519
23
Frame 225  Energy = -425.5058712554 Hartree
C       0.10230169      1.10715136      0.08527743
C      -0.12341058      1.48400766      1.55750493
C       0.92779494      0.87633573      2.46085344
C       0.64420419      1.18555325      3.92092374
C       1.69227229      0.56777926      4.84030689
C       1.55912191      0.94311012      6.33638776
O       0.68986699      1.57337476      6.88395387
O       2.59220108      0.41141442      7.09339989
C       2.69447677      0.70063536      8.47616776
H      -0.47754884      1.72850914     -0.63332048
H       1.14383159      1.26878203     -0.14110276
H      -0.12629833      0.07513223     -0.08667993
H      -1.08906102      1.14658719      1.84900390
H      -0.11618975      2.59528879      1.70995090
H       0.98439332     -0.23796228      2.39084874
H       1.86975106      1.26305292      2.13946803
H       0.60655726      2.27553988      4.08022513
H      -0.31391482      0.78966284      4.20682659
H       1.63541554     -0.52734633      4.77781051
H       2.71536389      0.85535414      4.55301703
H       3.49421776      0.16969559      8.87012638
H       1.78245139      0.36204280      8.96464600
H       2.82084755      1.78168444      8.64490466
23
Frame 230  Energy = -425.5058759808 Hartree
C       0.10520527      1.10833730      0.08445232
C      -0.12495826      1.48357459      1.55517631
C       0.92811156      0.87801797      2.46019800
C       0.64418473      1.18518581      3.92412350
C       1.69159319      0.56670408      4.84081861
C       1.55742881      0.94305955      6.34065239
O       0.68731867      1.57333937      6.88615949
O       2.59465773      0.40976206      7.09133637
C       2.69802314      0.70050563      8.47484629
H      -0.47353454      1.72779683     -0.64274014
H       1.14066116      1.26886708     -0.15105262
H      -0.13222124      0.08065065     -0.09002115
H      -1.08006188      1.14861046      1.84596740
H      -0.11380093      2.60515267      1.70676107
H       0.97673113     -0.24551356      2.39181451
H       1.86797076      1.26155667      2.15416960
H       0.60013046      2.27374613      4.08296098
H      -0.30949365      0.78531952      4.19557169
H       1.63750886     -0.53096791      4.76896115
H       2.71701787      0.84546048      4.54864551
H       3.48137139      0.16870369      8.87031227
H       1.78552070      0.36653028      8.96718467
H       2.81043731      1.78088413      8.63788226
23
Frame 235  Energy = -425.5059516302 Hartree
C       0.10803053      1.10984939      0.08358050
C      -0.12632139      1.48331514      1.55269733
C       0.92813602      0.87950289      2.45966995
C       0.64428355      1.18492104      3.92738467
C       1.69103379      0.56567035      4.84143794
C       1.55601499      0.94281173      6.34513858
O       0.68484020      1.57336515      6.88822546
O       2.59715274      0.40806114      7.08897250
C       2.70096194      0.70068495      8.47341155
H      -0.46930674      1.72625181     -0.65041478
H       1.13910954      1.26899059     -0.16203972
H      -0.13860602      0.08390443     -0.09405199
H      -1.07479596      1.14957359      1.84443432
H      -0.11113694      2.61248576      1.70295401
H       0.96903975     -0.25094951      2.39187498
H       1.86932207      1.26075772      2.16888929
H       0.59396228      2.27181446      4.08583177
H      -0.30704352      0.78034679      4.18500689
H       1.63983954     -0.53429316      4.76035645
H       2.71808043      0.83570803      4.54423944
H       3.47394715      0.16482895      8.87196924
H       1.78839576      0.37121554      8.97010928
H       2.80045831      1.77996925      8.63077374
23
Frame 240  Energy = -425.5062247858 Hartree
C       0.11074327      1.11154763      0.08271816
C      -0.12744302      1.48343603      1.55005160
C       0.92789815      0.88058704      2.45933104
C       0.64457854      1.18479443      3.93054572
C       1.69057972      0.56461460      4.84225672
C       1.55476071      0.94232318      6.34974531
O       0.68228380      1.57351100      6.89019982
O       2.59966426      0.40632443      7.08630291
C       2.70334845      0.70118699      8.47172326
H      -0.46454431      1.72391204     -0.65631276
H       1.13939298      1.26909990     -0.17373352
H      -0.14506274      0.08508208     -0.09834172
H      -1.07411365      1.14961070      1.84440509
H      -0.10876573      2.61681975      1.69851430
H       0.96147228     -0.25386958      2.39097483
H       1.87429542      1.26089843      2.18283687
H       0.58798687      2.26966620      4.08879425
H      -0.30719200      0.77459609      4.17516098
H       1.64214505     -0.53730202      4.75204248
H       2.71843764      0.82612662      4.53983441
H       3.47233018      0.15785547      8.87555079
H       1.79082553      0.37611847      8.97341358
H       2.79076948      1.77882156      8.62354691
23
Frame 245  Energy = -425.5066000045 Hartree
C       0.11335357      1.11344582      0.08179655
C      -0.12823381      1.48393229      1.54718966
C       0.92737977      0.88128256      2.45910341
C       0.64511968      1.18482463      3.93362728
C       1.69019825      0.56360450      4.84334650
C       1.55363866      0.94162265      6.35447767
O       0.67971990      1.57372175      6.89206925
O       2.60213046      0.40459104      7.08338138
C       2.70507436      0.70197997      8.46986701
H      -0.45943998      1.72059459     -0.66012014
H       1.14167858      1.26892475     -0.18607868
H      -0.15179219      0.08459119     -0.10254456
H      -1.07776480      1.14875528      1.84562119
H      -0.10678442      2.61791487      1.69317105
H       0.95399282     -0.25385616      2.38941039
H       1.88271457      1.26182079      2.19591366
H       0.58158934      2.26728748      4.09204253
H      -0.30992460      0.76846438      4.16634575
H       1.64422448     -0.53968906      4.74442730
H       2.71839820      0.81696666      4.53538147
H       3.47592110      0.14766778      8.88106027
H       1.79267941      0.38102831      8.97699782
H       2.78141427      1.77802384      8.61638684
23
Frame 250  Energy = -425.5067256256 Hartree
C       0.11590492      1.11553564      0.08075083
C      -0.12869915      1.48477854      1.54415203
C       0.92665340      0.88168807      2.45899116
C       0.64586650      1.18495998      3.93665168
C       1.68978771      0.56251562      4.84465327
C       1.55279154      0.94084794      6.35914068
O       0.67718042      1.57402136      6.89392219
O       2.60455092      0.40287535      7.08030096
C       2.70619762      0.70307595      8.46794317
H      -0.45417649      1.71672869     -0.66215272
H       1.14625290      1.26861303     -0.19875792
H      -0.15856605      0.08273826     -0.10702031
H      -1.08511899      1.14707671      1.84815197
H      -0.10513283      2.61563606      1.68711830
H       0.94655842     -0.25098857      2.38698452
H       1.89394138      1.26351415      2.20791194
H       0.57532566      2.26512753      4.09546691
H      -0.31516792      0.76206627      4.15841096
H       1.64604696     -0.54169578      4.73750681
H       2.71768214      0.80825071      4.53123512
H       3.48439246      0.13556171      8.88804622
H       1.79432942      0.38613867      8.98073158
H       2.77258114      1.77763178      8.60993109
23
Frame 255  Energy = -425.5067019662 Hartree
C       0.11834397      1.11771014      0.07966140
C      -0.12893778      1.48585080      1.54092244
C       0.92577722      0.88187103      2.45902261
C       0.64673169      1.18521884      3.93948714
C       1.68945186      0.56124647      4.84619845
C       1.55212359      0.93987046      6.36374113
O       0.67465969      1.57431131      6.89576786
O       2.60695268      0.40119354      7.07706813
C       2.70689774      0.70432746      8.46598431
H      -0.44886086      1.71277450     -0.66234924
H       1.15248126      1.26808531     -0.21122938
H      -0.16490532      0.08016196     -0.11171316
H      -1.09611820      1.14440745      1.85140646
H      -0.10350658      2.61060987      1.68069134
H       0.93934466     -0.24545059      2.38370450
H       1.90727476      1.26552632      2.21897078
H       0.56929629      2.26312027      4.09929585
H      -0.32213931      0.75523577      4.15142662
H       1.64758994     -0.54283432      4.73172587
H       2.71682654      0.80004969      4.52745412
H       3.49670452      0.12248364      8.89558598
H       1.79565937      0.39136367      8.98440820
H       2.76479593      1.77758194      8.60390878
23
Frame 260  Energy = -425.5064235865 Hartree
C       0.12070762      1.11994600      0.07846305
C      -0.12898185      1.48713117      1.53757169
C       0.92483205      0.88187925      2.45923087
C       0.64766613      1.18562848      3.94219553
C       1.68903067      0.55981345      4.84796775
C       1.55169803      0.93869034      6.36845611
O       0.67207577      1.57464193      6.89758437
O       2.60930118      0.39962177      7.07371101
C       2.70729392      0.70556926      8.46403723
H      -0.44368262      1.70844745     -0.66145674
H       1.15997414      1.26718594     -0.22339294
H      -0.17080290      0.07734398     -0.11648005
H      -1.10928584      1.14110193      1.85497773
H      -0.10181825      2.60335122      1.67415534
H       0.93251776     -0.23747619      2.37916232
H       1.92194759      1.26741065      2.22942059
H       0.56380242      2.26092109      4.10330444
H      -0.33059353      0.74837585      4.14537842
H       1.64867085     -0.54300295      4.72655799
H       2.71552440      0.79262569      4.52404691
H       3.51147929      0.10932552      8.90285786
H       1.79665647      0.39659254      8.98814073
H       2.75824624      1.77828235      8.59853290
23
Frame 265  Energy = -425.5064066802 Hartree
C       0.12296210      1.12213059      0.07715944
C      -0.12895725      1.48857840      1.53426022
C       0.92385556      0.88178293      2.45958028
C       0.64848286      1.18604221      3.94473644
C       1.68860492      0.55825881      4.84996234
C       1.55155353      0.93733215      6.37318728
O       0.66942256      1.57498456      6.89935567
O       2.61158549      0.39806750      7.07027197
C       2.70753293      0.70666360      8.46207772
H      -0.43923021      1.70395166     -0.65949417
H       1.16813914      1.26542555     -0.23523613
H      -0.17604651      0.07461080     -0.12088177
H      -1.12341470      1.13769231      1.85885146
H      -0.10043232      2.59391405      1.66748672
H       0.92586781     -0.22766307      2.37388927
H       1.93670997      1.26892953      2.23879569
H       0.55879688      2.25902831      4.10750541
H      -0.33973481      0.74187398      4.14035552
H       1.64979623     -0.54245375      4.72195280
H       2.71375994      0.78589100      4.52135193
H       3.52717908      0.09725553      8.90902068
H       1.79699767      0.40139891      8.99195623
H       2.75320032      1.77952294      8.59373262
23
Frame 270  Energy = -425.5065851935 Hartree
C       0.12515662      1.12423580      0.07579559
C      -0.12884994      1.49018038      1.53098263
C       0.92295265      0.88167831      2.46001965
C       0.64920717      1.18638081      3.94712603
C       1.68828944      0.55674181      4.85214538
C       1.55162978      0.93584487      6.37780296
O       0.66678960      1.57521865      6.90106327
O       2.61372244      0.39657934      7.06683226
C       2.70768447      0.70759032      8.46020306
H      -0.43526379      1.69997580     -0.65677704
H       1.17648259      1.26332933     -0.24603867
H      -0.18031882      0.07271205     -0.12465209
H      -1.13742597      1.13442101      1.86272819
H      -0.09950106      2.58315826      1.66089858
H       0.91959074     -0.21673754      2.36759924
H       1.95046760      1.26974554      2.24744283
H       0.55392061      2.25771461      4.11209924
H      -0.34861460      0.73582859      4.13637197
H       1.65080903     -0.54149785      4.71860193
H       2.71214392      0.78008122      4.51909980
H       3.54233269      0.08734160      8.91359713
H       1.79701126      0.40570363      8.99563849
H       2.75010681      1.78133351      8.58943334
23
Frame 275  Energy = -425.5063254654 Hartree
C       0.12735545      1.12626881      0.07422862
C      -0.12876845      1.49171740      1.52775759
C       0.92215106      0.88168650      2.46065037
C       0.64976954      1.18665797      3.94944848
C       1.68803104      0.55519869      4.85456054
C       1.55193860      0.93418178      6.38236694
O       0.66425774      1.57534331      6.90275119
O       2.61574851      0.39517827      7.06338805
C       2.70779148      0.70822639      8.45832229
H      -0.43235224      1.69686137     -0.65356324
H       1.18421659      1.26090993     -0.25599347
H      -0.18358951      0.07186991     -0.12739004
H      -1.14998706      1.13228738      1.86588117
H      -0.09851863      2.57223345      1.65434687
H       0.91401935     -0.20559959      2.36057841
H       1.96264448      1.26982972      2.25555283
H       0.54906844      2.25714603      4.11710379
H      -0.35635514      0.73070893      4.13326433
H       1.65120552     -0.54055646      4.71652482
H       2.71024900      0.77529275      4.51746620
H       3.55583986      0.08024799      8.91574453
H       1.79676412      0.40987617      8.99926451
H       2.74871506      1.78373060      8.58539817
23
Frame 280  Energy = -425.5060702120 Hartree
C       0.12955922      1.12805490      0.07244027
C      -0.12869213      1.49309206      1.52454997
C       0.92152765      0.88189778      2.46152807
C       0.65025919      1.18691007      3.95163526
C       1.68785669      0.55370710      4.85728884
C       1.55244142      0.93240883      6.38689380
O       0.66177883      1.57529456      6.90437841
O       2.61762714      0.39384869      7.05985449
C       2.70792922      0.70868956      8.45661204
H      -0.43036152      1.69513595     -0.65043345
H       1.19107663      1.25802195     -0.26493035
H      -0.18554171      0.07239914     -0.12942700
H      -1.16047355      1.13105872      1.86791776
H      -0.09784994      2.56233236      1.64759721
H       0.90921426     -0.19494919      2.35271036
H       1.97314400      1.26891169      2.26309015
H       0.54461268      2.25699802      4.12237183
H      -0.36289182      0.72654562      4.13082594
H       1.65112073     -0.53943713      4.71553999
H       2.70803560      0.77136190      4.51664779
H       3.56690782      0.07639376      8.91544994
H       1.79652619      0.41390568      9.00218982
H       2.74884534      1.78664784      8.58173927
23
Frame 285  Energy = -425.5061142676 Hartree
C       0.13186568      1.12959319      0.07060306
C      -0.12876370      1.49428148      1.52151196
C       0.92106464      0.88233722      2.46266371
C       0.65043147      1.18696239      3.95367300
C       1.68768050      0.55221503      4.86039035
C       1.55313351      0.93045425      6.39131789
O       0.65948766      1.57509510      6.90590483
O       2.61947140      0.39256820      7.05627701
C       2.70805770      0.70892504      8.45516943
H      -0.42964021      1.69510657     -0.64773784
H       1.19653286      1.25500569     -0.27200678
H      -0.18581774      0.07433992     -0.13100396
H      -1.16816417      1.13091628      1.86868777
H      -0.09755055      2.55413467      1.64090838
H       0.90473761     -0.18580425      2.34421922
H       1.98128689      1.26695870      2.26998202
H       0.54063634      2.25729245      4.12765721
H      -0.36746090      0.72345989      4.12924517
H       1.65064990     -0.53813597      4.71607813
H       2.70569369      0.76839485      4.51652947
H       3.57522131      0.07620265      8.91282866
H       1.79614757      0.41740934      9.00430233
H       2.75060347      1.79001468      8.57885798
23
Frame 290  Energy = -425.5058597317 Hartree
C       0.13430295      1.13094576      0.06859138
C      -0.12899690      1.49515026      1.51856140
C       0.92071824      0.88309468      2.46399185
C       0.65028430      1.18686869      3.95553115
C       1.68750542      0.55058539      4.86374861
C       1.55384419      0.92833554      6.39552394
O       0.65741513      1.57471412      6.90739755
O       2.62118208      0.39132923      7.05267695
C       2.70829739      0.70889645      8.45390154
H      -0.43042906      1.69678485     -0.64585640
H       1.20014325      1.25172634     -0.27745858
H      -0.18464758      0.07733918     -0.13213201
H      -1.17268743      1.13201644      1.86790922
H      -0.09755153      2.54879976      1.63468054
H       0.90059654     -0.17855377      2.33491600
H       1.98641695      1.26353227      2.27614885
H       0.53728224      2.25801857      4.13300045
H      -0.37014806      0.72138818      4.12893723
H       1.64982304     -0.53714004      4.71801923
H       2.70346904      0.76689319      4.51704153
H       3.58049949      0.07936783      8.90777165
H       1.79587241      0.42086109      9.00544693
H       2.75400621      1.79359006      8.57621817
23
Frame 295  Energy = -425.5061490791 Hartree
C       0.13687955      1.13211226      0.06646171
C      -0.12934744      1.49568884      1.51566085
C       0.92056679      0.88410012      2.46544912
C       0.64990413      1.18652832      3.95728288
C       1.68730104      0.54897831      4.86716804
C       1.55457475      0.92607953      6.39945022
O       0.65554051      1.57425934      6.90879859
O       2.62275672      0.39008253      7.04913425
C       2.70863203      0.70858211      8.45278586
H      -0.43296551      1.70022006     -0.64455029
H       1.20208377      1.24764610     -0.28115255
H      -0.18199406      0.08164100     -0.13293065
H      -1.17392823      1.13413109      1.86562236
H      -0.09814262      2.54643724      1.62903304
H       0.89740246     -0.17347036      2.32496675
H       1.98818183      1.25864676      2.28158630
H       0.53431296      2.25917215      4.13852950
H      -0.37063854      0.72085098      4.12948594
H       1.64844643     -0.53664540      4.72142826
H       2.70147706      0.76674601      4.51816921
H       3.58243305      0.08594202      8.89986274
H       1.79611528      0.42395877      9.00573745
H       2.75932565      1.79701243      8.57386011
23
Frame 300  Energy = -425.5062624306 Hartree
C       0.13957522      1.13298279      0.06426522
C      -0.12975484      1.49584716      1.51291371
C       0.92054984      0.88543864      2.46703162
C       0.64914604      1.18597284      3.95887483
C       1.68713353      0.54733451      4.87075717
C       1.55530955      0.92377661      6.40306824
O       0.65392090      1.57379946      6.91017915
O       2.62413875      0.38881834      7.04568727
C       2.70908406      0.70801637      8.45184662
H      -0.43677329      1.70557122     -0.64356253
H       1.20212132      1.24305550     -0.28300092
H      -0.17797241      0.08677626     -0.13335586
H      -1.17171766      1.13801390      1.86153125
H      -0.09923391      2.54775638      1.62378586
H       0.89540597     -0.17112197      2.31483078
H       1.98684524      1.25270696      2.28617904
H       0.53200921      2.26068956      4.14439664
H      -0.36870655      0.72186228      4.13087489
H       1.64642121     -0.53679606      4.72607123
H       2.69984807      0.76798170      4.51991452
H       3.58091919      0.09599460      8.88970943
H       1.79677650      0.42669064      9.00529576
H       2.76630658      1.79987996      8.57209943
