23
Frame 5  Energy = -425.8883016727 Hartree
C      -0.01185260      1.11061497      0.14942293
C      -0.29324719      1.21218313      1.64514535
C       0.84776585      0.68143488      2.53124055
C       0.57722997      0.92559426      4.03321081
C       1.84468190      0.70569786      4.87131451
C       1.65325804      1.03065125      6.32371682
O       0.78050557      1.74942907      6.76944307
O       2.61055686      0.52114452      7.14838241
C       2.47032681      0.87234862      8.50427388
H      -0.81588429      1.46716802     -0.45264962
H       0.86157114      1.68130337     -0.07493297
H       0.13595989      0.05260211     -0.16696156
H      -1.18622191      0.62713184      1.92920867
H      -0.62546485      2.21290489      1.85623126
H       0.98180912     -0.40121213      2.33392341
H       1.80834189      1.08655583      2.17349053
H       0.29727425      1.96484613      4.08292433
H      -0.12976001      0.21544807      4.46689683
H       2.11806944     -0.37559736      4.83738754
H       2.74043119      1.27472267      4.60957816
H       3.36664968      0.51948952      8.96565745
H       1.53965245      0.50514971      8.93358444
H       2.43686641      1.97853270      8.71718407
23
Frame 10  Energy = -425.8882047756 Hartree
C      -0.01152370      1.11105974      0.15009068
C      -0.29336628      1.21138483      1.64635520
C       0.84602842      0.68024710      2.53017235
C       0.57771145      0.92416937      4.03495901
C       1.84391300      0.70466432      4.86640405
C       1.65273666      1.03326292      6.32628780
O       0.78089204      1.74924618      6.77026216
O       2.61063485      0.52259264      7.14873382
C       2.46890040      0.87311626      8.50535630
H      -0.81206108      1.46471113     -0.44894965
H       0.85935161      1.67738194     -0.06955296
H       0.13596495      0.04963575     -0.15929816
H      -1.18287202      0.62509637      1.92642198
H      -0.63160988      2.20471542      1.85802723
H       0.99369916     -0.41072856      2.33757897
H       1.79913266      1.09167172      2.17879574
H       0.29959067      1.95227041      4.08539558
H      -0.11906826      0.21088165      4.47231965
H       2.10849780     -0.37891111      4.83531376
H       2.73755012      1.28018824      4.60987728
H       3.36910240      0.51944193      8.96476682
H       1.54178624      0.50759475      8.93144513
H       2.43650561      1.98535308      8.71613772
23
Frame 15  Energy = -425.8881222797 Hartree
C      -0.01119383      1.11117994      0.15084306
C      -0.29359951      1.21037080      1.64755225
C       0.84426017      0.67882941      2.52910669
C       0.57853393      0.92261156      4.03662557
C       1.84329064      0.70334750      4.86167821
C       1.65216444      1.03601964      6.32919137
O       0.78128534      1.74900098      6.77092597
O       2.61061776      0.52404879      7.14888657
C       2.46748314      0.87426414      8.50666063
H      -0.81008863      1.46367451     -0.44597906
H       0.85899357      1.67416873     -0.06477126
H       0.13652635      0.04844710     -0.15102774
H      -1.17949688      0.62319919      1.92303055
H      -0.63700944      2.19880783      1.86106400
H       1.00467863     -0.41886157      2.34189173
H       1.78984929      1.09781810      2.18491383
H       0.30049987      1.94043140      4.08944632
H      -0.10992776      0.20752342      4.47627065
H       2.09888212     -0.38019369      4.83292090
H       2.73407474      1.28533286      4.60896546
H       3.37172186      0.51790612      8.96515628
H       1.54402350      0.50910844      8.92954872
H       2.43637569      1.99011026      8.71298835
23
Frame 20  Energy = -425.8882317414 Hartree
C      -0.01088488      1.11095155      0.15166325
C      -0.29385665      1.20904639      1.64878699
C       0.84236723      0.67725696      2.52805244
C       0.57974225      0.92082731      4.03799982
C       1.84272830      0.70177423      4.85717099
C       1.65153703      1.03898622      6.33225997
O       0.78165038      1.74869970      6.77152233
O       2.61049450      0.52555355      7.14885507
C       2.46611755      0.87575220      8.50801002
H      -0.81018893      1.46394409     -0.44427394
H       0.86126113      1.67206828     -0.06106049
H       0.13748616      0.04926908     -0.14182992
H      -1.17609004      0.62103234      1.91861842
H      -0.64122836      2.19554453      1.86502167
H       1.01431466     -0.42508332      2.34639056
H       1.78094950      1.10509250      2.19164739
H       0.29981732      1.93071922      4.09529885
H      -0.10254785      0.20491873      4.47905190
H       2.08978266     -0.37987773      4.83010071
H       2.73019364      1.29003725      4.60676990
H       3.37452413      0.51506493      8.96720131
H       1.54598091      0.50947393      8.92778651
H       2.43646768      1.99247910      8.70834237
23
Frame 25  Energy = -425.8897243834 Hartree
C      -0.01060057      1.11032725      0.15270036
C      -0.29415095      1.20741594      1.65000670
C       0.84045830      0.67539483      2.52708719
C       0.58131649      0.91885331      4.03907210
C       1.84225812      0.69997980      4.85291877
C       1.65095256      1.04205737      6.33545399
O       0.78199021      1.74832195      6.77211937
O       2.61026955      0.52714904      7.14868869
C       2.46491823      0.87763615      8.50941431
H      -0.81225856      1.46571738     -0.44375880
H       0.86589889      1.67072229     -0.05855673
H       0.13882210      0.05171827     -0.13220637
H      -1.17284635      0.61832589      1.91352624
H      -0.64433767      2.19463657      1.86993539
H       1.02288613     -0.42903254      2.35112346
H       1.77261015      1.11358802      2.19875521
H       0.29716361      1.92371629      4.10260341
H      -0.09713038      0.20358853      4.48071798
H       2.08154177     -0.37808416      4.82677923
H       2.72563538      1.29427721      4.60342291
H       3.37665069      0.51130431      8.97026668
H       1.54730762      0.50864747      8.92665707
H       2.43700231      1.99216402      8.70204700
23
Frame 30  Energy = -425.8899636830 Hartree
C      -0.01027439      1.10941246      0.15395856
C      -0.29454205      1.20540305      1.65120064
C       0.83857297      0.67333680      2.52623723
C       0.58327814      0.91672130      4.03988541
C       1.84191333      0.69806271      4.84892703
C       1.65027428      1.04504079      6.33860739
O       0.78234665      1.74802302      6.77276817
O       2.60996213      0.52868240      7.14837440
C       2.46394166      0.87978906      8.51078429
H      -0.81623477      1.46853190     -0.44427108
H       0.87250207      1.67014599     -0.05745142
H       0.14070518      0.05567054     -0.12231246
H      -1.16968680      0.61479915      1.90762943
H      -0.64610919      2.19603173      1.87611236
H       1.03057394     -0.43059805      2.35628265
H       1.76506896      1.12333243      2.20575589
H       0.29247503      1.91992590      4.11174887
H      -0.09361280      0.20296880      4.48145844
H       2.07448523     -0.37517772      4.82321191
H       2.72065039      1.29798455      4.59889115
H       3.37811748      0.50719482      8.97390627
H       1.54810130      0.50688896      8.92619035
H       2.43777743      1.98909863      8.69434511
23
Frame 35  Energy = -425.8897260342 Hartree
C      -0.00994314      1.10824723      0.15529494
C      -0.29495949      1.20321735      1.65235068
C       0.83672623      0.67105304      2.52559936
C       0.58557996      0.91437800      4.04048298
C       1.84165080      0.69607203      4.84511536
C       1.64950168      1.04795113      6.34170339
O       0.78264629      1.74788876      6.77349108
O       2.60957922      0.53018350      7.14793152
C       2.46307345      0.88216655      8.51225106
H      -0.82176191      1.47194392     -0.44586641
H       0.88062924      1.67023397     -0.05759157
H       0.14304803      0.06039575     -0.11247486
H      -1.16675932      0.61020433      1.90094406
H      -0.64665345      2.19937797      1.88348957
H       1.03694063     -0.42963573      2.36167806
H       1.75867000      1.13420055      2.21291568
H       0.28573043      1.91893255      4.12240734
H      -0.09215416      0.20295747      4.48140115
H       2.06851165     -0.37166121      4.81922262
H       2.71577975      1.30138142      4.59300030
H       3.37871539      0.50292778      8.97817423
H       1.54836856      0.50410288      8.92640455
H       2.43842362      1.98357057      8.68575983
23
Frame 40  Energy = -425.8895596038 Hartree
C      -0.00966811      1.10690232      0.15674169
C      -0.29542381      1.20087574      1.65350411
C       0.83481839      0.66857106      2.52503854
C       0.58823793      0.91177578      4.04087830
C       1.84139926      0.69403830      4.84171574
C       1.64877573      1.05070496      6.34478146
O       0.78294380      1.74784409      6.77423704
O       2.60918396      0.53163025      7.14733638
C       2.46237165      0.88463369      8.51380966
H      -0.82836947      1.47590961     -0.44781521
H       0.88929755      1.67054879     -0.05895430
H       0.14573853      0.06571392     -0.10263116
H      -1.16465285      0.60450461      1.89394248
H      -0.64600837      2.20372583      1.89172226
H       1.04203329     -0.42613003      2.36723526
H       1.75314034      1.14653726      2.21997659
H       0.27724669      1.92062056      4.13430153
H      -0.09285162      0.20334854      4.48045799
H       2.06357123     -0.36798278      4.81509436
H       2.71073917      1.30431629      4.58573304
H       3.37800568      0.49815969      8.98298441
H       1.54774440      0.50031589      8.92726778
H       2.43899835      1.97637660      8.67623052
23
Frame 45  Energy = -425.8895825971 Hartree
C      -0.00937514      1.10553395      0.15831121
C      -0.29592618      1.19841253      1.65462899
C       0.83288052      0.66601893      2.52452649
C       0.59124013      0.90899346      4.04114281
C       1.84122740      0.69205903      4.83869279
C       1.64818927      1.05336711      6.34771498
O       0.78306414      1.74792533      6.77499929
O       2.60880002      0.53300121      7.14662333
C       2.46183867      0.88713128      8.51558921
H      -0.83504520      1.48008077     -0.44959704
H       0.89810294      1.67068690     -0.06084382
H       0.14893922      0.07097482     -0.09297203
H      -1.16353550      0.59795768      1.88669815
H      -0.64393560      2.20843457      1.90046991
H       1.04591684     -0.42066898      2.37266769
H       1.74872426      1.15990484      2.22654723
H       0.26740203      1.92421501      4.14740602
H      -0.09582873      0.20430587      4.47857084
H       2.06020563     -0.36448858      4.81064585
H       2.70542795      1.30617513      4.57682105
H       3.37568470      0.49346437      8.98821441
H       1.54658244      0.49571729      8.92835188
H       2.43955024      1.96831353      8.66591305
23
Frame 50  Energy = -425.8882422341 Hartree
C      -0.00908162      1.10421973      0.15992677
C      -0.29656447      1.19578814      1.65576076
C       0.83097981      0.66347216      2.52414375
C       0.59448445      0.90625620      4.04112436
C       1.84122131      0.69016009      4.83622579
C       1.64781207      1.05579404      6.35046276
O       0.78299110      1.74818603      6.77583326
O       2.60836167      0.53442638      7.14574856
C       2.46153112      0.88964899      8.51744932
H      -0.84167374      1.48430187     -0.45095618
H       0.90683595      1.67043358     -0.06313733
H       0.15262201      0.07524803     -0.08378354
H      -1.16333487      0.59094818      1.87958826
H      -0.64021006      2.21308411      1.90969914
H       1.04883080     -0.41318011      2.37790688
H       1.74485706      1.17430908      2.23237454
H       0.25657367      1.92888672      4.16156519
H      -0.10065153      0.20557547      4.47582771
H       2.05878684     -0.36128858      4.80575801
H       2.70036510      1.30741175      4.56651912
H       3.37203746      0.48871823      8.99332429
H       1.54571315      0.49029514      8.92997111
H       2.44044207      1.95974530      8.65488586
23
Frame 55  Energy = -425.8878938722 Hartree
C      -0.00874490      1.10302414      0.16164431
C      -0.29725036      1.19302138      1.65689826
C       0.82908914      0.66093238      2.52400646
C       0.59778642      0.90356698      4.04085550
C       1.84137163      0.68838658      4.83433182
C       1.64755757      1.05806273      6.35290748
O       0.78272606      1.74859274      6.77677026
O       2.60783954      0.53590852      7.14475075
C       2.46146971      0.89212643      8.51930591
H      -0.84775341      1.48829213     -0.45193565
H       0.91508928      1.66953623     -0.06583416
H       0.15694156      0.07773206     -0.07590880
H      -1.16416403      0.58332753      1.87289553
H      -0.63459126      2.21741863      1.91906010
H       1.05041871     -0.40455396      2.38264597
H       1.74140199      1.18950925      2.23806493
H       0.24501883      1.93367225      4.17638183
H      -0.10721970      0.20710202      4.47230529
H       2.05922792     -0.35885773      4.80092649
H       2.69521004      1.30800302      4.55503788
H       3.36679201      0.48423909      8.99837475
H       1.54491854      0.48413837      8.93235394
H       2.44172628      1.95196228      8.64370403
23
Frame 60  Energy = -425.8866105464 Hartree
C      -0.00837124      1.10213690      0.16332912
C      -0.29817201      1.19022223      1.65797960
C       0.82719794      0.65846819      2.52396325
C       0.60104616      0.90096251      4.04041438
C       1.84164170      0.68680154      4.83277836
C       1.64752005      1.06001968      6.35509312
O       0.78218712      1.74920029      6.77784040
O       2.60724996      0.53745104      7.14371997
C       2.46159917      0.89450754      8.52113703
H      -0.85265891      1.49173584     -0.45231812
H       0.92228473      1.66782220     -0.06894364
H       0.16154979      0.07825976     -0.06950395
H      -1.16595431      0.57509842      1.86635459
H      -0.62726067      2.22058405      1.92870947
H       1.05133160     -0.39579595      2.38645966
H       1.73796288      1.20469192      2.24324991
H       0.23298840      1.93760740      4.19158438
H      -0.11503559      0.20881967      4.46806782
H       2.06162599     -0.35752110      4.79618062
H       2.68956965      1.30805875      4.54229784
H       3.36000311      0.47994895      9.00335597
H       1.54422795      0.47776284      8.93521690
H       2.44311359      1.94592657      8.63256884
23
Frame 65  Energy = -425.8866244379 Hartree
C      -0.00803923      1.10152571      0.16499415
C      -0.29937950      1.18740349      1.65899595
C       0.82547746      0.65627565      2.52400775
C       0.60416456      0.89852240      4.03987471
C       1.84200927      0.68536655      4.83169048
C       1.64776826      1.06169706      6.35688004
O       0.78138720      1.74990383      6.77899747
O       2.60663915      0.53901944      7.14265191
C       2.46186768      0.89662629      8.52296800
H      -0.85612523      1.49465376     -0.45132011
H       0.92779846      1.66557073     -0.07226368
H       0.16644097      0.07720703     -0.06427546
H      -1.16849110      0.56668522      1.85981890
H      -0.61845813      2.22203066      1.93832838
H       1.05196029     -0.38763404      2.38932998
H       1.73430318      1.21954012      2.24840354
H       0.22117525      1.93976104      4.20635133
H      -0.12419584      0.21093156      4.46322694
H       2.06574924     -0.35752342      4.79173804
H       2.68396561      1.30736829      4.52902915
H       3.35188101      0.47592989      9.00873540
H       1.54386584      0.47094372      8.93798340
H       2.44474463      1.94259009      8.62187732
23
Frame 70  Energy = -425.8865782940 Hartree
C      -0.00766950      1.10120320      0.16663818
C      -0.30083792      1.18458101      1.65997012
C       0.82385860      0.65443983      2.52427984
C       0.60712965      0.89627951      4.03923002
C       1.84240338      0.68404390      4.83110748
C       1.64824566      1.06307038      6.35830571
O       0.78033673      1.75078485      6.78017422
O       2.60604580      0.54061248      7.14160528
C       2.46218807      0.89828295      8.52483617
H      -0.85746279      1.49646629     -0.44880382
H       0.93111143      1.66279938     -0.07581372
H       0.17151238      0.07459645     -0.06040114
H      -1.17190478      0.55826775      1.85332336
H      -0.60822041      2.22172313      1.94774673
H       1.05221417     -0.38073271      2.39146588
H       1.73025456      1.23412697      2.25354330
H       0.20997495      1.93966549      4.22087309
H      -0.13430713      0.21318550      4.45718887
H       2.07200089     -0.35908734      4.78746310
H       2.67861920      1.30573580      4.51518282
H       3.34274600      0.47228035      9.01442113
H       1.54406497      0.46419058      8.94045405
H       2.44647877      1.94238133      8.61154569
23
Frame 75  Energy = -425.8865877676 Hartree
C      -0.00727302      1.10111909      0.16819571
C      -0.30241878      1.18175871      1.66095997
C       0.82228780      0.65294562      2.52484276
C       0.60980154      0.89427577      4.03847683
C       1.84272656      0.68291433      4.83095159
C       1.64892036      1.06425277      6.35937447
O       0.77907115      1.75189243      6.78133030
O       2.60546468      0.54216809      7.14054735
C       2.46248811      0.89951900      8.52670859
H      -0.85675906      1.49697883     -0.44563144
H       0.93245777      1.65970869     -0.07902216
H       0.17647765      0.07017788     -0.05809888
H      -1.17600990      0.55023265      1.84711890
H      -0.59690130      2.21932519      1.95662368
H       1.05207776     -0.37577589      2.39270924
H       1.72578041      1.24791259      2.25893087
H       0.19992227      1.93699592      4.23490691
H      -0.14537361      0.21600290      4.45012245
H       2.08040243     -0.36218238      4.78345247
H       2.67367771      1.30329421      4.50091218
H       3.33305231      0.46932482      9.01956925
H       1.54469153      0.45814345      8.94256137
H       2.44799505      1.94539027      8.60217383
23
Frame 80  Energy = -425.8868552239 Hartree
C      -0.00683913      1.10128066      0.16968254
C      -0.30417117      1.17893930      1.66204453
C       0.82087675      0.65188803      2.52555028
C       0.61218387      0.89257132      4.03773847
C       1.84305618      0.68193418      4.83133190
C       1.64982241      1.06524126      6.36003689
O       0.77761228      1.75318223      6.78248729
O       2.60496552      0.54373065      7.13949410
C       2.46279063      0.90033206      8.52855953
H      -0.85378824      1.49605868     -0.44166958
H       0.93233309      1.65590264     -0.08174164
H       0.18144257      0.06441001     -0.05700433
H      -1.18057456      0.54282853      1.84129615
H      -0.58474098      2.21494377      1.96507230
H       1.05197072     -0.37324356      2.39262109
H       1.72101931      1.26032037      2.26441581
H       0.19145422      1.93120200      4.24802447
H      -0.15678875      0.21885719      4.44197141
H       2.09095171     -0.36687273      4.77987068
H       2.66890852      1.30052717      4.48610235
H       3.32326549      0.46652164      9.02451008
H       1.54609279      0.45273511      8.94438305
H       2.44957392      1.95173286      8.59368315
23
Frame 85  Energy = -425.8866347263 Hartree
C      -0.00636034      1.10158854      0.17108168
C      -0.30602244      1.17610464      1.66319089
C       0.81953004      0.65126946      2.52650653
C       0.61404951      0.89107069      4.03688668
C       1.84338182      0.68104787      4.83212658
C       1.65085088      1.06599307      6.36030984
O       0.77595935      1.75453570      6.78373193
O       2.60442120      0.54527607      7.13850257
C       2.46323717      0.90080398      8.53039454
H      -0.84863698      1.49444195     -0.43679919
H       0.93055863      1.65088881     -0.08413335
H       0.18623070      0.05780105     -0.05714627
H      -1.18528990      0.53614283      1.83588237
H      -0.57199299      2.20857769      1.97320025
H       1.05216851     -0.37295833      2.39128963
H       1.71600390      1.27133716      2.26965538
H       0.18448797      1.92286578      4.25997990
H      -0.16775107      0.22173329      4.43266673
H       2.10307401     -0.37302143      4.77685631
H       2.66467705      1.29759335      4.47100531
H       3.31393691      0.46396833      9.02958020
H       1.54837873      0.44821810      8.94577015
H       2.45136975      1.96067506      8.58603493
23
Frame 90  Energy = -425.8887681067 Hartree
C      -0.00582882      1.10195387      0.17238972
C      -0.30804843      1.17322500      1.66441906
C       0.81833693      0.65117038      2.52771717
C       0.61534247      0.88974469      4.03602749
C       1.84380358      0.68029173      4.83322263
C       1.65194329      1.06652618      6.36030337
O       0.77417986      1.75606147      6.78502446
O       2.60379367      0.54688476      7.13748160
C       2.46366843      0.90100179      8.53221027
H      -0.84183524      1.49198088     -0.43116607
H       0.92697436      1.64530308     -0.08644398
H       0.19110137      0.05095729     -0.05829081
H      -1.18990023      0.53013710      1.83120196
H      -0.55894223      2.20079719      1.98088632
H       1.05279073     -0.37549940      2.38854913
H       1.71007741      1.28071549      2.27470424
H       0.17900197      1.91220641      4.27055836
H      -0.17825287      0.22471761      4.42236220
H       2.11654931     -0.37954079      4.77460311
H       2.66078446      1.29476797      4.45572069
H       3.30532091      0.46137714      9.03511782
H       1.55161825      0.44489047      8.94660576
H       2.45296816      1.97168680      8.57943128
23
Frame 95  Energy = -425.8923609696 Hartree
C      -0.00518452      1.10242998      0.17367309
C      -0.31029168      1.17031497      1.66569892
C       0.81737977      0.65164963      2.52920044
C       0.61611574      0.88860391      4.03516662
C       1.84424481      0.67950170      4.83470725
C       1.65319431      1.06699465      6.35987692
O       0.77227801      1.75764809      6.78635055
O       2.60312434      0.54852301      7.13640569
C       2.46403126      0.90097191      8.53388343
H      -0.83404400      1.48874836     -0.42498757
H       0.92227879      1.63978813     -0.08834115
H       0.19531685      0.04410899     -0.06011687
H      -1.19401989      0.52579805      1.82714666
H      -0.54575042      2.19209823      1.98779830
H       1.05383113     -0.38054809      2.38496782
H       1.70317071      1.28823175      2.27976463
H       0.17490782      1.89931425      4.27977582
H      -0.18790369      0.22727722      4.41134714
H       2.13122900     -0.38549605      4.77308850
H       2.65752049      1.29177046      4.44072879
H       3.29764610      0.45900665      9.04092721
H       1.55549534      0.44261631      8.94720381
H       2.45449831      1.98410399      8.57402502
23
Frame 100  Energy = -425.8923038181 Hartree
C      -0.00449356      1.10283092      0.17497355
C      -0.31279488      1.16742410      1.66691695
C       0.81667758      0.65268597      2.53089421
C       0.61650106      0.88760694      4.03429441
C       1.84472540      0.67865497      4.83661374
C       1.65452070      1.06739990      6.35905640
O       0.77032172      1.75921692      6.78760263
O       2.60249927      0.55018359      7.13538510
C       2.46444159      0.90083239      8.53527717
H      -0.82541132      1.48529705     -0.41881235
H       0.91707755      1.63454347     -0.08970208
H       0.19870605      0.03789961     -0.06272994
H      -1.19755457      0.52269877      1.82354147
H      -0.53253935      2.18245333      1.99393683
H       1.05537841     -0.38766325      2.38064956
H       1.69531048      1.29409467      2.28460425
H       0.17251777      1.88472396      4.28723326
H      -0.19672756      0.22959318      4.39976865
H       2.14647863     -0.38988970      4.77235848
H       2.65472528      1.28851875      4.42616526
H       3.29120908      0.45680859      9.04692582
H       1.55944544      0.44112316      8.94766282
H       2.45579251      1.99667181      8.56967913
23
Frame 105  Energy = -425.8878451802 Hartree
C      -0.00374379      1.10312697      0.17639948
C      -0.31535881      1.16454514      1.66817369
C       0.81617844      0.65409604      2.53283336
C       0.61647174      0.88669275      4.03346368
C       1.84534833      0.67770034      4.83880329
C       1.65593860      1.06764089      6.35802070
O       0.76829280      1.76082853      6.78885798
O       2.60188606      0.55184652      7.13446339
C       2.46477786      0.90054494      8.53649408
H      -0.81664371      1.48131833     -0.41348183
H       0.91127655      1.62947787     -0.09089951
H       0.20125668      0.03292655     -0.06583282
H      -1.20044017      0.52080631      1.82042514
H      -0.51974999      2.17243616      1.99948471
H       1.05735423     -0.39616846      2.37570982
H       1.68697782      1.29773605      2.28920697
H       0.17172641      1.86885821      4.29318230
H      -0.20431762      0.23187983      4.38779238
H       2.16211500     -0.39258389      4.77203706
H       2.65211267      1.28483836      4.41249989
H       3.28635188      0.45472585      9.05290784
H       1.56359716      0.44063439      8.94780068
H       2.45727700      2.00810146      8.56630931
23
Frame 110  Energy = -425.8901041746 Hartree
C      -0.00288649      1.10321943      0.17791474
C      -0.31795955      1.16146723      1.66938006
C       0.81590293      0.65586041      2.53495325
C       0.61596199      0.88590466      4.03268203
C       1.84606364      0.67662879      4.84127764
C       1.65726178      1.06784141      6.35671313
O       0.76625594      1.76238006      6.78998219
O       2.60125751      0.55351292      7.13352899
C       2.46507583      0.90035061      8.53743861
H      -0.80845930      1.47745960     -0.40910550
H       0.90541395      1.62483487     -0.09178043
H       0.20284360      0.02965769     -0.06953515
H      -1.20297274      0.52031513      1.81774473
H      -0.50781354      2.16317774      2.00442502
H       1.05964392     -0.40477382      2.36992221
H       1.67816373      1.29955147      2.29336470
H       0.17244853      1.85269208      4.29770225
H      -0.21072216      0.23425515      4.37555254
H       2.17794588     -0.39344384      4.77206223
H       2.64972617      1.28087154      4.40025177
H       3.28313947      0.45292280      9.05904610
H       1.56765752      0.44134458      8.94782889
H       2.45876322      2.01773979      8.56430468
23
Frame 115  Energy = -425.8893262315 Hartree
C      -0.00191874      1.10301846      0.17956589
C      -0.32061977      1.15820790      1.67044044
C       0.81589305      0.65788170      2.53719130
C       0.61490208      0.88513292      4.03189661
C       1.84693233      0.67548378      4.84396098
C       1.65847608      1.06808088      6.35524327
O       0.76427388      1.76393368      6.79097153
O       2.60061360      0.55511072      7.13257230
C       2.46544554      0.90031042      8.53819444
H      -0.80126166      1.47402414     -0.40589999
H       0.89993260      1.62085523     -0.09218693
H       0.20348290      0.02848689     -0.07350744
H      -1.20544726      0.52109892      1.81558789
H      -0.49726807      2.15526579      2.00923368
H       1.06188834     -0.41286558      2.36364535
H       1.66960093      1.29988931      2.29685960
H       0.17446832      1.83672640      4.30082446
H      -0.21607152      0.23643563      4.36332103
H       2.19323154     -0.39238969      4.77255752
H       2.64744029      1.27657662      4.38902914
H       3.28182902      0.45157117      9.06552865
H       1.57121630      0.44286458      8.94758251
H       2.46004714      2.02493201      8.56343094
23
Frame 120  Energy = -425.8894818652 Hartree
C      -0.00085244      1.10238644      0.18136463
C      -0.32330253      1.15469644      1.67149529
C       0.81602435      0.65995054      2.53963094
C       0.61340357      0.88437219      4.03101846
C       1.84796095      0.67423725      4.84679929
C       1.65961436      1.06834909      6.35353961
O       0.76233275      1.76543119      6.79188118
O       2.60001237      0.55653366      7.13171046
C       2.46588397      0.90048497      8.53870692
H      -0.79595640      1.47134969     -0.40431551
H       0.89530837      1.61796009     -0.09237857
H       0.20325368      0.02961207     -0.07760412
H      -1.20788753      0.52275855      1.81393389
H      -0.48826219      2.14938969      2.01422079
H       1.06410049     -0.41953545      2.35711454
H       1.66199822      1.29889434      2.29958883
H       0.17714041      1.82240116      4.30295526
H      -0.22007779      0.23767405      4.35122564
H       2.20797960     -0.38930925      4.77378442
H       2.64497664      1.27202998      4.37934071
H       3.28206500      0.45036217      9.07241274
H       1.57422536      0.44525943      8.94701127
H       2.46134836      2.02915628      8.56408221
23
Frame 125  Energy = -425.8893808191 Hartree
C       0.00038482      1.10123186      0.18329367
C      -0.32589727      1.15090948      1.67253126
C       0.81627707      0.66199264      2.54218608
C       0.61144691      0.88354248      4.03014732
C       1.84914194      0.67289167      4.84977989
C       1.66062790      1.06872611      6.35165533
O       0.76045726      1.76687979      6.79266323
O       2.59946157      0.55784454      7.13100977
C       2.46630805      0.90089771      8.53900047
H      -0.79287060      1.46951991     -0.40405362
H       0.89222296      1.61670725     -0.09237666
H       0.20200431      0.03277518     -0.08215987
H      -1.21004206      0.52547418      1.81287111
H      -0.48132010      2.14604260      2.01890048
H       1.06631155     -0.42413690      2.34997111
H       1.65559952      1.29714706      2.30125216
H       0.17989809      1.81080606      4.30418905
H      -0.22358938      0.23813709      4.33942054
H       2.22197322     -0.38376646      4.77569028
H       2.64233682      1.26734637      4.37083061
H       3.28406510      0.44937347      9.07939398
H       1.57609878      0.44834854      8.94641633
H       2.46265827      2.03016608      8.56612731
23
Frame 130  Energy = -425.8892947602 Hartree
C       0.00175592      1.09967418      0.18530570
C      -0.32838192      1.14687927      1.67348997
C       0.81651830      0.66389309      2.54483631
C       0.60917603      0.88249579      4.02926145
C       1.85047972      0.67144074      4.85290119
C       1.66151041      1.06929256      6.34960084
O       0.75870961      1.76823895      6.79331903
O       2.59899813      0.55907810      7.13048923
C       2.46685223      0.90152827      8.53909394
H      -0.79193255      1.46860773     -0.40512315
H       0.89122330      1.61717185     -0.09265503
H       0.19958781      0.03791976     -0.08696973
H      -1.21246442      0.52910580      1.81261808
H      -0.47624029      2.14497962      2.02360767
H       1.06810948     -0.42626796      2.34242244
H       1.65097758      1.29452490      2.30199692
H       0.18247219      1.80232748      4.30451054
H      -0.22647565      0.23752073      4.32814958
H       2.23516541     -0.37611215      4.77831705
H       2.63975194      1.26242539      4.36403178
H       3.28740342      0.44914549      9.08601107
H       1.57646809      0.45232299      8.94566800
H       2.46410639      2.02775762      8.56917466
23
Frame 135  Energy = -425.8892989479 Hartree
C       0.00316314      1.09787361      0.18742447
C      -0.33081058      1.14265881      1.67441764
C       0.81691004      0.66567144      2.54760920
C       0.60670746      0.88117388      4.02829939
C       1.85193471      0.66991840      4.85615297
C       1.66221941      1.07001991      6.34740189
O       0.75709443      1.76948570      6.79378990
O       2.59862015      0.56016769      7.13011603
C       2.46741221      0.90234471      8.53901370
H      -0.79321713      1.46874218     -0.40786696
H       0.89182326      1.61946484     -0.09319945
H       0.19604366      0.04464629     -0.09172699
H      -1.21506134      0.53325513      1.81329381
H      -0.47305407      2.14572905      2.02779933
H       1.06946433     -0.42561973      2.33493397
H       1.64879983      1.29173709      2.30162215
H       0.18489079      1.79780379      4.30416276
H      -0.22861936      0.23553104      4.31752362
H       2.24761610     -0.36662506      4.78199638
H       2.63733431      1.25736070      4.35919850
H       3.29129476      0.44966100      9.09164234
H       1.57577694      0.45684747      8.94489082
H       2.46553888      2.02230239      8.57345380
23
Frame 140  Energy = -425.8895342682 Hartree
C       0.00459297      1.09595369      0.18970056
C      -0.33316108      1.13830546      1.67530302
C       0.81732110      0.66729273      2.55049315
C       0.60411980      0.87964046      4.02739925
C       1.85340853      0.66831497      4.85940820
C       1.66263593      1.07102375      6.34512438
O       0.75570700      1.77061162      6.79414428
O       2.59829029      0.56123792      7.12986819
C       2.46813416      0.90333365      8.53875266
H      -0.79596463      1.46948958     -0.41240411
H       0.89352707      1.62320718     -0.09379333
H       0.19178953      0.05196582     -0.09632608
H      -1.21813855      0.53742751      1.81480710
H      -0.47172222      2.14773032      2.03118486
H       1.07061619     -0.42203970      2.32783773
H       1.64912096      1.28893863      2.29988490
H       0.18662419      1.79753105      4.30349405
H      -0.22995606      0.23237162      4.30769591
H       2.25909808     -0.35604641      4.78684110
H       2.63489167      1.25275810      4.35647614
H       3.29543331      0.45091046      9.09593635
H       1.57423124      0.46178059      8.94435039
H       2.46719526      2.01420852      8.57903995
23
Frame 145  Energy = -425.8891653883 Hartree
C       0.00608978      1.09381231      0.19199147
C      -0.33538159      1.13388546      1.67621758
C       0.81776070      0.66870453      2.55336434
C       0.60126000      0.87782628      4.02661816
C       1.85490324      0.66665361      4.86268271
C       1.66280980      1.07221371      6.34284505
O       0.75452957      1.77166489      6.79435185
O       2.59807483      0.56226334      7.12968529
C       2.46896359      0.90450847      8.53831963
H      -0.79976770      1.47060711     -0.41800654
H       0.89629900      1.62798473     -0.09411105
H       0.18719895      0.05964865     -0.10094234
H      -1.22189970      0.54135439      1.81721973
H      -0.47221595      2.15084878      2.03375736
H       1.07119459     -0.41561212      2.32148143
H       1.65170985      1.28611380      2.29675809
H       0.18752039      1.80186524      4.30215980
H      -0.23082466      0.22784023      4.29854728
H       2.26990828     -0.34503302      4.79259164
H       2.63255310      1.24860392      4.35550168
H       3.29993225      0.45310202      9.09874015
H       1.57194906      0.46693961      8.94385076
H       2.46878559      2.00415257      8.58570013
23
Frame 150  Energy = -425.8892667250 Hartree
C       0.00755771      1.09147745      0.19433458
C      -0.33747967      1.12951752      1.67714692
C       0.81822527      0.66988722      2.55621045
C       0.59824874      0.87566554      4.02584744
C       1.85638485      0.66492550      4.86596548
C       1.66266990      1.07353286      6.34049434
O       0.75351467      1.77268412      6.79435027
O       2.59793196      0.56321020      7.12955230
C       2.46996118      0.90573594      8.53775494
H      -0.80450845      1.47206006     -0.42380617
H       0.89986297      1.63346954     -0.09370691
H       0.18208476      0.06741997     -0.10552491
H      -1.22638059      0.54491519      1.82017793
H      -0.47424024      2.15445866      2.03547405
H       1.07123695     -0.40634311      2.31577368
H       1.65614293      1.28353051      2.29251609
H       0.18824553      1.80996609      4.30035814
H      -0.23094170      0.22222058      4.29028998
H       2.27955322     -0.33409765      4.79891999
H       2.63033300      1.24477205      4.35644516
H       3.30463467      0.45634121      9.10010589
H       1.56836068      0.47241001      8.94335229
H       2.47023651      1.99279914      8.59362533
23
Frame 155  Energy = -425.8904692208 Hartree
C       0.00890982      1.08919760      0.19665738
C      -0.33940368      1.12530153      1.67803330
C       0.81871212      0.67089853      2.55881717
C       0.59523269      0.87316554      4.02512439
C       1.85777192      0.66315446      4.86925350
C       1.66229504      1.07500712      6.33814258
O       0.75268511      1.77354671      6.79420656
O       2.59795267      0.56407447      7.12951920
C       2.47106557      0.90696300      8.53712982
H      -0.80875923      1.47364732     -0.42947379
H       0.90399167      1.63961110     -0.09288250
H       0.17672254      0.07408520     -0.11042149
H      -1.23153748      0.54821481      1.82364966
H      -0.47776631      2.15826245      2.03571407
H       1.07089686     -0.39521366      2.31086356
H       1.66246944      1.28132468      2.28768080
H       0.18880313      1.82110386      4.29831319
H      -0.23043640      0.21531761      4.28307292
H       2.28809974     -0.32360071      4.80577836
H       2.62857549      1.24196319      4.35925488
H       3.30883765      0.46023130      9.10007163
H       1.56383843      0.47818370      8.94296741
H       2.47132129      1.98143628      8.60270761
23
Frame 160  Energy = -425.8902167790 Hartree
C       0.01003195      1.08694650      0.19887729
C      -0.34114717      1.12133245      1.67891409
C       0.81930519      0.67176048      2.56129613
C       0.59220831      0.87043284      4.02456516
C       1.85905647      0.66136927      4.87260839
C       1.66166281      1.07667036      6.33589121
O       0.75204330      1.77426308      6.79392066
O       2.59803362      0.56487683      7.12958655
C       2.47232776      0.90803223      8.53648147
H      -0.81236945      1.47509121     -0.43476291
H       0.90836652      1.64640681     -0.09129022
H       0.17145908      0.07919293     -0.11561114
H      -1.23780304      0.55099503      1.82795115
H      -0.48267989      2.16161391      2.03423647
H       1.07017373     -0.38253822      2.30640756
H       1.67007287      1.27954293      2.28221601
H       0.18950656      1.83430863      4.29547749
H      -0.22970624      0.20735811      4.27697576
H       2.29574733     -0.31461387      4.81362328
H       2.62724966      1.24021648      4.36368828
H       3.31271812      0.46482206      9.09833884
H       1.55888067      0.48426795      8.94242761
H       2.47233961      1.97059832      8.61273398
23
Frame 165  Energy = -425.8899594530 Hartree
C       0.01100141      1.08471893      0.20096115
C      -0.34270072      1.11762939      1.67986906
C       0.81995294      0.67253359      2.56362766
C       0.58919085      0.86749245      4.02412147
C       1.86027457      0.65968608      4.87593057
C       1.66069738      1.07849515      6.33378714
O       0.75161607      1.77479574      6.79341223
O       2.59814516      0.56565491      7.12966169
C       2.47378558      0.90894905      8.53584110
H      -0.81521108      1.47643795     -0.43900380
H       0.91216232      1.65334482     -0.08866610
H       0.16646627      0.08259131     -0.12117475
H      -1.24528311      0.55336053      1.83314618
H      -0.48879211      2.16392022      2.03138465
H       1.06947964     -0.36880583      2.30228182
H       1.67829356      1.27792754      2.27560244
H       0.19067797      1.84849255      4.29166529
H      -0.22886791      0.19816461      4.27186149
H       2.30235204     -0.30761900      4.82242722
H       2.62676545      1.23956445      4.36985815
H       3.31628612      0.47012826      9.09484687
H       1.55344163      0.49064561      8.94132114
H       2.47339725      1.96157536      8.62337824
23
Frame 170  Energy = -425.8898549424 Hartree
C       0.01185053      1.08261808      0.20292120
C      -0.34414083      1.11415330      1.68080064
C       0.82058693      0.67324169      2.56570779
C       0.58611923      0.86451898      4.02389607
C       1.86143419      0.65818911      4.87919247
C       1.65948391      1.08045153      6.33183608
O       0.75145315      1.77517938      6.79274671
O       2.59824260      0.56636969      7.12977466
C       2.47528974      0.90957753      8.53524081
H      -0.81672682      1.47751446     -0.44198941
H       0.91476224      1.66025843     -0.08496450
H       0.16209198      0.08378224     -0.12747929
H      -1.25385388      0.55520098      1.83915639
H      -0.49605734      2.16495351      2.02725031
H       1.06876167     -0.35477160      2.29825719
H       1.68688577      1.27572713      2.26899782
H       0.19192170      1.86277817      4.28678522
H      -0.22768175      0.18804605      4.26826008
H       2.30833241     -0.30322940      4.83193867
H       2.62689799      1.24055506      4.37742911
H       3.31938843      0.47608578      9.08970713
H       1.54800266      0.49720797      8.93952872
H       2.47405755      1.95522045      8.63486001
23
Frame 175  Energy = -425.8876044807 Hartree
C       0.01258971      1.08078028      0.20469985
C      -0.34534495      1.11095015      1.68171236
C       0.82128458      0.67396081      2.56750754
C       0.58296448      0.86157408      4.02391481
C       1.86245470      0.65690300      4.88239073
C       1.65813068      1.08249229      6.33009806
O       0.75149125      1.77545274      6.79185535
O       2.59839668      0.56712671      7.12993897
C       2.47661892      0.90998684      8.53464454
H      -0.81687267      1.47817581     -0.44316005
H       0.91660039      1.66656625     -0.08019872
H       0.15811950      0.08266133     -0.13431335
H      -1.26311578      0.55649053      1.84603537
H      -0.50518994      2.16448401      2.02177556
H       1.06806112     -0.34148470      2.29473112
H       1.69575054      1.27294911      2.26240213
H       0.19400040      1.87638566      4.28094073
H      -0.22647894      0.17733876      4.26595192
H       2.31375082     -0.30190815      4.84205142
H       2.62772205      1.24316058      4.38619520
H       3.32167112      0.48232342      9.08304689
H       1.54299366      0.50383203      8.93771620
H       2.47462825      1.95200394      8.64659357
23
Frame 180  Energy = -425.8876217051 Hartree
C       0.01317615      1.07926943      0.20628874
C      -0.34630077      1.10809733      1.68268083
C       0.82209053      0.67489872      2.56905050
C       0.57982993      0.85873821      4.02419572
C       1.86326694      0.65585221      4.88547836
C       1.65658284      1.08456983      6.32860424
O       0.75169633      1.77564127      6.79081382
O       2.59865373      0.56786594      7.13020273
C       2.47789684      0.91007960      8.53402878
H      -0.81523431      1.47837919     -0.44278222
H       0.91720417      1.67197915     -0.07434099
H       0.15457166      0.07926252     -0.14155075
H      -1.27261902      0.55764836      1.85361601
H      -0.51568118      2.16256763      2.01486510
H       1.06753373     -0.32958735      2.29119835
H       1.70425443      1.26972665      2.25612423
H       0.19685687      1.88821666      4.27379041
H      -0.22498445      0.16629193      4.26521360
H       2.31904024     -0.30346217      4.85258579
H       2.62931846      1.24749203      4.39586504
H       3.32385088      0.48807322      9.07540948
H       1.53832951      0.51052221      8.93552454
H       2.47494170      1.95189807      8.65873487
23
Frame 185  Energy = -425.8877493371 Hartree
C       0.01354820      1.07801898      0.20756285
C      -0.34713304      1.10549074      1.68379615
C       0.82294720      0.67606364      2.57027454
C       0.57669998      0.85597018      4.02470055
C       1.86382518      0.65507333      4.88852635
C       1.65487610      1.08678339      6.32731928
O       0.75199910      1.77565602      6.78965141
O       2.59887856      0.56863851      7.13056378
C       2.47896583      0.90989200      8.53323421
H      -0.81229279      1.47797961     -0.44060538
H       0.91640888      1.67613646     -0.06743039
H       0.15163765      0.07456959     -0.14868367
H      -1.28182087      0.55868537      1.86184626
H      -0.52715190      2.15919520      2.00645376
H       1.06740543     -0.31968143      2.28752010
H       1.71234034      1.26632045      2.25045284
H       0.20049191      1.89741071      4.26560288
H      -0.22339024      0.15523085      4.26589519
H       2.32416745     -0.30785580      4.86364682
H       2.63129049      1.25299136      4.40660525
H       3.32579875      0.49366187      9.06702155
H       1.53422893      0.51749242      8.93310966
H       2.47521570      1.95537147      8.67126460
23
Frame 190  Energy = -425.8871600303 Hartree
C       0.01365519      1.07695079      0.20862919
C      -0.34795769      1.10322490      1.68501404
C       0.82388373      0.67743960      2.57124356
C       0.57346336      0.85331287      4.02543900
C       1.86404886      0.65452023      4.89151391
C       1.65306425      1.08905467      6.32619316
O       0.75247308      1.77555756      6.78832172
O       2.59915222      0.56945996      7.13103072
C       2.47990259      0.90948970      8.53233394
H      -0.80804183      1.47683485     -0.43686161
H       0.91425281      1.67912866     -0.05950730
H       0.14980598      0.06873355     -0.15566817
H      -1.29005678      0.55965138      1.87023464
H      -0.53951913      2.15426967      1.99696005
H       1.06788975     -0.31286416      2.28393654
H       1.71922451      1.26278009      2.24559243
H       0.20491954      1.90325367      4.25665788
H      -0.22183201      0.14461691      4.26820455
H       2.32888065     -0.31493704      4.87488412
H       2.63364725      1.25964798      4.41792300
H       3.32779364      0.49873137      9.05838018
H       1.53112735      0.52404971      8.93028455
H       2.47527655      1.96165563      8.68380812
23
Frame 195  Energy = -425.8871464429 Hartree
C       0.01356880      1.07603927      0.20941885
C      -0.34879757      1.10122716      1.68620233
C       0.82491350      0.67902670      2.57192960
C       0.57019163      0.85080115      4.02637792
C       1.86406291      0.65410615      4.89436147
C       1.65117872      1.09135501      6.32529309
O       0.75313785      1.77532862      6.78682786
O       2.59949734      0.57031563      7.13157991
C       2.48077839      0.90896999      8.53133833
H      -0.80301917      1.47560407     -0.43121218
H       0.91062231      1.68110708     -0.05037644
H       0.14855120      0.06208493     -0.16244953
H      -1.29687338      0.56045702      1.87873066
H      -0.55255215      2.14804528      1.98659699
H       1.06922568     -0.30932464      2.28055728
H       1.72513825      1.25875694      2.24171842
H       0.21033480      1.90537798      4.24693322
H      -0.22013099      0.13455113      4.27212788
H       2.33268199     -0.32383201      4.88614254
H       2.63617747      1.26751744      4.43001734
H       3.32999953      0.50296100      9.04960055
H       1.52894548      0.53023516      8.92732718
H       2.47490919      1.96985849      8.69574246
23
Frame 200  Energy = -425.8860306907 Hartree
C       0.01341615      1.07524873      0.20997950
C      -0.34962183      1.09956442      1.68745922
C       0.82599181      0.68079229      2.57236463
C       0.56695319      0.84852935      4.02767425
C       1.86386032      0.65382721      4.89703228
C       1.64920502      1.09367569      6.32461825
O       0.75395116      1.77501232      6.78520876
O       2.59993905      0.57118869      7.13225288
C       2.48161630      0.90828715      8.53023199
H      -0.79725864      1.47409945     -0.42430482
H       0.90578925      1.68176976     -0.04015968
H       0.14805120      0.05552951     -0.16877157
H      -1.30191157      0.56129857      1.88736216
H      -0.56619384      2.14068795      1.97538865
H       1.07092682     -0.30912886      2.27718070
H       1.72983597      1.25435331      2.23904457
H       0.21602938      1.90408778      4.23660447
H      -0.21801028      0.12510757      4.27742363
H       2.33521596     -0.33369736      4.89718461
H       2.63886410      1.27631668      4.44284377
H       3.33279477      0.50624122      9.04090401
H       1.52769166      0.53600547      8.92398923
H       2.47431530      1.97971696      8.70720937
23
Frame 205  Energy = -425.8898214845 Hartree
C       0.01321764      1.07450884      0.21033284
C      -0.35044609      1.09807945      1.68883359
C       0.82720856      0.68271160      2.57251743
C       0.56382691      0.84648558      4.02926115
C       1.86353657      0.65367386      4.89944609
C       1.64702049      1.09600632      6.32416832
O       0.75476857      1.77463796      6.78343466
O       2.60039629      0.57215414      7.13298914
C       2.48231264      0.90766124      8.52915730
H      -0.79109853      1.47248241     -0.41645525
H       0.90041977      1.68145090     -0.02899973
H       0.14868360      0.04981074     -0.17445843
H      -1.30514225      0.56242631      1.89556248
H      -0.57993052      2.13312227      1.96385475
H       1.07302392     -0.31177395      2.27380100
H       1.73277727      1.24975613      2.23730306
H       0.22237343      1.89925828      4.22570926
H      -0.21538666      0.11676812      4.28372506
H       2.33654157     -0.34370512      4.90776042
H       2.64185368      1.28547690      4.45647835
H       3.33641351      0.50888622      9.03255323
H       1.52738746      0.54119363      8.92021947
H       2.47389091      1.98976463      8.71775555
23
Frame 210  Energy = -425.8874317921 Hartree
C       0.01297691      1.07366426      0.21060472
C      -0.35125547      1.09683547      1.69018744
C       0.82844292      0.68470330      2.57248743
C       0.56081195      0.84455219      4.03103806
C       1.86316124      0.65365711      4.90162980
C       1.64472518      1.09832097      6.32393087
O       0.75556873      1.77421178      6.78147481
O       2.60090341      0.57327490      7.13369757
C       2.48283642      0.90726633      8.52799472
H      -0.78490399      1.47135559     -0.40804412
H       0.89466440      1.68074540     -0.01709314
H       0.14981107      0.04493453     -0.17947109
H      -1.30664387      0.56362403      1.90355358
H      -0.59408601      2.12565259      1.95183745
H       1.07574679     -0.31704627      2.27086653
H       1.73422769      1.24522299      2.23663174
H       0.22925348      1.89135914      4.21443293
H      -0.21232295      0.10961863      4.29113361
H       2.33630054     -0.35300770      4.91817635
H       2.64445554      1.29490340      4.47059123
H       3.34072222      0.51056610      9.02427092
H       1.52776950      0.54576543      8.91637689
H       2.47362108      1.99938678      8.72733105
23
Frame 215  Energy = -425.8873628019 Hartree
C       0.01260153      1.07263329      0.21081368
C      -0.35208493      1.09575640      1.69152432
C       0.82962340      0.68676485      2.57221440
C       0.55793060      0.84259445      4.03306778
C       1.86263088      0.65368578      4.90353675
C       1.64241104      1.10059949      6.32385846
O       0.75638110      1.77380450      6.77936767
O       2.60147260      0.57446318      7.13444560
C       2.48322252      0.90705543      8.52674183
H      -0.77950708      1.47083208     -0.39981264
H       0.88865944      1.67928649     -0.00449139
H       0.15147548      0.04149515     -0.18360106
H      -1.30583606      0.56475403      1.91126544
H      -0.60816608      2.11849031      1.93976334
H       1.07865553     -0.32421253      2.26883124
H       1.73395679      1.24072415      2.23718195
H       0.23589233      1.88106076      4.20303797
H      -0.20888065      0.10353230      4.29956918
H       2.33411464     -0.36098561      4.92803318
H       2.64672481      1.30448568      4.48522926
H       3.34574334      0.51078900      9.01675225
H       1.52897569      0.54945544      8.91281563
H       2.47374353      2.00763349      8.73591726
23
Frame 220  Energy = -425.8873300873 Hartree
C       0.01206560      1.07145582      0.21095146
C      -0.35303450      1.09474147      1.69291769
C       0.83083022      0.68877808      2.57170690
C       0.55525805      0.84065600      4.03535903
C       1.86198788      0.65374101      4.90527739
C       1.64023309      1.10281979      6.32410806
O       0.75728617      1.77339207      6.77721134
O       2.60213133      0.57568940      7.13520225
C       2.48336492      0.90706053      8.52534881
H      -0.77513452      1.47109733     -0.39197294
H       0.88303553      1.67739123      0.00854459
H       0.15375675      0.03965562     -0.18648400
H      -1.30287967      0.56585360      1.91819287
H      -0.62169946      2.11236173      1.92765868
H       1.08182527     -0.33278900      2.26752513
H       1.73206604      1.23670162      2.23858465
H       0.24218788      1.86941442      4.19222729
H      -0.20541965      0.09869493      4.30883727
H       2.32990005     -0.36736509      4.93730621
H       2.64842223      1.31367273      4.50030905
H       3.35152969      0.50956351      9.00959130
H       1.53093077      0.55246399      8.90987118
H       2.47421422      2.01389061      8.74285550
23
Frame 225  Energy = -425.8870322445 Hartree
C       0.01142031      1.07012229      0.21104527
C      -0.35405571      1.09383927      1.69445091
C       0.83205117      0.69072139      2.57093642
C       0.55294809      0.83870738      4.03778279
C       1.86131413      0.65377800      4.90683724
C       1.63817260      1.10485309      6.32459884
O       0.75809918      1.77298258      6.77500016
O       2.60294319      0.57695720      7.13597130
C       2.48329219      0.90730635      8.52401077
H      -0.77215572      1.47201709     -0.38462258
H       0.87835646      1.67516544      0.02173629
H       0.15653308      0.03922009     -0.18818179
H      -1.29782829      0.56630486      1.92451050
H      -0.63481445      2.10754872      1.91579320
H       1.08498304     -0.34217794      2.26712253
H       1.72915868      1.23305843      2.24089127
H       0.24785822      1.85719012      4.18208401
H      -0.20160734      0.09513112      4.31896307
H       2.32379435     -0.37168419      4.94592576
H       2.64953331      1.32239837      4.51584495
H       3.35776908      0.50704599      9.00291607
H       1.53314053      0.55471871      8.90738952
H       2.47481730      2.01816077      8.74791889
23
Frame 230  Energy = -425.8873101024 Hartree
C       0.01067656      1.06858744      0.21118200
C      -0.35513592      1.09301267      1.69591039
C       0.83322677      0.69244581      2.56991346
C       0.55095370      0.83657279      4.04013663
C       1.86051151      0.65375981      4.90830082
C       1.63634495      1.10666741      6.32527193
O       0.75882793      1.77271190      6.77284495
O       2.60377738      0.57824269      7.13679878
C       2.48313899      0.90787422      8.52280782
H      -0.77105134      1.47374300     -0.37780511
H       0.87502011      1.67296468      0.03462011
H       0.15970970      0.04062936     -0.18852324
H      -1.29122286      0.56588429      1.93017187
H      -0.64814732      2.10449115      1.90444419
H       1.08788733     -0.35140496      2.26819858
H       1.72556477      1.23030946      2.24349933
H       0.25196021      1.84523540      4.17304231
H      -0.19733235      0.09253026      4.32950939
H       2.31584261     -0.37395934      4.95371368
H       2.64989152      1.33041282      4.53156340
H       3.36431228      0.50341785      8.99688713
H       1.53557860      0.55613318      8.90537941
H       2.47566359      2.01985855      8.75139200
23
Frame 235  Energy = -425.8872557927 Hartree
C       0.00982503      1.06678330      0.21138287
C      -0.35615214      1.09225478      1.69731186
C       0.83435502      0.69393603      2.56874862
C       0.54931894      0.83420602      4.04250584
C       1.85955883      0.65372767      4.90967212
C       1.63482370      1.10825242      6.32605731
O       0.75937210      1.77254525      6.77062138
O       2.60457340      0.57959766      7.13767350
C       2.48293201      0.90873437      8.52168277
H      -0.77170638      1.47673032     -0.37232248
H       0.87325877      1.67134238      0.04690642
H       0.16313685      0.04351967     -0.18792258
H      -1.28380535      0.56457685      1.93565367
H      -0.66106355      2.10351943      1.89385484
H       1.09065880     -0.35975822      2.27073936
H       1.72177825      1.22884386      2.24647518
H       0.25420380      1.83476168      4.16558685
H      -0.19333897      0.09114737      4.34093775
H       2.30636656     -0.37420085      4.96045532
H       2.64943446      1.33762938      4.54699821
H       3.37089111      0.49864974      8.99144368
H       1.53824694      0.55667830      8.90335574
H       2.47707611      2.01907493      8.75342350
23
Frame 240  Energy = -425.8869850310 Hartree
C       0.00893833      1.06472741      0.21166094
C      -0.35713859      1.09151149      1.69862837
C       0.83547508      0.69510477      2.56737849
C       0.54812468      0.83164069      4.04486714
C       1.85850293      0.65368821      4.91097910
C       1.63347333      1.10954662      6.32695593
O       0.75980220      1.77246839      6.76834141
O       2.60538231      0.58099992      7.13854225
C       2.48274897      0.90984135      8.52052089
H      -0.77409378      1.48104475     -0.36819680
H       0.87294405      1.67041131      0.05877549
H       0.16696269      0.04782623     -0.18630440
H      -1.27568468      0.56212258      1.94069141
H      -0.67366436      2.10405814      1.88407246
H       1.09306195     -0.36653523      2.27469067
H       1.71819305      1.22896530      2.24943957
H       0.25413869      1.82674928      4.15977659
H      -0.18946346      0.09058370      4.35328588
H       2.29525836     -0.37232076      4.96639834
H       2.64845517      1.34428994      4.56196855
H       3.37702729      0.49295434      8.98625242
H       1.54054269      0.55636849      8.90167302
H       2.47856816      2.01579090      8.75364771
23
Frame 245  Energy = -425.8871867224 Hartree
C       0.00786352      1.06241185      0.21207046
C      -0.35815669      1.09090581      1.69991284
C       0.83636589      0.69594591      2.56580945
C       0.54747270      0.82894259      4.04726058
C       1.85737771      0.65354299      4.91208090
C       1.63236064      1.11043271      6.32794374
O       0.76001273      1.77248517      6.76609143
O       2.60613993      0.58253732      7.13939180
C       2.48266974      0.91108011      8.51939079
H      -0.77852828      1.48658064     -0.36546587
H       0.87460379      1.67022053      0.07013910
H       0.17134662      0.05293017     -0.18412435
H      -1.26704142      0.55813614      1.94513792
H      -0.68569289      2.10595934      1.87504761
H       1.09504014     -0.37152806      2.28015344
H       1.71510604      1.23065952      2.25255585
H       0.25168157      1.82201702      4.15594275
H      -0.18569198      0.09113872      4.36602281
H       2.28295870     -0.36875048      4.97131600
H       2.64693128      1.35005184      4.57633580
H       3.38229647      0.48711727      8.98135574
H       1.54252156      0.55496283      8.90055497
H       2.48033147      2.01009768      8.75205788
23
Frame 250  Energy = -425.8879873779 Hartree
C       0.00666372      1.05998891      0.21254484
C      -0.35911852      1.09041326      1.70115574
C       0.83703827      0.69635546      2.56410964
C       0.54724634      0.82604137      4.04969041
C       1.85606376      0.65349347      4.91313233
C       1.63157947      1.11084890      6.32904866
O       0.76008388      1.77266113      6.76392517
O       2.60691371      0.58407120      7.14022144
C       2.48271567      0.91248050      8.51838228
H      -0.78447378      1.49318863     -0.36378218
H       0.87795446      1.67087995      0.08101851
H       0.17627320      0.05856982     -0.18118195
H      -1.25843905      0.55237328      1.94941626
H      -0.69722230      2.10924924      1.86691843
H       1.09666449     -0.37444463      2.28661603
H       1.71309929      1.23406302      2.25574404
H       0.24702506      1.82063530      4.15395516
H      -0.18195352      0.09259371      4.37910126
H       2.26956405     -0.36372870      4.97478615
H       2.64480823      1.35453913      4.58987345
H       3.38616901      0.48145270      8.97672744
H       1.54381117      0.55229493      8.90040418
H       2.48238109      2.00241989      8.74888894
23
Frame 255  Energy = -425.8879020370 Hartree
C       0.00538686      1.05741205      0.21300721
C      -0.36003603      1.08997307      1.70230335
C       0.83755085      0.69639749      2.56231166
C       0.54751443      0.82284063      4.05214117
C       1.85462714      0.65358878      4.91414181
C       1.63117906      1.11084080      6.33028668
O       0.75998045      1.77310067      6.76190863
O       2.60768075      0.58568560      7.14096329
C       2.48295194      0.91404350      8.51738485
H      -0.79162192      1.50042836     -0.36308672
H       0.88271517      1.67214240      0.09086271
H       0.18164964      0.06466298     -0.17795298
H      -1.25003266      0.54477042      1.95368271
H      -0.70745303      2.11349444      1.85982556
H       1.09772603     -0.37543123      2.29433092
H       1.71223014      1.23887027      2.25886483
H       0.24035800      1.82263284      4.15364906
H      -0.17831924      0.09452366      4.39225628
H       2.25555298     -0.35745364      4.97710435
H       2.64191875      1.35783524      4.60255442
H       3.38840116      0.47590447      8.97226334
H       1.54476286      0.54839734      8.90117317
H       2.48445897      1.99325788      8.74436301
23
Frame 260  Energy = -425.8886351991 Hartree
C       0.00402247      1.05471634      0.21355544
C      -0.36089281      1.08960154      1.70335415
C       0.83781844      0.69600207      2.56045349
C       0.54822326      0.81956821      4.05457891
C       1.85317114      0.65376689      4.91508629
C       1.63104583      1.11038929      6.33159155
O       0.75972906      1.77368545      6.76002250
O       2.60839243      0.58739115      7.14164812
C       2.48336066      0.91556586      8.51646616
H      -0.79949602      1.50766257     -0.36278861
H       0.88808265      1.67392144      0.09985386
H       0.18721368      0.07058326     -0.17469671
H      -1.24231734      0.53492069      1.95826900
H      -0.71634643      2.11830803      1.85383810
H       1.09807508     -0.37457946      2.30341836
H       1.71203999      1.24536294      2.26177541
H       0.23174924      1.82737611      4.15516006
H      -0.17557125      0.09742731      4.40529679
H       2.24135244     -0.35074194      4.97785933
H       2.63863776      1.35989537      4.61425391
H       3.38888344      0.47037909      8.96827060
H       1.54564191      0.54372795      8.90286559
H       2.48684180      1.98375800      8.73879940
23
Frame 265  Energy = -425.8887929765 Hartree
C       0.00248964      1.05206134      0.21423231
C      -0.36158300      1.08939865      1.70426203
C       0.83793588      0.69529067      2.55864909
C       0.54936753      0.81626269      4.05692246
C       1.85154689      0.65416763      4.91603772
C       1.63123734      1.10957678      6.33283585
O       0.75932071      1.77450316      6.75826537
O       2.60914659      0.58917610      7.14225559
C       2.48393063      0.91703884      8.51574622
H      -0.80699020      1.51499797     -0.36287034
H       0.89420791      1.67554980      0.10812753
H       0.19327755      0.07537531     -0.17174810
H      -1.23539821      0.52309562      1.96255536
H      -0.72371857      2.12314282      1.84925866
H       1.09826042     -0.37188715      2.31330087
H       1.71309138      1.25354467      2.26459263
H       0.22146278      1.83356874      4.15835397
H      -0.17400162      0.10079838      4.41813123
H       2.22774172     -0.34463545      4.97764393
H       2.63522605      1.36051743      4.62471929
H       3.38746792      0.46480545      8.96440268
H       1.54638327      0.53814364      8.90545983
H       2.48932307      1.97435127      8.73221690
23
Frame 270  Energy = -425.8898855481 Hartree
C       0.00077786      1.04953739      0.21507310
C      -0.36213623      1.08941102      1.70496458
C       0.83791597      0.69428010      2.55683094
C       0.55077381      0.81302443      4.05917878
C       1.84965396      0.65487070      4.91696435
C       1.63172037      1.10839721      6.33402847
O       0.75869122      1.77557252      6.75659752
O       2.60987687      0.59109597      7.14270352
C       2.48464430      0.91843111      8.51510552
H      -0.81355014      1.52182117     -0.36321459
H       0.90058737      1.67644391      0.11561449
H       0.19956125      0.07866801     -0.16929499
H      -1.22935579      0.50948475      1.96651343
H      -0.72959685      2.12727721      1.84594192
H       1.09800528     -0.36756935      2.32358265
H       1.71452964      1.26299240      2.26720757
H       0.20987829      1.84047751      4.16302080
H      -0.17329045      0.10437190      4.43104259
H       2.21510773     -0.33997244      4.97667779
H       2.63221843      1.36023856      4.63342618
H       3.38433220      0.45954834      8.96085902
H       1.54736270      0.53206965      8.90874704
H       2.49200287      1.96601283      8.72446640
23
Frame 275  Energy = -425.8897825808 Hartree
C      -0.00097437      1.04722466      0.21599414
C      -0.36261592      1.08974448      1.70556164
C       0.83777245      0.69295558      2.55508405
C       0.55261130      0.80992340      4.06137143
C       1.84747516      0.65585782      4.91787234
C       1.63253726      1.10678964      6.33526576
O       0.75782193      1.77683043      6.75510171
O       2.61051542      0.59312495      7.14301355
C       2.48553721      0.91956891      8.51458194
H      -0.81916743      1.52809000     -0.36362417
H       0.90642211      1.67660223      0.12229539
H       0.20629029      0.08008019     -0.16722326
H      -1.22369913      0.49424315      1.97039883
H      -0.73397123      2.13068351      1.84393526
H       1.09764967     -0.36191360      2.33413594
H       1.71605812      1.27317659      2.26975330
H       0.19754888      1.84721044      4.16911581
H      -0.17350864      0.10767264      4.44334452
H       2.20332913     -0.33701569      4.97474947
H       2.62979278      1.35920214      4.64051432
H       3.37942654      0.45462836      8.95764707
H       1.54905547      0.52571515      8.91254393
H       2.49483926      1.95944688      8.71660626
23
Frame 280  Energy = -425.8921859809 Hartree
C      -0.00278136      1.04518316      0.21701899
C      -0.36302343      1.09033667      1.70597400
C       0.83747796      0.69137040      2.55350660
C       0.55480485      0.80717579      4.06346793
C       1.84501799      0.65704268      4.91871665
C       1.63366712      1.10483850      6.33658009
O       0.75670591      1.77836697      6.75379590
O       2.61113051      0.59519801      7.14323513
C       2.48651069      0.92053887      8.51415474
H      -0.82304692      1.53332408     -0.36344729
H       0.91123022      1.67611224      0.12796810
H       0.21317942      0.07933435     -0.16554009
H      -1.21834311      0.47765774      1.97382707
H      -0.73637493      2.13322543      1.84303343
H       1.09738787     -0.35521823      2.34487393
H       1.71782433      1.28369252      2.27225297
H       0.18457514      1.85275283      4.17626733
H      -0.17425963      0.11056320      4.45492081
H       2.19275514     -0.33609918      4.97197040
H       2.62784674      1.35748713      4.64598806
H       3.37331288      0.44996521      8.95458729
H       1.55124233      0.51923036      8.91661126
H       2.49800105      1.95534608      8.70868788
23
Frame 285  Energy = -425.8922488811 Hartree
C      -0.00464753      1.04342275      0.21818967
C      -0.36348237      1.09101505      1.70621584
C       0.83708666      0.68966582      2.55207221
C       0.55721959      0.80477636      4.06545048
C       1.84231577      0.65840058      4.91958558
C       1.63498527      1.10258703      6.33792769
O       0.75535663      1.78003235      6.75256972
O       2.61164112      0.59730890      7.14336635
C       2.48748094      0.92127948      8.51382075
H      -0.82519299      1.53695766     -0.36247739
H       0.91429434      1.67466230      0.13256792
H       0.22003759      0.07615198     -0.16457427
H      -1.21293490      0.46036525      1.97691618
H      -0.73713856      2.13458774      1.84346230
H       1.09738656     -0.34845758      2.35540815
H       1.71951763      1.29425303      2.27471869
H       0.17188740      1.85613789      4.18435928
H      -0.17557899      0.11340286      4.46581816
H       2.18371666     -0.33787810      4.96835414
H       2.62656460      1.35511832      4.64945681
H       3.36646842      0.44576998      8.95197799
H       1.55418613      0.51296962      8.92100335
H       2.50158189      1.95444414      8.70052688
23
Frame 290  Energy = -425.8923162636 Hartree
C      -0.00649881      1.04210881      0.21940367
C      -0.36410742      1.09171976      1.70628913
C       0.83660972      0.68793434      2.55078804
C       0.55984073      0.80279194      4.06736404
C       1.83929946      0.66000280      4.92040215
C       1.63635766      1.10004554      6.33939533
O       0.75383536      1.78170697      6.75136860
O       2.61200416      0.59939675      7.14334253
C       2.48848156      0.92181812      8.51358986
H      -0.82566050      1.53911501     -0.36094655
H       0.91569841      1.67225000      0.13632094
H       0.22699137      0.07082193     -0.16424318
H      -1.20729616      0.44259853      1.97945970
H      -0.73655600      2.13445157      1.84529421
H       1.09732177     -0.34227906      2.36519199
H       1.72011641      1.30458682      2.27745714
H       0.15995716      1.85662688      4.19320254
H      -0.17699696      0.11605847      4.47540133
H       2.17646513     -0.34205739      4.96440548
H       2.62600566      1.35238304      4.65121483
H       3.35914503      0.44178539      8.95023938
H       1.55788939      0.50690515      8.92560936
H       2.50562223      1.95697880      8.69216836
23
Frame 295  Energy = -425.8920715422 Hartree
C      -0.00836946      1.04118441      0.22062122
C      -0.36480360      1.09252189      1.70623731
C       0.83599203      0.68634646      2.54974553
C       0.56254196      0.80119881      4.06927334
C       1.83610044      0.66184898      4.92124794
C       1.63786062      1.09719951      6.34088633
O       0.75215474      1.78348735      6.75025253
O       2.61226179      0.60147759      7.14316545
C       2.48943585      0.92197605      8.51332779
H      -0.82445265      1.53977381     -0.35908570
H       0.91550923      1.66902225      0.13924232
H       0.23390914      0.06400429     -0.16414436
H      -1.20127511      0.42525469      1.98131815
H      -0.73456380      2.13283201      1.84854760
H       1.09779221     -0.33724236      2.37412440
H       1.71919928      1.31426422      2.28037419
H       0.14900546      1.85401436      4.20263951
H      -0.17882034      0.11886025      4.48364308
H       2.17056807     -0.34806795      4.96014439
H       2.62630643      1.34926790      4.65165947
H       3.35120726      0.43758935      8.94949893
H       1.56263551      0.50090408      8.93063290
H       2.50972061      1.96300827      8.68329069
23
Frame 300  Energy = -425.8919772919 Hartree
C      -0.01017118      1.04065339      0.22182522
C      -0.36560403      1.09320922      1.70616032
C       0.83538204      0.68505229      2.54900446
C       0.56526297      0.80010680      4.07113453
C       1.83280621      0.66391150      4.92218302
C       1.63926638      1.09413271      6.34241462
O       0.75032603      1.78537814      6.74919660
O       2.61243101      0.60367726      7.14276350
C       2.49029427      0.92187771      8.51318350
H      -0.82115180      1.53890686     -0.35676914
H       0.91382145      1.66478360      0.14109417
H       0.24057068      0.05623805     -0.16390959
H      -1.19476388      0.40852267      1.98212116
H      -0.73131165      2.12987368      1.85322242
H       1.09881883     -0.33401926      2.38203371
H       1.71664046      1.32269128      2.28384129
H       0.13909206      1.84770291      4.21232827
H      -0.18108278      0.12173098      4.49041146
H       2.16609778     -0.35563161      4.95521925
H       2.62746848      1.34580193      4.65018834
H       3.34304546      0.43342165      8.94964977
H       1.56830986      0.49522742      8.93572259
H       2.51402127      1.97204075      8.67412782
