23
Frame 5  Energy = -425.8932246564 Hartree
C      -0.01189226      1.04039418      0.22304889
C      -0.36654443      1.09377209      1.70606203
C       0.83476381      0.68398081      2.54851080
C       0.56798227      0.79952159      4.07307630
C       1.82942213      0.66595973      4.92324475
C       1.64058387      1.09094366      6.34403227
O       0.74847514      1.78720172      6.74827233
O       2.61258397      0.60591095      7.14224131
C       2.49102252      0.92156031      8.51322691
H      -0.81599740      1.53639967     -0.35428077
H       0.91033047      1.65974273      0.14172306
H       0.24662961      0.04822536     -0.16373243
H      -1.18763613      0.39276980      1.98162448
H      -0.72685994      2.12543722      1.85915808
H       1.10062844     -0.33322477      2.38887646
H       1.71218626      1.32991384      2.28776514
H       0.13055178      1.83759756      4.22232908
H      -0.18344712      0.12456286      4.49574674
H       2.16321878     -0.36416959      4.94943443
H       2.62980838      1.34200431      4.64647382
H       3.33566362      0.42946627      8.95093965
H       1.57511085      0.49018358      8.94038216
H       2.51813475      1.98314039      8.66539757
23
Frame 10  Energy = -425.8931369840 Hartree
C      -0.01364257      1.04035404      0.22422545
C      -0.36755134      1.09427988      1.70595623
C       0.83409266      0.68319505      2.54829974
C       0.57063037      0.79939092      4.07508413
C       1.82604658      0.66802683      4.92435187
C       1.64176991      1.08771272      6.34574324
O       0.74668465      1.78893161      6.74743830
O       2.61281990      0.60815198      7.14157636
C       2.49174736      0.92115337      8.51335602
H      -0.80955452      1.53242681     -0.35174207
H       0.90557663      1.65418548      0.14126123
H       0.25171001      0.04042703     -0.16324749
H      -1.17996190      0.37857922      1.97987670
H      -0.72188039      2.11948873      1.86632358
H       1.10338274     -0.33476775      2.39408148
H       1.70564411      1.33589990      2.29233492
H       0.12346171      1.82455594      4.23259978
H      -0.18576004      0.12731650      4.49952018
H       2.16132787     -0.37290279      4.94300616
H       2.63288613      1.33758162      4.64085806
H       3.32934754      0.42550147      8.95371375
H       1.58222446      0.48580139      8.94467426
H       2.52200853      1.99556046      8.65703505
23
Frame 15  Energy = -425.8930976628 Hartree
C      -0.01531493      1.04039090      0.22541595
C      -0.36860368      1.09451327      1.70581158
C       0.83343537      0.68271817      2.54849166
C       0.57311071      0.79968088      4.07703338
C       1.82261133      0.67000741      4.92541597
C       1.64280234      1.08445592      6.34752234
O       0.74488318      1.79060972      6.74662352
O       2.61312328      0.61043657      7.14084149
C       2.49233456      0.92069634      8.51362920
H      -0.80212767      1.52707249     -0.34961688
H       0.89948419      1.64836510      0.13941289
H       0.25588485      0.03363176     -0.16201310
H      -1.17150808      0.36618210      1.97713581
H      -0.71661585      2.11248959      1.87471063
H       1.10686216     -0.33828193      2.39773018
H       1.69765319      1.34053858      2.29694065
H       0.11765522      1.80915347      4.24304978
H      -0.18745029      0.12999731      4.50201963
H       2.16035160     -0.38096204      4.93589848
H       2.63640314      1.33264110      4.63362667
H       3.32449884      0.42151700      8.95780088
H       1.58912143      0.48214873      8.94813383
H       2.52581211      2.00847633      8.64936642
23
Frame 20  Energy = -425.8929214491 Hartree
C      -0.01681801      1.04043667      0.22663223
C      -0.36965669      1.09445962      1.70562270
C       0.83286047      0.68254957      2.54902725
C       0.57540591      0.80026603      4.07889907
C       1.81928307      0.67182361      4.92649366
C       1.64361524      1.08129841      6.34946422
O       0.74320156      1.79227954      6.74582762
O       2.61341261      0.61273024      7.13987966
C       2.49276359      0.92026896      8.51391904
H      -0.79447285      1.52029908     -0.34844048
H       0.89224382      1.64222334      0.13654037
H       0.25884213      0.02826452     -0.15991951
H      -1.16234200      0.35570425      1.97361804
H      -0.71102685      2.10522669      1.88431200
H       1.11078964     -0.34369415      2.39955143
H       1.68839151      1.34408618      2.30203764
H       0.11302028      1.79222739      4.25368591
H      -0.18869157      0.13254039      4.50287668
H       2.15981374     -0.38776872      4.92833592
H       2.63991723      1.32686917      4.62483291
H       3.32124637      0.41740350      8.96300931
H       1.59601199      0.47957264      8.95092116
H       2.52956333      2.02033079      8.64239958
23
Frame 25  Energy = -425.8926616876 Hartree
C      -0.01827219      1.04045441      0.22779221
C      -0.37070741      1.09403421      1.70544145
C       0.83231068      0.68261986      2.54982387
C       0.57756088      0.80112361      4.08068904
C       1.81603252      0.67354065      4.92767993
C       1.64418646      1.07828735      6.35155973
O       0.74161002      1.79402523      6.74495217
O       2.61361813      0.61496310      7.13890812
C       2.49321814      0.92002854      8.51420570
H      -0.78701837      1.51284988     -0.34856935
H       0.88477184      1.63611928      0.13270424
H       0.26053144      0.02433563     -0.15673844
H      -1.15261261      0.34698467      1.96919956
H      -0.70529746      2.09865509      1.89540514
H       1.11545373     -0.35029153      2.39979888
H       1.67816202      1.34663248      2.30695705
H       0.10958241      1.77426527      4.26427810
H      -0.18930973      0.13483187      4.50210883
H       2.15946738     -0.39297832      4.92054491
H       2.64324974      1.31996614      4.61482862
H       3.31992249      0.41348815      8.96913554
H       1.60271167      0.47815073      8.95339018
H       2.53314168      2.03059652      8.63585323
23
Frame 30  Energy = -425.8919581674 Hartree
C      -0.01961076      1.04030390      0.22893264
C      -0.37163993      1.09311448      1.70518113
C       0.83180052      0.68285912      2.55107765
C       0.57957493      0.80219470      4.08238700
C       1.81291160      0.67493929      4.92895893
C       1.64447438      1.07534606      6.35373249
O       0.74015088      1.79565246      6.74406210
O       2.61384896      0.61718231      7.13789295
C       2.49379007      0.92000634      8.51449193
H      -0.78018468      1.50538703     -0.34993399
H       0.87731439      1.63059146      0.12818395
H       0.26052253      0.02209397     -0.15263905
H      -1.14308763      0.34035918      1.96410979
H      -0.70004779      2.09302879      1.90790369
H       1.12065319     -0.35733735      2.39873205
H       1.66733658      1.34825108      2.31186960
H       0.10700878      1.75631359      4.27471533
H      -0.18916604      0.13662559      4.49954182
H       2.15882696     -0.39623692      4.91290080
H       2.64633581      1.31240708      4.60410445
H       3.32012113      0.40962388      8.97632288
H       1.60861248      0.47761804      8.95568897
H       2.53613248      2.03846169      8.62986731
23
Frame 35  Energy = -425.8915983305 Hartree
C      -0.02076475      1.04002765      0.22995888
C      -0.37245189      1.09171449      1.70495834
C       0.83127593      0.68312046      2.55266330
C       0.58153142      0.80344197      4.08399239
C       1.80998170      0.67605273      4.93024003
C       1.64447626      1.07262165      6.35603372
O       0.73886731      1.79720342      6.74317733
O       2.61405077      0.61927283      7.13691487
C       2.49438872      0.92033535      8.51476045
H      -0.77496094      1.49763980     -0.35279449
H       0.87073346      1.62583347      0.12297235
H       0.25898052      0.02143457     -0.14756389
H      -1.13400503      0.33556519      1.95834007
H      -0.69479344      2.08816508      1.92154446
H       1.12635978     -0.36456299      2.39643177
H       1.65657602      1.34897290      2.31705056
H       0.10490123      1.73944353      4.28531244
H      -0.18802388      0.13794644      4.49531093
H       2.15807896     -0.39693064      4.90517087
H       2.64906710      1.30413348      4.59247636
H       3.32159279      0.40664787      8.98411217
H       1.61355186      0.47781249      8.95775318
H       2.53875653      2.04333035      8.62462805
23
Frame 40  Energy = -425.8917299402 Hartree
C      -0.02165782      1.03958814      0.23097441
C      -0.37325890      1.08980412      1.70476153
C       0.83071207      0.68339111      2.55452446
C       0.58337291      0.80470461      4.08552454
C       1.80731784      0.67687844      4.93137139
C       1.64413241      1.07022836      6.35849760
O       0.73776827      1.79862696      6.74223323
O       2.61427441      0.62121905      7.13594597
C       2.49511202      0.92088535      8.51503509
H      -0.77143669      1.49009009     -0.35745095
H       0.86529797      1.62170085      0.11731671
H       0.25602345      0.02262248     -0.14142246
H      -1.12559509      0.33268626      1.95180395
H      -0.69016330      2.08440623      1.93644790
H       1.13169258     -0.37103934      2.39315943
H       1.64628902      1.34933684      2.32214894
H       0.10335092      1.72451805      4.29580866
H      -0.18598823      0.13830096      4.48918334
H       2.15702868     -0.39502654      4.89760948
H       2.65116703      1.29524016      4.57983795
H       3.32402740      0.40471116      8.99210179
H       1.61764917      0.47868076      8.95930149
H       2.54091263      2.04507278      8.62020256
23
Frame 45  Energy = -425.8904911836 Hartree
C      -0.02240179      1.03910626      0.23202111
C      -0.37390241      1.08744592      1.70468975
C       0.83011667      0.68365782      2.55659623
C       0.58509800      0.80597862      4.08691440
C       1.80497380      0.67739464      4.93237922
C       1.64325979      1.06821573      6.36095097
O       0.73682149      1.79995243      6.74121856
O       2.61446001      0.62315578      7.13499099
C       2.49591325      0.92159100      8.51548746
H      -0.77006655      1.48318456     -0.36427248
H       0.86140442      1.61880950      0.11111519
H       0.25214204      0.02545336     -0.13416727
H      -1.11801758      0.33125341      1.94453864
H      -0.68644574      2.08201405      1.95225451
H       1.13678107     -0.37646707      2.38910242
H       1.63678721      1.34990036      2.32704815
H       0.10192537      1.71289562      4.30620481
H      -0.18345175      0.13723617      4.48146513
H       2.15589483     -0.39063404      4.89016459
H       2.65264479      1.28573284      4.56681441
H       3.32704636      0.40353334      9.00000090
H       1.62054193      0.48023782      8.96028400
H       2.54257023      2.04359200      8.61684065
23
Frame 50  Energy = -425.8947041170 Hartree
C      -0.02305852      1.03855166      0.23312156
C      -0.37426705      1.08476099      1.70473507
C       0.82949477      0.68386820      2.55892135
C       0.58668572      0.80712399      4.08809218
C       1.80301608      0.67770682      4.93330203
C       1.64201813      1.06649949      6.36333458
O       0.73600758      1.80116957      6.74015283
O       2.61463789      0.62505661      7.13404724
C       2.49688818      0.92245400      8.51597974
H      -0.77088547      1.47681044     -0.37268097
H       0.85935190      1.61719264      0.10425170
H       0.24717909      0.02954998     -0.12614467
H      -1.11163419      0.33049772      1.93699462
H      -0.68372326      2.08061153      1.96893894
H       1.14164827     -0.38017577      2.38417047
H       1.62860971      1.35063587      2.33128246
H       0.09986407      1.70565429      4.31669734
H      -0.18054384      0.13494119      4.47258198
H       2.15482935     -0.38398058      4.88283871
H       2.65333285      1.27564320      4.55359672
H       3.33040347      0.40357945      9.00793544
H       1.62229662      0.48236211      8.96085408
H       2.54385179      2.03916318      8.61441925
23
Frame 55  Energy = -425.8944848220 Hartree
C      -0.02360845      1.03779189      0.23428962
C      -0.37447514      1.08195730      1.70484483
C       0.82880685      0.68392624      2.56140386
C       0.58815191      0.80824474      4.08913281
C       1.80136720      0.67779287      4.93426545
C       1.64046152      1.06501146      6.36556513
O       0.73536437      1.80221176      6.73905259
O       2.61484440      0.62687214      7.13310571
C       2.49796388      0.92336667      8.51661528
H      -0.77380632      1.47053849     -0.38303072
H       0.85906846      1.61732224      0.09650328
H       0.24128665      0.03445063     -0.11780356
H      -1.10750445      0.33032614      1.92963682
H      -0.68184021      2.07964763      1.98608593
H       1.14581910     -0.38187855      2.37809668
H       1.62258895      1.35191593      2.33510819
H       0.09720167      1.70297732      4.32725225
H      -0.17715842      0.13109212      4.46283548
H       2.15385350     -0.37553791      4.87562405
H       2.65305535      1.26496075      4.54042979
H       3.33394971      0.40516220      9.01487148
H       1.62272722      0.48524870      8.96123287
H       2.54515581      2.03174505      8.61283741
23
Frame 60  Energy = -425.8941238634 Hartree
C      -0.02407607      1.03691168      0.23547709
C      -0.37451081      1.07910749      1.70496695
C       0.82799528      0.68388452      2.56413530
C       0.58931274      0.80927568      4.09005357
C       1.80004949      0.67759404      4.93515026
C       1.63858424      1.06388241      6.36771019
O       0.73487876      1.80311362      6.73795260
O       2.61510306      0.62864944      7.13214197
C       2.49924172      0.92437935      8.51736666
H      -0.77856194      1.46443671     -0.39516005
H       0.86068065      1.61919468      0.08790703
H       0.23445677      0.03941551     -0.10893450
H      -1.10580429      0.32984088      1.92232930
H      -0.68100700      2.07881810      2.00327957
H       1.14960896     -0.38129412      2.37161393
H       1.61890950      1.35391788      2.33868797
H       0.09382480      1.70463345      4.33760003
H      -0.17326852      0.12562819      4.45189325
H       2.15293632     -0.36580997      4.86871805
H       2.65183729      1.25413459      4.52738697
H       3.33737022      0.40818770      9.02097243
H       1.62141255      0.48883559      8.96132464
H       2.54627280      2.02184956      8.61234773
23
Frame 65  Energy = -425.8939379198 Hartree
C      -0.02451923      1.03604540      0.23664822
C      -0.37435637      1.07620712      1.70517782
C       0.82706750      0.68365450      2.56726775
C       0.59022398      0.81023918      4.09090287
C       1.79912835      0.67714499      4.93592399
C       1.63632759      1.06318443      6.36967351
O       0.73451247      1.80392553      6.73686196
O       2.61547154      0.63038779      7.13129671
C       2.50069257      0.92545921      8.51815150
H      -0.78458276      1.45836126     -0.40838716
H       0.86374488      1.62255675      0.07867139
H       0.22683626      0.04385032     -0.09987939
H      -1.10653348      0.32921367      1.91538072
H      -0.68102346      2.07728374      2.02032052
H       1.15289880     -0.37861447      2.36498575
H       1.61766103      1.35704033      2.34133508
H       0.08996641      1.71033872      4.34794937
H      -0.16899823      0.11842543      4.43969414
H       2.15179688     -0.35543148      4.86237031
H       2.64950734      1.24337607      4.51468720
H       3.34014985      0.41240028      9.02607934
H       1.61881361      0.49300632      8.96144086
H       2.54709997      2.01072315      8.61309183
23
Frame 70  Energy = -425.8938902982 Hartree
C      -0.02497918      1.03526723      0.23775856
C      -0.37396205      1.07332661      1.70553228
C       0.82609965      0.68323178      2.57068460
C       0.59085225      0.81107815      4.09157825
C       1.79855799      0.67654079      4.93655575
C       1.63367020      1.06286876      6.37147267
O       0.73430663      1.80458609      6.73583564
O       2.61594592      0.63195709      7.13047440
C       2.50232582      0.92647977      8.51893921
H      -0.79131155      1.45222091     -0.42166859
H       0.86807662      1.62688721      0.06894898
H       0.21900329      0.04714161     -0.09098259
H      -1.10990449      0.32819988      1.90886274
H      -0.68165198      2.07463483      2.03695528
H       1.15525141     -0.37357917      2.35820019
H       1.61845230      1.36132260      2.34311883
H       0.08583479      1.71936043      4.35801677
H      -0.16480212      0.10958625      4.42672702
H       2.15094239     -0.34532927      4.85654658
H       2.64647057      1.23262228      4.50256530
H       3.34242592      0.41786293      9.02989217
H       1.61471550      0.49734610      8.96128632
H       2.54776585      1.99928597      8.61501314
23
Frame 75  Energy = -425.8929464604 Hartree
C      -0.02533907      1.03470646      0.23879174
C      -0.37339045      1.07054320      1.70609429
C       0.82517494      0.68261672      2.57424839
C       0.59117175      0.81189760      4.09203759
C       1.79833271      0.67575346      4.93706716
C       1.63081578      1.06277253      6.37310964
O       0.73417285      1.80516512      6.73488159
O       2.61650246      0.63340170      7.12974340
C       2.50415947      0.92736821      8.51981499
H      -0.79870095      1.44563886     -0.43428307
H       0.87298289      1.63179780      0.05915267
H       0.21118488      0.04863584     -0.08262176
H      -1.11567834      0.32688871      1.90260230
H      -0.68287117      2.07050782      2.05265287
H       1.15690224     -0.36622087      2.35116242
H       1.62105430      1.36642206      2.34387399
H       0.08210038      1.73070703      4.36753478
H      -0.16101740      0.09919366      4.41347825
H       2.15048017     -0.33625147      4.85182121
H       2.64307380      1.22215454      4.49108723
H       3.34422121      0.42442918      9.03230466
H       1.60940233      0.50255138      8.96085930
H       2.54811040      1.98823442      8.61792143
23
Frame 80  Energy = -425.8891861767 Hartree
C      -0.02567336      1.03431957      0.23978289
C      -0.37267417      1.06784565      1.70686939
C       0.82436511      0.68189987      2.57790449
C       0.59113114      0.81268771      4.09228844
C       1.79835662      0.67483155      4.93738897
C       1.62786787      1.06295685      6.37452859
O       0.73413113      1.80562772      6.73401708
O       2.61725569      0.63477285      7.12915414
C       2.50605851      0.92806933      8.52080007
H      -0.80584421      1.43860491     -0.44582511
H       0.87809519      1.63707558      0.04932897
H       0.20370062      0.04785640     -0.07489828
H      -1.12409866      0.32524860      1.89664543
H      -0.68446553      2.06485730      2.06751148
H       1.15820911     -0.35702737      2.34376654
H       1.62520262      1.37157352      2.34373593
H       0.07879276      1.74338949      4.37634055
H      -0.15757566      0.08803264      4.40012150
H       2.15084131     -0.32853946      4.84864148
H       2.63937258      1.21228937      4.48057488
H       3.34564594      0.43188063      9.03371737
H       1.60326637      0.50832172      8.96016637
H       2.54809368      1.97865883      8.62181478
23
Frame 85  Energy = -425.8892014198 Hartree
C      -0.02600679      1.03424312      0.24072432
C      -0.37191729      1.06505842      1.70788369
C       0.82360463      0.68124421      2.58166178
C       0.59074901      0.81354698      4.09240345
C       1.79844284      0.67385880      4.93761387
C       1.62478502      1.06337698      6.37570461
O       0.73412788      1.80596351      6.73319518
O       2.61810566      0.63600313      7.12864223
C       2.50815440      0.92853580      8.52181720
H      -0.81244879      1.43123037     -0.45596411
H       0.88284084      1.64230481      0.03974999
H       0.19698009      0.04459751     -0.06782871
H      -1.13475466      0.32331134      1.89065585
H      -0.68654063      2.05860736      2.08129433
H       1.15921580     -0.34624493      2.33669571
H       1.63017344      1.37639593      2.34313489
H       0.07686701      1.75606529      4.38395233
H      -0.15415297      0.07655543      4.38654610
H       2.15201538     -0.32316580      4.84658219
H       2.63536433      1.20356331      4.47101298
H       3.34672302      0.44004404      9.03415922
H       1.59662469      0.51406317      8.95865551
H       2.54797857      1.97159610      8.62708487
23
Frame 90  Energy = -425.8907509965 Hartree
C      -0.02628798      1.03443128      0.24144812
C      -0.37115674      1.06225226      1.70903320
C       0.82282486      0.68068431      2.58544621
C       0.58999768      0.81455197      4.09243891
C       1.79865035      0.67277197      4.93773716
C       1.62155145      1.06405470      6.37664893
O       0.73414626      1.80627645      6.73244584
O       2.61900920      0.63712368      7.12817721
C       2.51038243      0.92872211      8.52293622
H      -0.81786568      1.42303300     -0.46406040
H       0.88659278      1.64727213      0.03041052
H       0.19059802      0.03910333     -0.06154691
H      -1.14690604      0.32163914      1.88490233
H      -0.68894438      2.05135477      2.09358707
H       1.15990574     -0.33483778      2.33014984
H       1.63558954      1.38076037      2.34178145
H       0.07633887      1.76785896      4.39013202
H      -0.15080594      0.06463309      4.37283963
H       2.15434350     -0.32033082      4.84530143
H       2.63111507      1.19594126      4.46271010
H       3.34746933      0.44875092      9.03385528
H       1.58995285      0.51986929      8.95654408
H       2.54752292      1.96768617      8.63375447
23
Frame 95  Energy = -425.8907209305 Hartree
C      -0.02632633      1.03488521      0.24195585
C      -0.37032846      1.05945539      1.71027347
C       0.82216414      0.68033013      2.58925179
C       0.58885471      0.81570001      4.09237025
C       1.79908571      0.67165671      4.93780299
C       1.61831105      1.06491730      6.37735626
O       0.73422246      1.80657630      6.73179375
O       2.61996587      0.63815008      7.12775874
C       2.51260381      0.92863700      8.52413568
H      -0.82184890      1.41383869     -0.46979961
H       0.88876877      1.65156739      0.02171111
H       0.18487383      0.03137692     -0.05593456
H      -1.15982250      0.32019234      1.87945577
H      -0.69165549      2.04333890      2.10405618
H       1.16057502     -0.32281553      2.32362293
H       1.64059978      1.38419955      2.34016684
H       0.07723504      1.77809329      4.39448441
H      -0.14749876      0.05242203      4.35925944
H       2.15720321     -0.32097586      4.84468738
H       2.62680455      1.18937042      4.45568599
H       3.34873635      0.45767963      9.03303015
H       1.58354681      0.52624029      8.95356066
H       2.54706034      1.96762187      8.64162599
23
Frame 100  Energy = -425.8907171986 Hartree
C      -0.02629240      1.03568660      0.24237067
C      -0.36937995      1.05658891      1.71167378
C       0.82166522      0.68016101      2.59307668
C       0.58723773      0.81701324      4.09218886
C       1.79959673      0.67064368      4.93785905
C       1.61513788      1.06592082      6.37780344
O       0.73429963      1.80690265      6.73113338
O       2.62096508      0.63902459      7.12731596
C       2.51473617      0.92831852      8.52544613
H      -0.82420670      1.40360076     -0.47289770
H       0.88914243      1.65473142      0.01399658
H       0.17996331      0.02213722     -0.05113553
H      -1.17333485      0.31965333      1.87456246
H      -0.69481426      2.03445372      2.11292468
H       1.16128210     -0.31111754      2.31740543
H       1.64517646      1.38661876      2.33847133
H       0.07937334      1.78653974      4.39686950
H      -0.14409991      0.03977232      4.34615702
H       2.16067178     -0.32499789      4.84515546
H       2.62284130      1.18404095      4.44985738
H       3.35043513      0.46635475      9.03155951
H       1.57750036      0.53309788      8.95020612
H       2.54655067      1.97140960      8.65049774
23
Frame 105  Energy = -425.8909385705 Hartree
C      -0.02621264      1.03681650      0.24261621
C      -0.36843941      1.05365358      1.71332418
C       0.82129625      0.68025620      2.59680265
C       0.58510470      0.81844032      4.09200558
C       1.80022823      0.66966704      4.93781186
C       1.61199021      1.06715645      6.37802796
O       0.73437811      1.80720285      6.73054988
O       2.62205209      0.63984759      7.12697192
C       2.51679902      0.92773941      8.52663089
H      -0.82467188      1.39292764     -0.47337494
H       0.88734537      1.65622528      0.00725527
H       0.17596701      0.01205526     -0.04730669
H      -1.18652312      0.32008228      1.87014361
H      -0.69834233      2.02503266      2.12008244
H       1.16238191     -0.30051492      2.31102976
H       1.64906034      1.38799705      2.33687446
H       0.08297646      1.79255643      4.39721996
H      -0.14079161      0.02725450      4.33362489
H       2.16497590     -0.33158538      4.84671058
H       2.61968944      1.17995218      4.44537115
H       3.35221480      0.47446526      9.02989066
H       1.57238174      0.54045045      8.94632166
H       2.54612572      1.97882745      8.66032006
23
Frame 110  Energy = -425.8908326502 Hartree
C      -0.02611271      1.03805328      0.24263201
C      -0.36756522      1.05063723      1.71526341
C       0.82115898      0.68076530      2.60040506
C       0.58252516      0.82004188      4.09185084
C       1.80099939      0.66852607      4.93763986
C       1.60893295      1.06856534      6.37792753
O       0.73443819      1.80750715      6.73009751
O       2.62320260      0.64058992      7.12672068
C       2.51869562      0.92698167      8.52775165
H      -0.82379903      1.38143771     -0.47136300
H       0.88356091      1.65633766      0.00139224
H       0.17304328      0.00173131     -0.04375538
H      -1.19891934      0.32138336      1.86585584
H      -0.70216792      2.01567638      2.12561010
H       1.16434357     -0.29135491      2.30468886
H       1.65187475      1.38779998      2.33569946
H       0.08824540      1.79582714      4.39518658
H      -0.13763146      0.01547830      4.32179755
H       2.16971746     -0.34026156      4.84950843
H       2.61709212      1.17750207      4.44218682
H       3.35465456      0.48178647      9.02816617
H       1.56826456      0.54808127      8.94221050
H       2.54560555      1.98884090      8.67068108
23
Frame 115  Energy = -425.8912484586 Hartree
C      -0.02593126      1.03935862      0.24238215
C      -0.36671048      1.04761137      1.71742337
C       0.82121283      0.68163942      2.60397570
C       0.57955156      0.82181216      4.09170149
C       1.80178967      0.66721672      4.93727870
C       1.60601034      1.07013296      6.37757772
O       0.73438422      1.80789633      6.72971172
O       2.62435021      0.64132646      7.12662132
C       2.52041063      0.92619778      8.52882387
H      -0.82146563      1.36946399     -0.46683992
H       0.87792522      1.65492586     -0.00355424
H       0.17099167     -0.00829746     -0.04038210
H      -1.21038336      0.32374117      1.86185165
H      -0.70663878      2.00593669      2.12951994
H       1.16715252     -0.28407740      2.29839470
H       1.65329296      1.38609795      2.33495117
H       0.09453629      1.79629100      4.39127428
H      -0.13452343      0.00486272      4.31117417
H       2.17441799     -0.34998521      4.85343323
H       2.61533805      1.17684368      4.44032951
H       3.35806342      0.48837324      9.02637809
H       1.56554725      0.55572940      8.93740983
H       2.54500049      2.00035328      8.68140568
23
Frame 120  Energy = -425.8911895727 Hartree
C      -0.02579376      1.04071981      0.24192763
C      -0.36595404      1.04457038      1.71972348
C       0.82145542      0.68292329      2.60742867
C       0.57620661      0.82359447      4.09162572
C       1.80275707      0.66580232      4.93674995
C       1.60342038      1.07168628      6.37696047
O       0.73425355      1.80833873      6.72939332
O       2.62541871      0.64195281      7.12669650
C       2.52190383      0.92558960      8.52992385
H      -0.81805338      1.35742034     -0.46026620
H       0.87071009      1.65198062     -0.00769532
H       0.16973725     -0.01733104     -0.03725573
H      -1.22013872      0.32708209      1.85807071
H      -0.71162945      1.99606243      2.13189120
H       1.17052148     -0.27912145      2.29210183
H       1.65288680      1.38314666      2.33479770
H       0.10149536      1.79398803      4.38582953
H      -0.13120543     -0.00404455      4.30181901
H       2.17887641     -0.36046742      4.85863731
H       2.61436846      1.17815411      4.44020515
H       3.36195703      0.49374860      9.02524552
H       1.56414593      0.56304069      8.93204696
H       2.54418129      2.01238771      8.69234304
23
Frame 125  Energy = -425.8905911036 Hartree
C      -0.02564343      1.04202577      0.24142085
C      -0.36538538      1.04148714      1.72210508
C       0.82182405      0.68463753      2.61065376
C       0.57252190      0.82528385      4.09156162
C       1.80382791      0.66420010      4.93605603
C       1.60114144      1.07314789      6.37599917
O       0.73405123      1.80883396      6.72920469
O       2.62643868      0.64259113      7.12690923
C       2.52327926      0.92519918      8.53090045
H      -0.81388137      1.34519636     -0.45230047
H       0.86230122      1.64763792     -0.01119879
H       0.16901406     -0.02494836     -0.03415354
H      -1.22817929      0.33164298      1.85487743
H      -0.71741699      1.98653093      2.13306648
H       1.17429998     -0.27628484      2.28567202
H       1.65107133      1.37883245      2.33517974
H       0.10883303      1.78954526      4.37943052
H      -0.12802119     -0.01177294      4.29334304
H       2.18272405     -0.37112972      4.86508844
H       2.61419098      1.18118638      4.44178996
H       3.36699110      0.49815622      9.02486685
H       1.56365147      0.57023067      8.92620857
H       2.54353049      2.02396187      8.70320548
23
Frame 130  Energy = -425.8904718603 Hartree
C      -0.02542776      1.04312706      0.24084744
C      -0.36498068      1.03820254      1.72455607
C       0.82236097      0.68675334      2.61369918
C       0.56864830      0.82682610      4.09141890
C       1.80501072      0.66227265      4.93532760
C       1.59921963      1.07465567      6.37470771
O       0.73371989      1.80947109      6.72915519
O       2.62746127      0.64328992      7.12732482
C       2.52453744      0.92506745      8.53182787
H      -0.81020493      1.33349470     -0.44369186
H       0.85326006      1.64251922     -0.01422550
H       0.16877966     -0.03025848     -0.03061897
H      -1.23438940      0.33745940      1.85224312
H      -0.72380155      1.97752796      2.13279105
H       1.17878928     -0.27562477      2.27928693
H       1.64814712      1.37358920      2.33582088
H       0.11572505      1.78355241      4.37191435
H      -0.12505445     -0.01811979      4.28575088
H       2.18570401     -0.38100956      4.87240737
H       2.61530392      1.18574531      4.44490219
H       3.37294733      0.50138198      9.02495744
H       1.56399961      0.57712642      8.92027106
H       2.54294945      2.03369509      8.71339458
23
Frame 135  Energy = -425.8905932049 Hartree
C      -0.02502186      1.04396872      0.24028714
C      -0.36469701      1.03483125      1.72702817
C       0.82309950      0.68914689      2.61647298
C       0.56457295      0.82824122      4.09129597
C       1.80622445      0.66013324      4.93451739
C       1.59765306      1.07621862      6.37317155
O       0.73322196      1.81019559      6.72921924
O       2.62844344      0.64406023      7.12784272
C       2.52563900      0.92529609      8.53266227
H      -0.80761453      1.32260916     -0.43466886
H       0.84415162      1.63676135     -0.01659276
H       0.16889222     -0.03308733     -0.02677374
H      -1.23840678      0.34437350      1.85021010
H      -0.73080736      1.96925747      2.13118049
H       1.18340420     -0.27634664      2.27359790
H       1.64440829      1.36808527      2.33699730
H       0.12200519      1.77667702      4.36359874
H      -0.12190119     -0.02267038      4.27936516
H       2.18761445     -0.38933737      4.88075770
H       2.61711277      1.19212309      4.44920421
H       3.37967914      0.50350958      9.02549498
H       1.56501843      0.58317318      8.91435012
H       2.54251311      2.04092614      8.72316533
23
Frame 140  Energy = -425.8913805334 Hartree
C      -0.02451415      1.04436132      0.23991888
C      -0.36451198      1.03129799      1.72947511
C       0.82412454      0.69173645      2.61892900
C       0.56045875      0.82937661      4.09113691
C       1.80747202      0.65772286      4.93354980
C       1.59642128      1.07778207      6.37138492
O       0.73254941      1.81100243      6.72935777
O       2.62940581      0.64478287      7.12848186
C       2.52657692      0.92597803      8.53342696
H      -0.80656735      1.31293068     -0.42581271
H       0.83559268      1.63130412     -0.01860903
H       0.16950810     -0.03361595     -0.02297551
H      -1.24013252      0.35178934      1.84856715
H      -0.73850461      1.96242863      2.12825973
H       1.18793105     -0.27821256      2.26925375
H       1.64034127      1.36257927      2.33849812
H       0.12743261      1.76928091      4.35450504
H      -0.11891711     -0.02514676      4.27447091
H       2.18841204     -0.39591750      4.89004704
H       2.61937734      1.19998173      4.45507461
H       3.38672522      0.50462329      9.02640294
H       1.56613159      0.58839817      8.90846907
H       2.54213405      2.04549452      8.73228651
23
Frame 145  Energy = -425.8914533568 Hartree
C      -0.02399786      1.04435209      0.23962007
C      -0.36449517      1.02780239      1.73196754
C       0.82530450      0.69448933      2.62104413
C       0.55641345      0.83021483      4.09093420
C       1.80883423      0.65504221      4.93245511
C       1.59550638      1.07932918      6.36932413
O       0.73178198      1.81188688      6.72964632
O       2.63033281      0.64556924      7.12912183
C       2.52743831      0.92706138      8.53409679
H      -0.80770245      1.30437357     -0.41748145
H       0.82817126      1.62656560     -0.02058052
H       0.17071509     -0.03174037     -0.01881394
H      -1.23987198      0.35957026      1.84736785
H      -0.74650480      1.95735348      2.12445820
H       1.19256816     -0.28061453      2.26613111
H       1.63614593      1.35745027      2.34034727
H       0.13155704      1.76263793      4.34522189
H      -0.11631770     -0.02567555      4.27130124
H       2.18798542     -0.40090547      4.89989857
H       2.62192135      1.20910886      4.46265462
H       3.39378231      0.50492754      9.02759132
H       1.56747304      0.59276715      8.90307727
H       2.54175830      2.04691187      8.74035815
23
Frame 150  Energy = -425.8914696107 Hartree
C      -0.02334875      1.04397807      0.23958360
C      -0.36464950      1.02439846      1.73440894
C       0.82659409      0.69728006      2.62287292
C       0.55247725      0.83065214      4.09067142
C       1.81020215      0.65209188      4.93130057
C       1.59502402      1.08086332      6.36698456
O       0.73084979      1.81289332      6.73009210
O       2.63118418      0.64638018      7.12975376
C       2.52828453      0.92853517      8.53464104
H      -0.81108318      1.29712614     -0.41045837
H       0.82232836      1.62294318     -0.02277500
H       0.17237561     -0.02760619     -0.01463662
H      -1.23803386      0.36729238      1.84669032
H      -0.75484628      1.95404071      2.11976030
H       1.19677770     -0.28375738      2.26452039
H       1.63224826      1.35316933      2.34233008
H       0.13375788      1.75786611      4.33633740
H      -0.11385073     -0.02464376      4.26944684
H       2.18664106     -0.40410799      4.90999214
H       2.62470021      1.21928766      4.47171665
H       3.40031572      0.50459438      9.02845229
H       1.56919383      0.59623439      8.89855594
H       2.54159911      2.04518276      8.74721974
23
Frame 155  Energy = -425.8894374108 Hartree
C      -0.02256721      1.04306147      0.23972242
C      -0.36496573      1.02108035      1.73681359
C       0.82797572      0.70004214      2.62444997
C       0.54873318      0.83056802      4.09029488
C       1.81164274      0.64895305      4.93008529
C       1.59504899      1.08246546      6.36433785
O       0.72972704      1.81401799      6.73062401
O       2.63196391      0.64721671      7.13051448
C       2.52914964      0.93042659      8.53514877
H      -0.81729054      1.29119002     -0.40443280
H       0.81855958      1.62051163     -0.02517598
H       0.17464986     -0.02140720     -0.01060979
H      -1.23439110      0.37428711      1.84660874
H      -0.76322884      1.95281978      2.11411857
H       1.20061649     -0.28713259      2.26467402
H       1.62932686      1.35029715      2.34416513
H       0.13376293      1.75563347      4.32834212
H      -0.11267394     -0.02205199      4.26889870
H       2.18424919     -0.40540733      4.92019144
H       2.62755569      1.22983814      4.48165425
H       3.40609216      0.50362926      9.02910683
H       1.57087370      0.59834989      8.89475658
H       2.54205565      2.04032626      8.75285456
23
Frame 160  Energy = -425.8893524044 Hartree
C      -0.02172923      1.04158585      0.24009995
C      -0.36535519      1.01792968      1.73915317
C       0.82939586      0.70265270      2.62569637
C       0.54523142      0.82992829      4.08984088
C       1.81305133      0.64565102      4.92881142
C       1.59546114      1.08405619      6.36147904
O       0.72840293      1.81519897      6.73130047
O       2.63267245      0.64805327      7.13130690
C       2.53003889      0.93255053      8.53570143
H      -0.82626818      1.28696649     -0.39941411
H       0.81736501      1.61985071     -0.02788015
H       0.17791536     -0.01399399     -0.00673817
H      -1.22981632      0.38015392      1.84726556
H      -0.77196703      1.95305794      2.10735908
H       1.20352173     -0.29038947      2.26637416
H       1.62770291      1.34940490      2.34589423
H       0.13158856      1.75647761      4.32149725
H      -0.11269112     -0.01821205      4.26979530
H       2.18092999     -0.40468827      4.93043450
H       2.63045755      1.24048800      4.49239995
H       3.41055981      0.50218969      9.02932509
H       1.57234514      0.59910977      8.89180080
H       2.54287589      2.03242196      8.75708896
23
Frame 165  Energy = -425.8893334985 Hartree
C      -0.02084680      1.03966099      0.24076147
C      -0.36574959      1.01484424      1.74143944
C       0.83079991      0.70503570      2.62667536
C       0.54196216      0.82883874      4.08924218
C       1.81443619      0.64213357      4.92740769
C       1.59627705      1.08559823      6.35855624
O       0.72702724      1.81638316      6.73205731
O       2.63329411      0.64890567      7.13212185
C       2.53101419      0.93498772      8.53622129
H      -0.83740077      1.28437453     -0.39518161
H       0.81836588      1.62119776     -0.03070119
H       0.18201460     -0.00637384     -0.00326466
H      -1.22493506      0.38434151      1.84892467
H      -0.78077342      1.95445386      2.10000587
H       1.20585145     -0.29288817      2.26994560
H       1.62777957      1.35040390      2.34730606
H       0.12708601      1.76087160      4.31539667
H      -0.11411897     -0.01369279      4.27256649
H       2.17666572     -0.40241772      4.94075949
H       2.63281317      1.25090080      4.50409076
H       3.41376379      0.50011378      9.02850945
H       1.57365841      0.59836325      8.88956925
H       2.54404042      2.02247602      8.76028737
23
Frame 170  Energy = -425.8894564405 Hartree
C      -0.01995691      1.03745602      0.24168539
C      -0.36618610      1.01198399      1.74362218
C       0.83221278      0.70716737      2.62735131
C       0.53896087      0.82741247      4.08851426
C       1.81574942      0.63862112      4.92605417
C       1.59739259      1.08703959      6.35556905
O       0.72553808      1.81754768      6.73289438
O       2.63377439      0.64972905      7.13298577
C       2.53203202      0.93762377      8.53662391
H      -0.85060870      1.28297377     -0.39142710
H       0.82110794      1.62438131     -0.03326685
H       0.18721026      0.00099435     -0.00040713
H      -1.22029872      0.38619973      1.85120781
H      -0.78915228      1.95674592      2.09178693
H       1.20704031     -0.29425930      2.27557572
H       1.62931053      1.35359439      2.34822968
H       0.12072148      1.76860375      4.31012198
H      -0.11674029     -0.00865118      4.27717103
H       2.17184778     -0.39889605      4.95078206
H       2.63456446      1.26065480      4.51633647
H       3.41566106      0.49772338      9.02685118
H       1.57483239      0.59635133      8.88796343
H       2.54545449      2.01118179      8.76234219
23
Frame 175  Energy = -425.8890234313 Hartree
C      -0.01915654      1.03496955      0.24275243
C      -0.36660103      1.00937948      1.74571158
C       0.83364041      0.70908792      2.62763100
C       0.53626559      0.82579255      4.08770379
C       1.81705128      0.63517472      4.92481591
C       1.59883656      1.08845105      6.35254313
O       0.72397927      1.81871608      6.73384360
O       2.63429130      0.65055955      7.13387412
C       2.53310521      0.94029053      8.53691688
H      -0.86505851      1.28266620     -0.38815280
H       0.82564519      1.62903027     -0.03578253
H       0.19329728      0.00833340      0.00138619
H      -1.21618042      0.38527783      1.85433074
H      -0.79698242      1.96006543      2.08288339
H       1.20776389     -0.29458946      2.28319430
H       1.63263744      1.35859758      2.34865812
H       0.11292782      1.77852638      4.30533131
H      -0.12087896     -0.00302085      4.28373527
H       2.16672287     -0.39454912      4.96033657
H       2.63576192      1.26963595      4.52925831
H       3.41610863      0.49516098      9.02430409
H       1.57555179      0.59308006      8.88740237
H       2.54705077      1.99943171      8.76357872
23
Frame 180  Energy = -425.8886211393 Hartree
C      -0.01849702      1.03239339      0.24402020
C      -0.36701743      1.00710782      1.74764850
C       0.83490820      0.71072862      2.62755679
C       0.53383479      0.82396024      4.08687441
C       1.81831255      0.63180756      4.92362085
C       1.60052391      1.08993471      6.34946628
O       0.72247768      1.81986880      6.73479309
O       2.63481146      0.65141068      7.13483508
C       2.53414988      0.94289269      8.53719332
H      -0.87998675      1.28322424     -0.38486308
H       0.83107306      1.63501268     -0.03787272
H       0.20042557      0.01504586      0.00208495
H      -1.21305415      0.38131808      1.85833558
H      -0.80411766      1.96420867      2.07307083
H       1.20792001     -0.29348312      2.29237657
H       1.63773923      1.36525606      2.34896586
H       0.10410908      1.78948622      4.30114414
H      -0.12669197      0.00255727      4.29224803
H       2.16172461     -0.39007403      4.96932187
H       2.63621337      1.27804804      4.54316062
H       3.41494104      0.49242213      9.02074285
H       1.57615165      0.58854992      8.88791683
H       2.54902215      1.98829122      8.76394672
23
Frame 185  Energy = -425.8883364642 Hartree
C      -0.01802829      1.02980560      0.24538134
C      -0.36732856      1.00525560      1.74948477
C       0.83608734      0.71209027      2.62719757
C       0.53169418      0.82202062      4.08596535
C       1.81956960      0.62860215      4.92242887
C       1.60248396      1.09141622      6.34638133
O       0.72097625      1.82099860      6.73570137
O       2.63523270      0.65238775      7.13586619
C       2.53528640      0.94538617      8.53740726
H      -0.89479635      1.28470292     -0.38095289
H       0.83644477      1.64172869     -0.03975463
H       0.20859868      0.02040316      0.00133443
H      -1.21103224      0.37468048      1.86353576
H      -0.81029301      1.96868067      2.06280120
H       1.20743239     -0.29135077      2.30322389
H       1.64408627      1.37333101      2.34890199
H       0.09469709      1.80062348      4.29760901
H      -0.13388638      0.00790984      4.30202083
H       2.15695729     -0.38634281      4.97792630
H       2.63545727      1.28538252      4.55761996
H       3.41217420      0.48943824      9.01696928
H       1.57673269      0.58241315      8.88934574
H       2.55140285      1.97830321      8.76388239
23
Frame 190  Energy = -425.8992162985 Hartree
C      -0.01768201      1.02727440      0.24678433
C      -0.36754766      1.00383999      1.75118260
C       0.83737162      0.71325978      2.62661548
C       0.52976693      0.82005027      4.08503831
C       1.82070259      0.62571341      4.92129432
C       1.60460139      1.09303929      6.34339904
O       0.71942220      1.82201008      6.73654368
O       2.63561447      0.65350697      7.13685905
C       2.53651439      0.94757603      8.53755179
H      -0.90865135      1.28663612     -0.37593280
H       0.84123661      1.64884893     -0.04087900
H       0.21754422      0.02388402     -0.00089934
H      -1.21032120      0.36536420      1.86984979
H      -0.81523420      1.97317459      2.05205639
H       1.20646851     -0.28869210      2.31524984
H       1.65094899      1.38227613      2.34889487
H       0.08524519      1.81069240      4.29415528
H      -0.14256441      0.01288879      4.31299306
H       2.15256875     -0.38378931      4.98585862
H       2.63356294      1.29154379      4.57219342
H       3.40817473      0.48631326      9.01252874
H       1.57767103      0.57536810      8.89179571
H       2.55374770      1.97099992      8.76346691
23
Frame 195  Energy = -425.8999420157 Hartree
C      -0.01747657      1.02487403      0.24818403
C      -0.36792760      1.00286808      1.75267049
C       0.83872757      0.71437585      2.62587598
C       0.52799000      0.81815192      4.08419186
C       1.82154361      0.62317681      4.92036289
C       1.60677206      1.09475963      6.34063759
O       0.71788343      1.82293469      6.73732633
O       2.63601733      0.65468799      7.13781688
C       2.53775126      0.94942241      8.53773894
H      -0.92064819      1.28907157     -0.36983069
H       0.84513572      1.65579621     -0.04113107
H       0.22716909      0.02526869     -0.00416645
H      -1.21053751      0.35394489      1.87713821
H      -0.81892467      1.97680190      2.04100654
H       1.20530736     -0.28576004      2.32841812
H       1.65799151      1.39189423      2.34930464
H       0.07613511      1.81895414      4.29078747
H      -0.15303353      0.01764842      4.32501936
H       2.14876993     -0.38281314      4.99312785
H       2.63078545      1.29677347      4.58632885
H       3.40306797      0.48293958      9.00740223
H       1.57904911      0.56779540      8.89535431
H       2.55619205      1.96750921      8.76272873
23
Frame 200  Energy = -425.9002029298 Hartree
C      -0.01733867      1.02258239      0.24947850
C      -0.36846448      1.00238672      1.75391323
C       0.84014068      0.71541127      2.62488698
C       0.52632870      0.81641406      4.08328015
C       1.82217633      0.62106635      4.91967128
C       1.60899572      1.09656926      6.33804942
O       0.71652365      1.82368791      6.73809769
O       2.63639751      0.65595436      7.13870776
C       2.53890209      0.95095229      8.53787796
H      -0.93012713      1.29156091     -0.36214668
H       0.84761395      1.66233217     -0.04048773
H       0.23756124      0.02438382     -0.00884388
H      -1.21101238      0.34086335      1.88475943
H      -0.82099501      1.97917739      2.02987020
H       1.20383813     -0.28247936      2.34236117
H       1.66451119      1.40162304      2.35020450
H       0.06776024      1.82446613      4.28721317
H      -0.16491320      0.02255824      4.33796729
H       2.14616240     -0.38365760      4.99945128
H       2.62742007      1.30089439      4.59967326
H       3.39731620      0.47877579      9.00207891
H       1.58135123      0.56010135      8.89964534
H       2.55890808      1.96838692      8.76141637
23
Frame 205  Energy = -425.8993410014 Hartree
C      -0.01736950      1.02050992      0.25072765
C      -0.36905382      1.00231703      1.75491000
C       0.84173906      0.71651320      2.62358367
C       0.52478818      0.81481271      4.08242709
C       1.82262530      0.61933654      4.91915976
C       1.61126242      1.09849210      6.33564730
O       0.71536933      1.82429032      6.73878346
O       2.63662268      0.65736591      7.13944829
C       2.53988535      0.95212032      8.53799637
H      -0.93673630      1.29408329     -0.35308497
H       0.84836448      1.66833686     -0.03866242
H       0.24894001      0.02119463     -0.01483610
H      -1.21120188      0.32672834      1.89290458
H      -0.82191249      1.98017386      2.01859617
H       1.20245595     -0.27923235      2.35689521
H       1.67005063      1.41061352      2.35177350
H       0.06092712      1.82681008      4.28380043
H      -0.17758000      0.02754168      4.35177892
H       2.14452412     -0.38675309      5.00474072
H       2.62391076      1.30393835      4.61232908
H       3.39183803      0.47400004      8.99715866
H       1.58474901      0.55245275      8.90445949
H       2.56178262      1.97374493      8.75971688
23
Frame 210  Energy = -425.8991162566 Hartree
C      -0.01756275      1.01856549      0.25190094
C      -0.36975398      1.00249638      1.75576094
C       0.84339189      0.71762788      2.62209709
C       0.52343207      0.81338899      4.08169799
C       1.82279059      0.61799972      4.91869245
C       1.61348637      1.10058416      6.33346220
O       0.71437432      1.82466738      6.73941856
O       2.63668414      0.65882624      7.14003850
C       2.54069168      0.95296623      8.53802878
H      -0.94046643      1.29640670     -0.34273304
H       0.84732485      1.67387292     -0.03590035
H       0.26076326      0.01626508     -0.02168699
H      -1.21044794      0.31152450      1.90188799
H      -0.82150380      1.98011257      2.00732870
H       1.20145826     -0.27637371      2.37199903
H       1.67409046      1.41852209      2.35394700
H       0.05601279      1.82605745      4.28058267
H      -0.19059648      0.03281630      4.36614714
H       2.14420247     -0.39178052      5.00875711
H       2.62035167      1.30580491      4.62394465
H       3.38647331      0.46863750      8.99272410
H       1.58914280      0.54497289      8.90965127
H       2.56494437      1.98335109      8.75772559
23
Frame 215  Energy = -425.8998355026 Hartree
C      -0.01794065      1.01677729      0.25298887
C      -0.37060103      1.00295104      1.75646504
C       0.84513806      0.71867095      2.62046064
C       0.52215720      0.81212020      4.08116462
C       1.82272085      0.61699576      4.91842298
C       1.61561317      1.10282331      6.33153406
O       0.71360100      1.82492351      6.74001644
O       2.63658798      0.66032602      7.14047671
C       2.54132053      0.95355021      8.53800464
H      -0.94116477      1.29833226     -0.33111085
H       0.84435414      1.67871492     -0.03217638
H       0.27248459      0.01039675     -0.02928163
H      -1.20863866      0.29554006      1.91132703
H      -0.81942773      1.97871032      1.99617749
H       1.20079281     -0.27435746      2.38725222
H       1.67666308      1.42485999      2.35666291
H       0.05283318      1.82213782      4.27737276
H      -0.20356679      0.03863276      4.38049196
H       2.14490403     -0.39867361      5.01159454
H       2.61703459      1.30680907      4.63402886
H       3.38137962      0.46276112      8.98847223
H       1.59455217      0.53815177      8.91481116
H       2.56821625      1.99629024      8.75545649
23
Frame 220  Energy = -425.8999901955 Hartree
C      -0.01845244      1.01504890      0.25397236
C      -0.37154247      1.00357391      1.75704302
C       0.84690745      0.71970362      2.61871757
C       0.52095051      0.81106690      4.08086462
C       1.82235107      0.61615980      4.91830205
C       1.61759677      1.10507552      6.32990309
O       0.71305305      1.82501238      6.74060978
O       2.63640698      0.66190704      7.14075888
C       2.54177450      0.95384442      8.53792701
H      -0.93926459      1.29990289     -0.31863110
H       0.83911944      1.68270427     -0.02750318
H       0.28402326      0.00433274     -0.03719818
H      -1.20559951      0.27948166      1.92086307
H      -0.81612163      1.97596138      1.98522380
H       1.20064924     -0.27362248      2.40192287
H       1.67748911      1.42982494      2.36004339
H       0.05147801      1.81536306      4.27451559
H      -0.21621860      0.04540526      4.39444669
H       2.14666651     -0.40705450      5.01312278
H       2.61390576      1.30713631      4.64256003
H       3.37677629      0.45620015      8.98450970
H       1.60071062      0.53185962      8.92018008
H       2.57128484      2.01115459      8.75287909
23
Frame 225  Energy = -425.8960096923 Hartree
C      -0.01901989      1.01344751      0.25485860
C      -0.37262482      1.00426070      1.75746596
C       0.84858898      0.72090865      2.61690416
C       0.51973015      0.81005200      4.08079180
C       1.82164589      0.61552340      4.91837873
C       1.61935402      1.10744413      6.32852748
O       0.71277582      1.82487768      6.74118676
O       2.63611027      0.66355178      7.14085285
C       2.54209796      0.95399207      8.53777906
H      -0.93527364      1.30103058     -0.30570866
H       0.83152366      1.68575433     -0.02163441
H       0.29467765     -0.00140003     -0.04555221
H      -1.20066206      0.26419529      1.93061044
H      -0.81182691      1.97226276      1.97497586
H       1.20142447     -0.27447087      2.41597383
H       1.67628776      1.43337913      2.36390562
H       0.05202755      1.80617528      4.27179790
H      -0.22815675      0.05294358      4.40796558
H       2.14928937     -0.41580971      5.01323371
H       2.61134801      1.30651908      4.64938469
H       3.37323464      0.44893879      8.98115972
H       1.60789453      0.52624511      8.92552535
H       2.57397081      2.02689894      8.74984705
23
Frame 230  Energy = -425.8959127643 Hartree
C      -0.01951183      1.01178378      0.25565109
C      -0.37386902      1.00487750      1.75776690
C       0.85022834      0.72227925      2.61512752
C       0.51861806      0.80909603      4.08092716
C       1.82069271      0.61504820      4.91863135
C       1.62091934      1.10992708      6.32739190
O       0.71276743      1.82459400      6.74165750
O       2.63572189      0.66518610      7.14084959
C       2.54234206      0.95414585      8.53760439
H      -0.92967199      1.30124281     -0.29266737
H       0.82158562      1.68780626     -0.01486084
H       0.30471852     -0.00595240     -0.05367678
H      -1.19338307      0.25043248      1.94031366
H      -0.80717633      1.96879794      1.96531643
H       1.20300846     -0.27672013      2.42939074
H       1.67320852      1.43583637      2.36838453
H       0.05400056      1.79537714      4.26935004
H      -0.23931883      0.06171225      4.42080333
H       2.15256163     -0.42440090      5.01191425
H       2.60985923      1.30517013      4.65420151
H       3.37080386      0.44116893      8.97834034
H       1.61600548      0.52121795      8.93130416
H       2.57664096      2.04174762      8.74664193
23
Frame 235  Energy = -425.8958547045 Hartree
C      -0.01993304      1.01009209      0.25644743
C      -0.37528909      1.00545245      1.75791859
C       0.85189231      0.72377787      2.61348923
C       0.51759180      0.80809691      4.08119353
C       1.81949932      0.61468759      4.91918399
C       1.62220274      1.11245636      6.32663091
O       0.71301668      1.82418898      6.74199545
O       2.63520107      0.66686550      7.14083192
C       2.54244157      0.95436581      8.53755143
H      -0.92277734      1.30107028     -0.27968295
H       0.80994292      1.68915013     -0.00701333
H       0.31405890     -0.00892848     -0.06118318
H      -1.18364767      0.23833592      1.94991524
H      -0.80270033      1.96609478      1.95679742
H       1.20547574     -0.28002072      2.44197077
H       1.66846700      1.43700934      2.37306299
H       0.05680944      1.78356906      4.26769932
H      -0.24899636      0.07143479      4.43305666
H       2.15611699     -0.43211202      5.00909271
H       2.60955765      1.30309552      4.65645023
H       3.36937620      0.43339168      8.97601405
H       1.62438128      0.51696623      8.93736795
H       2.57926516      2.05492970      8.74293362
23
Frame 240  Energy = -425.8985338071 Hartree
C      -0.02028716      1.00817805      0.25725925
C      -0.37667734      1.00589916      1.75788789
C       0.85340674      0.72539744      2.61197118
C       0.51666542      0.80705130      4.08170640
C       1.81802067      0.61436479      4.91999204
C       1.62325598      1.11506414      6.32622986
O       0.71354771      1.82365113      6.74209499
O       2.63463280      0.66858743      7.14069019
C       2.54229803      0.95473036      8.53762303
H      -0.91526914      1.30101738     -0.26743038
H       0.79739908      1.69012444      0.00132890
H       0.32267034     -0.00987608     -0.06822271
H      -1.17179898      0.22830337      1.95918670
H      -0.79887944      1.96450224      1.94951950
H       1.20852094     -0.28417122      2.45351396
H       1.66234788      1.43737028      2.37750336
H       0.06043203      1.77174499      4.26672020
H      -0.25653256      0.08203255      4.44409507
H       2.15944015     -0.43847209      5.00535420
H       2.61028861      1.30016535      4.65642310
H       3.36901340      0.42574715      8.97407718
H       1.63308456      0.51361680      8.94343812
H       2.58192862      2.06580522      8.73876140
23
Frame 245  Energy = -425.8972483103 Hartree
C      -0.02056542      1.00594079      0.25802514
C      -0.37799256      1.00617887      1.75777992
C       0.85468840      0.72713883      2.61051582
C       0.51574236      0.80595181      4.08238717
C       1.81629145      0.61401761      4.92089765
C       1.62405221      1.11779624      6.32628945
O       0.71430205      1.82299904      6.74205865
O       2.63393429      0.67030399      7.14041143
C       2.54206685      0.95530318      8.53772682
H      -0.90794840      1.30096701     -0.25636322
H       0.78457306      1.69100999      0.01029695
H       0.32996311     -0.00845586     -0.07504601
H      -1.15800977      0.22018243      1.96783107
H      -0.79554382      1.96440598      1.94371995
H       1.21226364     -0.28874707      2.46398067
H       1.65536689      1.43703628      2.38178242
H       0.06489943      1.76053317      4.26653337
H      -0.26195020      0.09321864      4.45376142
H       2.16201821     -0.44297691      5.00061525
H       2.61203989      1.29660361      4.65428864
H       3.36946477      0.41830102      8.97259362
H       1.64160282      0.51118217      8.94949706
H       2.58465025      2.07383405      8.73416360
23
Frame 250  Energy = -425.8974576057 Hartree
C      -0.02074697      1.00342761      0.25885597
C      -0.37926634      1.00612124      1.75753844
C       0.85568832      0.72872327      2.60923865
C       0.51491589      0.80465266      4.08315554
C       1.81433147      0.61369568      4.92193198
C       1.62470583      1.12057352      6.32673695
O       0.71526227      1.82224299      6.74193690
O       2.63319302      0.67210830      7.13990254
C       2.54177717      0.95602299      8.53776053
H      -0.90155000      1.30083724     -0.24729635
H       0.77135343      1.69210179      0.01966286
H       0.33603294     -0.00528623     -0.08159574
H      -1.14263089      0.21430153      1.97577659
H      -0.79276953      1.96618175      1.93940765
H       1.21647285     -0.29294380      2.47343607
H       1.64784149      1.43617304      2.38588949
H       0.06979041      1.75114178      4.26682713
H      -0.26537556      0.10483370      4.46197097
H       2.16441740     -0.44533923      4.99472894
H       2.61470150      1.29259801      4.64993878
H       3.37068205      0.41146179      8.97140866
H       1.64919822      0.50933021      8.95553347
H       2.58730064      2.07843059      8.72903763
23
Frame 255  Energy = -425.8975526281 Hartree
C      -0.02089129      1.00062690      0.25979211
C      -0.38039543      1.00572613      1.75712427
C       0.85652672      0.73004524      2.60816775
C       0.51421782      0.80318524      4.08405802
C       1.81213190      0.61347270      4.92315708
C       1.62528022      1.12329340      6.32753227
O       0.71642967      1.82146731      6.74169826
O       2.63241774      0.67397706      7.13926754
C       2.54153452      0.95696154      8.53772795
H      -0.89681332      1.30128970     -0.24088652
H       0.75866535      1.69393121      0.02936804
H       0.34067584     -0.00020906     -0.08744969
H      -1.12586154      0.21044217      1.98306816
H      -0.79102062      1.96949195      1.93646456
H       1.22113763     -0.29665805      2.48120049
H       1.64047483      1.43547693      2.38950971
H       0.07486082      1.74432129      4.26788160
H      -0.26699773      0.11638898      4.46851393
H       2.16628630     -0.44551497      4.98769882
H       2.61841296      1.28777582      4.64346164
H       3.37263290      0.40562443      8.97020935
H       1.65584522      0.50781324      8.96157274
H       2.58959455      2.07924299      8.72354313
23
Frame 260  Energy = -425.8976674042 Hartree
C      -0.02097235      0.99747414      0.26076264
C      -0.38130262      1.00495588      1.75661834
C       0.85720910      0.73111851      2.60722337
C       0.51374347      0.80157848      4.08505926
C       1.80976273      0.61324765      4.92456712
C       1.62569299      1.12596653      6.32866736
O       0.71774998      1.82061227      6.74140582
O       2.63162932      0.67589602      7.13863548
C       2.54138244      0.95808252      8.53770935
H      -0.89435681      1.30204615     -0.23721005
H       0.74714216      1.69706475      0.03884565
H       0.34402849      0.00683224     -0.09265031
H      -1.10816356      0.20806674      1.98945799
H      -0.79023283      1.97420916      1.93494648
H       1.22600931     -0.29964993      2.48731522
H       1.63416496      1.43514774      2.39274698
H       0.07931281      1.74070474      4.27002225
H      -0.26757618      0.12784957      4.47317308
H       2.16779686     -0.44333169      4.97991055
H       2.62309750      1.28201720      4.63502726
H       3.37506156      0.40069138      8.96887096
H       1.66142564      0.50670665      8.96766072
H       2.59181257      2.07628378      8.71794781
23
Frame 265  Energy = -425.8976418302 Hartree
C      -0.02095947      0.99403523      0.26192806
C      -0.38203844      1.00401899      1.75593924
C       0.85773519      0.73198784      2.60656502
C       0.51345413      0.79992778      4.08620327
C       1.80717339      0.61308358      4.92619658
C       1.62593967      1.12856119      6.33006328
O       0.71915676      1.81974001      6.74104622
O       2.63075959      0.67786059      7.13797233
C       2.54132598      0.95934455      8.53773666
H      -0.89440952      1.30304773     -0.23608785
H       0.73758139      1.70204884      0.04846631
H       0.34621203      0.01562723     -0.09728162
H      -1.09045866      0.20690253      1.99529875
H      -0.79032087      1.98026754      1.93473623
H       1.23097587     -0.30167866      2.49168113
H       1.62916438      1.43570570      2.39469661
H       0.08302272      1.74073305      4.27317371
H      -0.26708826      0.13892840      4.47618138
H       2.16880787     -0.43910689      4.97121953
H       2.62783836      1.27563872      4.62465697
H       3.37789391      0.39717271      8.96737702
H       1.66518855      0.50608951      8.97370307
H       2.59377422      2.06953449      8.71208094
23
Frame 270  Energy = -425.8978488377 Hartree
C      -0.02095251      0.99033854      0.26327195
C      -0.38253127      1.00295560      1.75506476
C       0.85810708      0.73259178      2.60617961
C       0.51342554      0.79822645      4.08744097
C       1.80444077      0.61299083      4.92800125
C       1.62612448      1.13098814      6.33170822
O       0.72076917      1.81882333      6.74065990
O       2.62981349      0.67988395      7.13724261
C       2.54138770      0.96076760      8.53786620
H      -0.89679537      1.30387831     -0.23774778
H       0.73031658      1.70878529      0.05786002
H       0.34737419      0.02564035     -0.10160051
H      -1.07352951      0.20678115      2.00082028
H      -0.79101726      1.98709443      1.93605158
H       1.23579322     -0.30265939      2.49423580
H       1.62556087      1.43713895      2.39569474
H       0.08663268      1.74451999      4.27728528
H      -0.26598517      0.14900937      4.47760557
H       2.16926328     -0.43260334      4.96222724
H       2.63191601      1.26851799      4.61303688
H       3.38097223      0.39516784      8.96557965
H       1.66768341      0.50612535      8.97993737
H       2.59545174      2.05971146      8.70598922
23
Frame 275  Energy = -425.8905857898 Hartree
C      -0.02098847      0.98648707      0.26477247
C      -0.38266782      1.00178762      1.75404068
C       0.85824756      0.73296721      2.60602956
C       0.51362706      0.79652213      4.08875257
C       1.80166375      0.61303147      4.92983269
C       1.62624972      1.13332898      6.33355853
O       0.72242910      1.81783913      6.74020292
O       2.62880900      0.68201564      7.13646445
C       2.54169584      0.96218394      8.53807525
H      -0.90119629      1.30499904     -0.24212920
H       0.72534877      1.71733903      0.06702669
H       0.34783704      0.03577595     -0.10568784
H      -1.05815865      0.20729607      2.00583511
H      -0.79233757      1.99366200      1.93903920
H       1.24054103     -0.30269291      2.49480934
H       1.62372967      1.43982488      2.39592809
H       0.09041445      1.75171135      4.28240413
H      -0.26444182      0.15763497      4.47772967
H       2.16916119     -0.42410837      4.95245335
H       2.63547120      1.26064611      4.59991250
H       3.38402890      0.39472280      8.96402270
H       1.66874377      0.50687510      8.98602575
H       2.59718230      2.04769545      8.69997335
23
Frame 280  Energy = -425.8904220677 Hartree
C      -0.02119158      0.98255159      0.26637380
C      -0.38241369      1.00063478      1.75284811
C       0.85817225      0.73313047      2.60602659
C       0.51417141      0.79490266      4.09014279
C       1.79890489      0.61320442      4.93170600
C       1.62628802      1.13554515      6.33558652
O       0.72410792      1.81676836      6.73977826
O       2.62777788      0.68424598      7.13573080
C       2.54205503      0.96365356      8.53835718
H      -0.90701937      1.30569674     -0.24875266
H       0.72214692      1.72731109      0.07578918
H       0.34784473      0.04521635     -0.10948531
H      -1.04481885      0.20754058      2.01086726
H      -0.79405528      1.99984572      1.94312354
H       1.24564594     -0.30117877      2.49356019
H       1.62372886      1.44387537      2.39546680
H       0.09445298      1.76149873      4.28802478
H      -0.26323264      0.16440593      4.47642051
H       2.16859348     -0.41451557      4.94254617
H       2.63829632      1.25164626      4.58563978
H       3.38676497      0.39619522      8.96234529
H       1.66888024      0.50828158      8.99175568
H       2.59895212      2.03432841      8.69442069
23
Frame 285  Energy = -425.8907637551 Hartree
C      -0.02148667      0.97872311      0.26800879
C      -0.38187113      0.99956556      1.75156598
C       0.85782179      0.73303129      2.60622137
C       0.51499930      0.79343724      4.09162424
C       1.79614967      0.61353613      4.93360195
C       1.62633134      1.13756220      6.33783401
O       0.72577990      1.81574584      6.73941158
O       2.62673721      0.68646861      7.13487850
C       2.54253370      0.96504229      8.53869718
H      -0.91356926      1.30578616     -0.25710286
H       0.72045866      1.73859862      0.08442470
H       0.34758183      0.05357858     -0.11296489
H      -1.03402934      0.20719497      2.01575582
H      -0.79604542      2.00510245      1.94830293
H       1.25052966     -0.29796171      2.49080574
H       1.62556395      1.44894492      2.39439149
H       0.09879654      1.77297817      4.29389454
H      -0.26256953      0.16898275      4.47434776
H       2.16737473     -0.40448699      4.93272325
H       2.63999517      1.24138804      4.57065370
H       3.38961097      0.39933422      8.96066365
H       1.66794272      0.51049838      8.99725827
H       2.60047410      2.02097256      8.68966146
23
Frame 290  Energy = -425.8907909582 Hartree
C      -0.02188799      0.97517035      0.26979930
C      -0.38099947      0.99857582      1.75019273
C       0.85733451      0.73267309      2.60658926
C       0.51598497      0.79233270      4.09314591
C       1.79341416      0.61399757      4.93545863
C       1.62644753      1.13925874      6.34011773
O       0.72738483      1.81483198      6.73911795
O       2.62559319      0.68868147      7.13397083
C       2.54305276      0.96612406      8.53920333
H      -0.92012163      1.30549170     -0.26677432
H       0.71976378      1.75034491      0.09273505
H       0.34700312      0.06017524     -0.11657593
H      -1.02626291      0.20601609      2.02060750
H      -0.79807150      2.00901337      1.95428181
H       1.25517054     -0.29321721      2.48650850
H       1.62807205      1.45486258      2.39269879
H       0.10367129      1.78515155      4.30001217
H      -0.26270608      0.17093311      4.47177463
H       2.16579901     -0.39490914      4.92312344
H       2.64029109      1.23027240      4.55501184
H       3.39242614      0.40428337      8.95874676
H       1.66626642      0.51396275      9.00216347
H       2.60209963      2.00897178      8.68581762
23
Frame 295  Energy = -425.8909939411 Hartree
C      -0.02247558      0.97197405      0.27175101
C      -0.37988563      0.99770941      1.74881242
C       0.85669121      0.73216010      2.60711197
C       0.51720234      0.79164322      4.09474732
C       1.79074027      0.61475351      4.93722647
C       1.62672962      1.14063178      6.34240869
O       0.72891429      1.81407239      6.73886159
O       2.62444674      0.69085529      7.13311931
C       2.54366813      0.96677636      8.53977164
H      -0.92614401      1.30465722     -0.27718194
H       0.71908589      1.76207849      0.10078019
H       0.34674069      0.06440573     -0.12079944
H      -1.02112521      0.20382004      2.02540205
H      -0.80013168      2.01107160      1.96061820
H       1.25957848     -0.28702325      2.48119247
H       1.63121225      1.46113736      2.39080344
H       0.10956760      1.79707762      4.30600911
H      -0.26346673      0.17016663      4.46897152
H       2.16449587     -0.38678605      4.91364619
H       2.63900797      1.21868430      4.53890813
H       3.39481575      0.41084154      8.95658825
H       1.66385969      0.51823741      9.00655538
H       2.60421381      1.99939662      8.68296797
23
Frame 300  Energy = -425.8909739807 Hartree
C      -0.02337705      0.96918516      0.27369149
C      -0.37849498      0.99691792      1.74738456
C       0.85592072      0.73138823      2.60784878
C       0.51877888      0.79137303      4.09639296
C       1.78812777      0.61577264      4.93891458
C       1.62716340      1.14165183      6.34462636
O       0.73027600      1.81350793      6.73863217
O       2.62335924      0.69298385      7.13227319
C       2.54441658      0.96692091      8.54032825
H      -0.93081169      1.30306771     -0.28776171
H       0.71842283      1.77360560      0.10876133
H       0.34694545      0.06561426     -0.12546387
H      -1.01892114      0.20042799      2.03029399
H      -0.80209496      2.01098265      1.96718690
H       1.26407876     -0.27979823      2.47404903
H       1.63459758      1.46716864      2.38829451
H       0.11662353      1.80843759      4.31188526
H      -0.26529895      0.16683989      4.46574377
H       2.16338255     -0.38019692      4.90449348
H       2.63652650      1.20679687      4.52295070
H       3.39662880      0.41845109      8.95413579
H       1.66104230      0.52308406      9.01001400
H       2.60682954      1.99358898      8.68081714
