23
Frame 5  Energy = -425.8920216587 Hartree
C      -0.02452653      0.96690770      0.27553154
C      -0.37683283      0.99633684      1.74594002
C       0.85512673      0.73047548      2.60884204
C       0.52055928      0.79158023      4.09811596
C       1.78551167      0.61709078      4.94055488
C       1.62769961      1.14236064      6.34679198
O       0.73146925      1.81311801      6.73849863
O       2.62230802      0.69508114      7.13137852
C       2.54532054      0.96653213      8.54078674
H      -0.93336026      1.29992844     -0.29825008
H       0.71768495      1.78412354      0.11630371
H       0.34770202      0.06366223     -0.13053027
H      -1.01950729      0.19570620      2.03509361
H      -0.80365179      2.00827423      1.97436561
H       1.26837568     -0.27177140      2.46513865
H       1.63772023      1.47268420      2.38551418
H       0.12491170      1.81879194      4.31735032
H      -0.26782073      0.16133292      4.46160731
H       2.16266439     -0.37554297      4.89624855
H       2.63298636      1.19473368      4.50709067
H       3.39831212      0.42715465      8.95146789
H       1.65790128      0.52902575      9.01273667
H       2.60965869      1.99159273      8.67984979
23
Frame 10  Energy = -425.8939261117 Hartree
C      -0.02581371      0.96513686      0.27726303
C      -0.37488041      0.99587892      1.74446510
C       0.85431737      0.72955292      2.61011847
C       0.52247933      0.79230089      4.09991676
C       1.78284143      0.61861597      4.94209078
C       1.62841458      1.14273058      6.34886497
O       0.73252024      1.81291145      6.73856967
O       2.62125643      0.69712932      7.13038801
C       2.54624589      0.96579870      8.54122659
H      -0.93343562      1.29509410     -0.30831013
H       0.71658443      1.79281819      0.12336520
H       0.34903133      0.05910115     -0.13590595
H      -1.02271717      0.19041321      2.03951692
H      -0.80446919      2.00290903      1.98194884
H       1.27245787     -0.26371884      2.45477589
H       1.64032293      1.47718159      2.38277083
H       0.13456170      1.82732421      4.32203825
H      -0.27111305      0.15391638      4.45659120
H       2.16230786     -0.37343255      4.88898658
H       2.62818225      1.18240106      4.49140603
H       3.39977993      0.43659457      8.94886476
H       1.65436171      0.53590054      9.01451470
H       2.61247814      1.99375576      8.68052327
23
Frame 15  Energy = -425.8972554487 Hartree
C      -0.02733042      0.96385431      0.27881506
C      -0.37277372      0.99557095      1.74314889
C       0.85351047      0.72865986      2.61160434
C       0.52446876      0.79358629      4.10176854
C       1.78021239      0.62036749      4.94352622
C       1.62937084      1.14268699      6.35075926
O       0.73326642      1.81293423      6.73873118
O       2.62017157      0.69903559      7.12943647
C       2.54720965      0.96468430      8.54169083
H      -0.93111776      1.28865660     -0.31778968
H       0.71446536      1.79938153      0.13000579
H       0.35128909      0.05269605     -0.14156055
H      -1.02823808      0.18490870      2.04335605
H      -0.80472384      1.99476392      1.98951988
H       1.27641531     -0.25578860      2.44297389
H       1.64186318      1.48065658      2.38047764
H       0.14560791      1.83356960      4.32600713
H      -0.27461378      0.14534610      4.45068544
H       2.16220852     -0.37403716      4.88252240
H       2.62186831      1.16971878      4.47650533
H       3.40142257      0.44640850      8.94677069
H       1.65079110      0.54328177      9.01549455
H       2.61549464      1.99973701      8.68243485
23
Frame 20  Energy = -425.8973656208 Hartree
C      -0.02897742      0.96293341      0.28019964
C      -0.37063291      0.99533877      1.74195656
C       0.85274887      0.72792356      2.61323500
C       0.52645086      0.79541261      4.10363875
C       1.77785079      0.62227543      4.94477359
C       1.63050126      1.14227463      6.35238232
O       0.73381907      1.81310766      6.73895984
O       2.61910028      0.70094700      7.12853933
C       2.54819111      0.96321198      8.54199765
H      -0.92657772      1.28092189     -0.32623674
H       0.71161425      1.80347514      0.13618117
H       0.35432539      0.04527593     -0.14683125
H      -1.03511148      0.17987764      2.04622864
H      -0.80482667      1.98412559      1.99662642
H       1.28058130     -0.24822275      2.43005746
H       1.64221944      1.48274095      2.37862315
H       0.15768110      1.83748779      4.32914641
H      -0.27812759      0.13558049      4.44405999
H       2.16213137     -0.37677328      4.87695059
H       2.61444455      1.15729411      4.46243491
H       3.40352435      0.45624890      8.94547010
H       1.64716969      0.55129264      9.01563443
H       2.61866871      2.00928281      8.68564318
23
Frame 25  Energy = -425.8974213879 Hartree
C      -0.03067381      0.96241291      0.28142598
C      -0.36847162      0.99506768      1.74093428
C       0.85204747      0.72727115      2.61508466
C       0.52837549      0.79767581      4.10549887
C       1.77563754      0.62420976      4.94584206
C       1.63186801      1.14146120      6.35379031
O       0.73423335      1.81341271      6.73926362
O       2.61802189      0.70296304      7.12760115
C       2.54922603      0.96156869      8.54221619
H      -0.91999429      1.27169847     -0.33366239
H       0.70782912      1.80509992      0.14158935
H       0.35782915      0.03770641     -0.15156188
H      -1.04291989      0.17592671      2.04773979
H      -0.80437805      1.97166981      2.00327904
H       1.28493403     -0.24117259      2.41629882
H       1.64150597      1.48376660      2.37705402
H       0.17025518      1.83894419      4.33173532
H      -0.28138691      0.12523668      4.43634668
H       2.16191691     -0.38138085      4.87269851
H       2.60618323      1.14556066      4.44946339
H       3.40643625      0.46602387      8.94489828
H       1.64376138      0.55958712      9.01506198
H       2.62198151      2.02120549      8.68978456
23
Frame 30  Energy = -425.8974630938 Hartree
C      -0.03242082      0.96235767      0.28237306
C      -0.36633420      0.99471353      1.74004227
C       0.85131337      0.72684444      2.61704531
C       0.53021605      0.80035115      4.10741431
C       1.77346648      0.62617865      4.94664067
C       1.63336675      1.14034444      6.35492311
O       0.73447385      1.81389804      6.73975007
O       2.61694468      0.70489317      7.12670069
C       2.55024530      0.96000445      8.54249412
H      -0.91191488      1.26138525     -0.33967204
H       0.70308630      1.80426122      0.14600713
H       0.36161232      0.02998330     -0.15506285
H      -1.05138507      0.17311524      2.04813640
H      -0.80356485      1.95778089      2.00962178
H       1.28969968     -0.23479710      2.40204890
H       1.63956130      1.48346338      2.37580713
H       0.18280985      1.83788942      4.33361241
H      -0.28380187      0.11511262      4.42789612
H       2.16115771     -0.38742746      4.86994447
H       2.59748500      1.13486919      4.43755413
H       3.41010858      0.47546857      8.94480774
H       1.64042668      0.56838569      9.01341610
H       2.62527868      2.03406949      8.69464620
23
Frame 35  Energy = -425.8960141415 Hartree
C      -0.03407566      0.96266414      0.28288601
C      -0.36429730      0.99414787      1.73947751
C       0.85064738      0.72663421      2.61904713
C       0.53199864      0.80325292      4.10931850
C       1.77146808      0.62805523      4.94724472
C       1.63496922      1.13894706      6.35592160
O       0.73453293      1.81459894      6.74036980
O       2.61594065      0.70667103      7.12593747
C       2.55123748      0.95862887      8.54270506
H      -0.90280962      1.25016750     -0.34441746
H       0.69721711      1.80093764      0.14927750
H       0.36541667      0.02300854     -0.15698396
H      -1.05997568      0.17173672      2.04710108
H      -0.80301820      1.94312015      2.01589121
H       1.29497036     -0.22939811      2.38711796
H       1.63624736      1.48180855      2.37471109
H       0.19526071      1.83453682      4.33512428
H      -0.28460346      0.10573571      4.41866781
H       2.15976190     -0.39426695      4.86861096
H       2.58875772      1.12553182      4.42676608
H       3.41481650      0.48429667      8.94531052
H       1.63715057      0.57769015      9.01086928
H       2.62818438      2.04675780      8.70031268
23
Frame 40  Energy = -425.8957762825 Hartree
C      -0.03570765      0.96323659      0.28304254
C      -0.36240010      0.99318314      1.73920500
C       0.85012845      0.72671245      2.62113636
C       0.53367259      0.80627391      4.11116600
C       1.76966284      0.62971522      4.94771547
C       1.63665598      1.13733815      6.35680944
O       0.73450068      1.81548381      6.74115873
O       2.61504439      0.70836731      7.12534864
C       2.55221040      0.95735133      8.54285082
H      -0.89292503      1.23836753     -0.34819155
H       0.69024740      1.79542455      0.15158945
H       0.36907188      0.01760502     -0.15730414
H      -1.06864428      0.17229616      2.04432374
H      -0.80283966      1.92853690      2.02191156
H       1.30061640     -0.22532434      2.37203238
H       1.63152471      1.47904220      2.37386741
H       0.20741380      1.82962880      4.33613857
H      -0.28343319      0.09773703      4.40868259
H       2.15766619     -0.40107628      4.86873477
H       2.58016912      1.11778656      4.41723012
H       3.42076347      0.49264556      8.94644603
H       1.63414698      0.58724535      9.00767317
H       2.63048568      2.05861120      8.70633741
23
Frame 45  Energy = -425.8954883988 Hartree
C      -0.03729595      0.96400707      0.28298064
C      -0.36061232      0.99182428      1.73914851
C       0.84964072      0.72701638      2.62313099
C       0.53507443      0.80927632      4.11294332
C       1.76794508      0.63118384      4.94797689
C       1.63838130      1.13556651      6.35751927
O       0.73437157      1.81654422      6.74198275
O       2.61431590      0.71007919      7.12490829
C       2.55302527      0.95639725      8.54294411
H      -0.88246162      1.22620478     -0.35153419
H       0.68315818      1.78822218      0.15276409
H       0.37274078      0.01404401     -0.15569526
H      -1.07691945      0.17490409      2.04000179
H      -0.80346403      1.91478839      2.02799040
H       1.30634289     -0.22221883      2.35685880
H       1.62548166      1.47491623      2.37324122
H       0.21870347      1.82338468      4.33704005
H      -0.28035314      0.09109312      4.39778728
H       2.15501402     -0.40761108      4.87009863
H       2.57225172      1.11149353      4.40888499
H       3.42803108      0.50005323      8.94825490
H       1.63164390      0.59704419      9.00344720
H       2.63219926      2.06872026      8.71244177
23
Frame 50  Energy = -425.8955571114 Hartree
C      -0.03877570      0.96495792      0.28268936
C      -0.35896769      0.98993073      1.73942814
C       0.84923901      0.72744914      2.62512670
C       0.53628015      0.81208447      4.11467950
C       1.76630516      0.63231823      4.94803140
C       1.64013619      1.13362079      6.35806070
O       0.73410752      1.81768733      6.74284554
O       2.61373353      0.71179653      7.12454818
C       2.55369379      0.95591051      8.54299338
H      -0.87233098      1.21376685     -0.35449390
H       0.67638285      1.77965392      0.15287041
H       0.37566961      0.01269645     -0.15201375
H      -1.08466362      0.17955163      2.03436346
H      -0.80464548      1.90263025      2.03397100
H       1.31225135     -0.21987166      2.34172443
H       1.61852243      1.47018562      2.37276232
H       0.22882464      1.81705603      4.33794318
H      -0.27564822      0.08608289      4.38656320
H       2.15168170     -0.41332776      4.87302034
H       2.56541861      1.10727943      4.40165664
H       3.43640787      0.50660675      8.95070107
H       1.62953997      0.60672099      8.99850173
H       2.63328762      2.07606244      8.71875583
23
Frame 55  Energy = -425.8955581889 Hartree
C      -0.04007846      0.96583347      0.28220868
C      -0.35743709      0.98755134      1.74002338
C       0.84895782      0.72795697      2.62705155
C       0.53736253      0.81476565      4.11633928
C       1.76482445      0.63305966      4.94781099
C       1.64187243      1.13160863      6.35847179
O       0.73373910      1.81890240      6.74369403
O       2.61331307      0.71337453      7.12432484
C       2.55436631      0.95587723      8.54299230
H      -0.86356344      1.20159239     -0.35757086
H       0.67027247      1.77034778      0.15195146
H       0.37775409      0.01340718     -0.14632011
H      -1.09176618      0.18585564      2.02774862
H      -0.80671104      1.89224299      2.04007955
H       1.31827490     -0.21792523      2.32697397
H       1.61152067      1.46554604      2.37285059
H       0.23731471      1.81143124      4.33896415
H      -0.26967426      0.08297077      4.37515939
H       2.14735617     -0.41796088      4.87748527
H       2.56032703      1.10469601      4.39589652
H       3.44556758      0.51238974      8.95382157
H       1.62779178      0.61614530      8.99330718
H       2.63390407      2.08017098      8.72492390
23
Frame 60  Energy = -425.8960630484 Hartree
C      -0.04128708      0.96655497      0.28152430
C      -0.35595398      0.98467264      1.74089666
C       0.84889259      0.72854940      2.62893011
C       0.53829320      0.81733602      4.11779892
C       1.76348383      0.63350075      4.94736978
C       1.64346615      1.12966664      6.35875389
O       0.73327277      1.82017132      6.74462583
O       2.61306026      0.71480771      7.12423884
C       2.55512919      0.95632491      8.54293324
H      -0.85719827      1.19008580     -0.36096949
H       0.66508574      1.76136704      0.14986764
H       0.37940957      0.01601864     -0.13846491
H      -1.09796465      0.19366916      2.01975453
H      -0.80987220      1.88418804      2.04661432
H       1.32389992     -0.21637847      2.31267779
H       1.60450542      1.46137052      2.37333987
H       0.24376437      1.80745837      4.33999824
H      -0.26236200      0.08162543      4.36347040
H       2.14188321     -0.42116527      4.88353926
H       2.55653507      1.10387163      4.39134916
H       3.45473532      0.51729791      8.95737716
H       1.62617875      0.62547759      8.98771005
H       2.63422353      2.08072655      8.73076396
23
Frame 65  Energy = -425.8962616200 Hartree
C      -0.04234994      0.96711830      0.28075271
C      -0.35467578      0.98140000      1.74199840
C       0.84889837      0.72911292      2.63070093
C       0.53907994      0.81963083      4.11905561
C       1.76230573      0.63362256      4.94675610
C       1.64491652      1.12765332      6.35888212
O       0.73279252      1.82154322      6.74558606
O       2.61302891      0.71615432      7.12424486
C       2.55595792      0.95722948      8.54286365
H      -0.85305328      1.17940910     -0.36456481
H       0.66156966      1.75327723      0.14650129
H       0.38081518      0.02050172     -0.12874941
H      -1.10330972      0.20248832      2.01073964
H      -0.81404536      1.87883165      2.05321955
H       1.32864101     -0.21474521      2.29938158
H       1.59806966      1.45796797      2.37411393
H       0.24773299      1.80590044      4.34145340
H      -0.25406315      0.08202758      4.35171950
H       2.13492961     -0.42310998      4.89115133
H       2.55439626      1.10474905      4.38778861
H       3.46331978      0.52148312      8.96104263
H       1.62441657      0.63386393      8.98223389
H       2.63410269      2.07771596      8.73606560
23
Frame 70  Energy = -425.8964382366 Hartree
C      -0.04325903      0.96753025      0.27994880
C      -0.35360118      0.97770624      1.74338630
C       0.84898025      0.72951582      2.63225587
C       0.53982252      0.82158972      4.12012199
C       1.76129850      0.63339936      4.94605233
C       1.64614879      1.12566206      6.35888590
O       0.73227207      1.82295903      6.74653662
O       2.61314955      0.71728438      7.12435300
C       2.55685900      0.95853494      8.54274116
H      -0.85140507      1.16971990     -0.36912218
H       0.66016708      1.74684847      0.14186623
H       0.38220134      0.02618063     -0.11732678
H      -1.10769886      0.21191228      2.00101246
H      -0.81926686      1.87597130      2.05964361
H       1.33271424     -0.21264177      2.28752854
H       1.59233286      1.45569873      2.37474789
H       0.24907889      1.80687853      4.34322591
H      -0.24524494      0.08338085      4.34051401
H       2.12648106     -0.42378942      4.90007120
H       2.55383541      1.10699439      4.38543115
H       3.47084511      0.52477998      8.96455127
H       1.62233247      0.64093985      8.97659434
H       2.63353485      2.07166915      8.74087209
23
Frame 75  Energy = -425.8965605258 Hartree
C      -0.04401648      0.96780803      0.27908509
C      -0.35264870      0.97373524      1.74493422
C       0.84911316      0.72981151      2.63364859
C       0.54056355      0.82325994      4.12100180
C       1.76047413      0.63288866      4.94523187
C       1.64708134      1.12365918      6.35875255
O       0.73174774      1.82447110      6.74753308
O       2.61340337      0.71824953      7.12451016
C       2.55791197      0.96016940      8.54260353
H      -0.85245868      1.16090604     -0.37501257
H       0.66149410      1.74208406      0.13579756
H       0.38343924      0.03258989     -0.10476482
H      -1.11149654      0.22149983      1.99056185
H      -0.82497417      1.87558584      2.06591726
H       1.33604396     -0.21009657      2.27728441
H       1.58768240      1.45499772      2.37520664
H       0.24816692      1.81043665      4.34537568
H      -0.23635039      0.08557323      4.33007320
H       2.11689161     -0.42299662      4.91025512
H       2.55437669      1.11078664      4.38436271
H       3.47706885      0.52743649      8.96754432
H       1.62014015      0.64689539      8.97074798
H       2.63253096      2.06279539      8.74523962
23
Frame 80  Energy = -425.8965009497 Hartree
C      -0.04465006      0.96789261      0.27829729
C      -0.35186293      0.96955922      1.74665268
C       0.84926485      0.73003826      2.63484625
C       0.54129387      0.82459066      4.12162136
C       1.75992649      0.63217401      4.94438127
C       1.64756256      1.12181113      6.35850119
O       0.73126914      1.82596604      6.74855559
O       2.61380839      0.71916342      7.12475661
C       2.55911210      0.96214234      8.54232218
H      -0.85589685      1.15329556     -0.38186371
H       0.66529055      1.73917976      0.12843116
H       0.38483338      0.03917829     -0.09125990
H      -1.11512358      0.23104470      1.97951524
H      -0.83116427      1.87710224      2.07200547
H       1.33834399     -0.20681015      2.26882297
H       1.58427698      1.45601829      2.37558289
H       0.24494927      1.81637346      4.34754725
H      -0.22791456      0.08832289      4.32022785
H       2.10602415     -0.42093361      4.92118195
H       2.55590713      1.11572792      4.38504164
H       3.48144867      0.52993268      8.97010589
H       1.61798817      0.65169448      8.96515719
H       2.63117752      2.05164700      8.74887238
23
Frame 85  Energy = -425.8966788114 Hartree
C      -0.04514503      0.96781528      0.27760764
C      -0.35123719      0.96525325      1.74854120
C       0.84942612      0.73016652      2.63589050
C       0.54214033      0.82578742      4.12200177
C       1.75962061      0.63120650      4.94345498
C       1.64752216      1.12015114      6.35800867
O       0.73095513      1.82739215      6.74952762
O       2.61442058      0.71996637      7.12516478
C       2.56046138      0.96439411      8.54198212
H      -0.86129522      1.14672401     -0.38971972
H       0.67108768      1.73784747      0.11990555
H       0.38656158      0.04540275     -0.07719481
H      -1.11886158      0.24000220      1.96826364
H      -0.83729767      1.87972137      2.07771764
H       1.33968459     -0.20320410      2.26209156
H       1.58234105      1.45901592      2.37559831
H       0.23954816      1.82429526      4.34978046
H      -0.21996763      0.09123196      4.31164379
H       2.09440243     -0.41779352      4.93308509
H       2.55855743      1.12199136      4.38722511
H       3.48374161      0.53249291      8.97228416
H       1.61564637      0.65536102      8.95985357
H       2.62967418      2.03946856      8.75175637
23
Frame 90  Energy = -425.8968413756 Hartree
C      -0.04552446      0.96771891      0.27701045
C      -0.35081553      0.96096281      1.75054481
C       0.84969583      0.73010356      2.63674304
C       0.54295857      0.82687834      4.12210266
C       1.75955658      0.62998329      4.94239246
C       1.64701267      1.11872710      6.35736399
O       0.73080565      1.82874228      6.75052214
O       2.61523486      0.72063860      7.12573880
C       2.56190340      0.96684143      8.54168576
H      -0.86847540      1.14106504     -0.39742063
H       0.67848242      1.73803157      0.11040699
H       0.38901429      0.05062393     -0.06265159
H      -1.12284508      0.24769936      1.95726580
H      -0.84311081      1.88301114      2.08262998
H       1.34029418     -0.19939627      2.25727512
H       1.58190359      1.46453464      2.37539860
H       0.23211032      1.83301570      4.35178896
H      -0.21314164      0.09433686      4.30463529
H       2.08262326     -0.41413092      4.94552669
H       2.56211692      1.12892264      4.39133800
H       3.48389979      0.53447736      8.97364536
H       1.61324467      0.65763915      8.95507020
H       2.62797937      2.02740134      8.75377573
23
Frame 95  Energy = -425.8968659391 Hartree
C      -0.04580920      0.96756053      0.27642271
C      -0.35068098      0.95672926      1.75264857
C       0.85005248      0.72988969      2.63739741
C       0.54371561      0.82797616      4.12196576
C       1.75988009      0.62862154      4.94121845
C       1.64613784      1.11751993      6.35660922
O       0.73072000      1.83012123      6.75153456
O       2.61629247      0.72109028      7.12641017
C       2.56334907      0.96941194      8.54142562
H      -0.87702837      1.13597729     -0.40428788
H       0.68724668      1.73948504      0.10012147
H       0.39226205      0.05432598     -0.04822065
H      -1.12751992      0.25321525      1.94702702
H      -0.84809122      1.88623305      2.08657282
H       1.34012213     -0.19528626      2.25463366
H       1.58264180      1.47192640      2.37517160
H       0.22267566      1.84172279      4.35355930
H      -0.20807877      0.09722299      4.29900885
H       2.07044866     -0.41028578      4.95830475
H       2.56654971      1.13653084      4.39723707
H       3.48195829      0.53566500      8.97424645
H       1.61115087      0.65838631      8.95069740
H       2.62597970      2.01612715      8.75510314
23
Frame 100  Energy = -425.8968357808 Hartree
C      -0.04600408      0.96751851      0.27574974
C      -0.35082992      0.95275503      1.75487562
C       0.85048934      0.72958002      2.63787821
C       0.54443475      0.82923581      4.12158631
C       1.76052555      0.62718012      4.94000616
C       1.64485092      1.11657904      6.35583346
O       0.73075284      1.83151021      6.75249928
O       2.61764542      0.72139813      7.12722574
C       2.56487560      0.97210362      8.54115238
H      -0.88614640      1.13136101     -0.41054134
H       0.69658917      1.74182729      0.08892721
H       0.39659065      0.05597252     -0.03417608
H      -1.13321693      0.25607937      1.93775001
H      -0.85192187      1.88911583      2.08920480
H       1.33948036     -0.19096467      2.25408309
H       1.58418546      1.48083079      2.37514687
H       0.21183717      1.84976517      4.35509105
H      -0.20509566      0.09895846      4.29481223
H       2.05848785     -0.40721978      4.97142079
H       2.57123638      1.14414913      4.40455949
H       3.47796862      0.53665217      8.97426638
H       1.60926891      0.65797214      8.94683942
H       2.62391968      2.00700713      8.75616656
23
Frame 105  Energy = -425.8966533881 Hartree
C      -0.04612182      0.96765547      0.27505535
C      -0.35129457      0.94908061      1.75725503
C       0.85096502      0.72924193      2.63810976
C       0.54518272      0.83071366      4.12105954
C       1.76141141      0.62566891      4.93872155
C       1.64313302      1.11591239      6.35503215
O       0.73093672      1.83292429      6.75344083
O       2.61920544      0.72161866      7.12814191
C       2.56635461      0.97471523      8.54089212
H      -0.89543287      1.12718269     -0.41578757
H       0.70578407      1.74427189      0.07667930
H       0.40174019      0.05525788     -0.02094108
H      -1.13982852      0.25639372      1.92939128
H      -0.85416341      1.89136058      2.09063892
H       1.33828092     -0.18683679      2.25550148
H       1.58629912      1.49101561      2.37544543
H       0.20021102      1.85643357      4.35605908
H      -0.20413539      0.09938568      4.29204168
H       2.04679607     -0.40521421      4.98481539
H       2.57657226      1.15162799      4.41359632
H       3.47202678      0.53715203      8.97374241
H       1.60761741      0.65639149      8.94359124
H       2.62187090      2.00110569      8.75701350
23
Frame 110  Energy = -425.8965892714 Hartree
C      -0.04614098      0.96801111      0.27436337
C      -0.35208821      0.94567670      1.75974640
C       0.85154534      0.72896962      2.63829370
C       0.54586495      0.83239533      4.12028483
C       1.76248729      0.62430173      4.93746072
C       1.64108602      1.11561091      6.35426287
O       0.73130654      1.83419309      6.75446599
O       2.62092891      0.72180096      7.12917560
C       2.56785237      0.97716852      8.54067595
H      -0.90399261      1.12302333     -0.41939375
H       0.71410317      1.74656931      0.06404683
H       0.40835240      0.05247590     -0.00851823
H      -1.14719426      0.25423041      1.92175982
H      -0.85468652      1.89253787      2.09071115
H       1.33675297     -0.18332803      2.25884343
H       1.58857253      1.50197641      2.37626667
H       0.18785092      1.86112072      4.35674525
H      -0.20519092      0.09874436      4.29092198
H       2.03539153     -0.40502892      4.99804072
H       2.58198303      1.15866205      4.42437575
H       3.46477129      0.53668280      8.97339901
H       1.60647272      0.65340185      8.94035153
H       2.61993528      1.99906143      8.75748837
23
Frame 115  Energy = -425.8930709704 Hartree
C      -0.04612036      0.96863223      0.27353330
C      -0.35313130      0.94260403      1.76225595
C       0.85217131      0.72882260      2.63839365
C       0.54641950      0.83426585      4.11917708
C       1.76369296      0.62300035      4.93622723
C       1.63868028      1.11568943      6.35352937
O       0.73177954      1.83527371      6.75552142
O       2.62281990      0.72201498      7.13024810
C       2.56933944      0.97944440      8.54035860
H      -0.91157435      1.11853417     -0.42082464
H       0.72127093      1.74823664      0.05112751
H       0.41581798      0.04778376      0.00322959
H      -1.15543608      0.24954783      1.91492920
H      -0.85322883      1.89221482      2.08946872
H       1.33517180     -0.18059071      2.26374938
H       1.59034423      1.51278862      2.37755344
H       0.17512100      1.86338232      4.35628427
H      -0.20826157      0.09740129      4.29145344
H       2.02465963     -0.40630466      5.01084299
H       2.58750319      1.16507143      4.43673509
H       3.45676039      0.53493757      8.97285525
H       1.60586715      0.64934851      8.93685498
H       2.61792837      2.00137314      8.75772077
23
Frame 120  Energy = -425.8930150608 Hartree
C      -0.04600083      0.96948246      0.27255668
C      -0.35437146      0.93988837      1.76479160
C       0.85294649      0.72889016      2.63830609
C       0.54691629      0.83638833      4.11782307
C       1.76496970      0.62181047      4.93507350
C       1.63592402      1.11616365      6.35276034
O       0.73235280      1.83628188      6.75661639
O       2.62497973      0.72217633      7.13133087
C       2.57076023      0.98149949      8.54003854
H      -0.91768078      1.11390148     -0.42038253
H       0.72704385      1.74908510      0.03856946
H       0.42397977      0.04133247      0.01396970
H      -1.16420039      0.24251402      1.90889401
H      -0.85031935      1.89073619      2.08730285
H       1.33382398     -0.17864906      2.27013995
H       1.59129667      1.52328485      2.37964565
H       0.16251370      1.86333369      4.35491684
H      -0.21305228      0.09543297      4.29341984
H       2.01487710     -0.40986395      5.02343146
H       2.59285716      1.17067981      4.45037108
H       3.44820268      0.53216091      8.97222226
H       1.60601594      0.64426774      8.93341603
H       2.61616773      2.00819078      8.75819217
23
Frame 125  Energy = -425.8930947310 Hartree
C      -0.04576867      0.97051882      0.27151089
C      -0.35582903      0.93751281      1.76735584
C       0.85387201      0.72918727      2.63799689
C       0.54725787      0.83871208      4.11632675
C       1.76637983      0.62081763      4.93404658
C       1.63283478      1.11692954      6.35207184
O       0.73305392      1.83719647      6.75771468
O       2.62732428      0.72222063      7.13249059
C       2.57213963      0.98345794      8.53969326
H      -0.92219922      1.10918418     -0.41794332
H       0.73117125      1.74916422      0.02694814
H       0.43262930      0.03329422      0.02391251
H      -1.17317882      0.23374650      1.90382075
H      -0.84625441      1.88828243      2.08431912
H       1.33280521     -0.17805333      2.27767609
H       1.59124127      1.53253779      2.38248498
H       0.15018156      1.86045447      4.35263638
H      -0.21886241      0.09294279      4.29683591
H       2.00580845     -0.41561237      5.03533365
H       2.59780597      1.17525394      4.46525058
H       3.43967009      0.52820881      8.97198754
H       1.60709588      0.63830527      8.93008527
H       2.61448765      2.01858503      8.75851130
23
Frame 130  Energy = -425.9001149774 Hartree
C      -0.04548893      0.97176063      0.27035493
C      -0.35758602      0.93544590      1.76992325
C       0.85487439      0.72971651      2.63754134
C       0.54742880      0.84122318      4.11468580
C       1.76792547      0.61997355      4.93316523
C       1.62957273      1.11802166      6.35146274
O       0.73379496      1.83797796      6.75879520
O       2.62977620      0.72219324      7.13374356
C       2.57330408      0.98534136      8.53928201
H      -0.92499695      1.10408721     -0.41366333
H       0.73302446      1.74799796      0.01637665
H       0.44124774      0.02447790      0.03315798
H      -1.18147001      0.22386944      1.89965446
H      -0.84106135      1.88454123      2.08064828
H       1.33205657     -0.17870590      2.28652494
H       1.58989193      1.54040599      2.38572495
H       0.13821825      1.85496913      4.34958053
H      -0.22533035      0.09010923      4.30167999
H       1.99779833     -0.42263942      5.04621133
H       2.60238385      1.17871969      4.48108569
H       3.43179004      0.52312365      8.97229113
H       1.60922762      0.63164488      8.92674242
H       2.61324542      2.03184731      8.75879432
23
Frame 135  Energy = -425.8992391989 Hartree
C      -0.04503007      0.97307496      0.26915623
C      -0.35965692      0.93365944      1.77239393
C       0.85600452      0.73051967      2.63700493
C       0.54736961      0.84372795      4.11287940
C       1.76961395      0.61934419      4.93244252
C       1.62616464      1.11944482      6.35096469
O       0.73453507      1.83862972      6.75986858
O       2.63230890      0.72214425      7.13495498
C       2.57418288      0.98714894      8.53884585
H      -0.92616271      1.09868054     -0.40724064
H       0.73240033      1.74545069      0.00670547
H       0.44967784      0.01576528      0.04180197
H      -1.18806959      0.21343155      1.89640891
H      -0.83513220      1.88018262      2.07643031
H       1.33171346     -0.18042714      2.29644712
H       1.58745488      1.54718217      2.38971284
H       0.12691650      1.84718500      4.34609398
H      -0.23192218      0.08785120      4.30799172
H       1.99093191     -0.43082444      5.05585614
H       2.60679946      1.18101068      4.49763634
H       3.42468894      0.51649827      8.97356734
H       1.61263808      0.62455874      8.92390758
H       2.61201623      2.04684417      8.75915867
23
Frame 140  Energy = -425.8967427556 Hartree
C      -0.04437321      0.97441227      0.26785548
C      -0.36205687      0.93201073      1.77481587
C       0.85736026      0.73164307      2.63641226
C       0.54709723      0.84628571      4.11080666
C       1.77130593      0.61878053      4.93188656
C       1.62259328      1.12102887      6.35058497
O       0.73530379      1.83923566      6.76099272
O       2.63493625      0.72207503      7.13602665
C       2.57482136      0.98902074      8.53840296
H      -0.92582355      1.09338717     -0.39898665
H       0.72956509      1.74157040     -0.00238173
H       0.45732098      0.00761925      0.04945682
H      -1.19254920      0.20268964      1.89380281
H      -0.82877184      1.87528890      2.07204824
H       1.33181946     -0.18368011      2.30738211
H       1.58395385      1.55249794      2.39440844
H       0.11640228      1.83750910      4.34210692
H      -0.23789031      0.08649531      4.31530033
H       1.98506441     -0.43967847      5.06473700
H       2.61134821      1.18206964      4.51484540
H       3.41865315      0.50897770      8.97567299
H       1.61699658      0.61717572      8.92162942
H       2.61070954      2.06226525      8.75915689
23
Frame 145  Energy = -425.8962092174 Hartree
C      -0.04358667      0.97567833      0.26641880
C      -0.36478012      0.93040383      1.77705906
C       0.85880374      0.73298477      2.63568475
C       0.54652178      0.84889697      4.10864094
C       1.77304866      0.61815411      4.93160752
C       1.61886713      1.12283108      6.35032541
O       0.73610783      1.83978592      6.76217066
O       2.63757763      0.72193701      7.13704149
C       2.57515702      0.99108659      8.53791420
H      -0.92413896      1.08806309     -0.38958673
H       0.72478170      1.73651556     -0.01056909
H       0.46379996      0.00062344      0.05631712
H      -1.19497536      0.19224122      1.89188036
H      -0.82228873      1.87022301      2.06754605
H       1.33257909     -0.18807334      2.31927852
H       1.57885831      1.55603221      2.39900665
H       0.10644457      1.82651164      4.33780894
H      -0.24291314      0.08638279      4.32345397
H       1.98030872     -0.44873982      5.07253227
H       2.61636957      1.18173364      4.53229461
H       3.41371198      0.50031343      8.97877641
H       1.62237172      0.60942427      8.91940573
H       2.60928318      2.07709601      8.75834974
23
Frame 150  Energy = -425.8958833028 Hartree
C      -0.04256131      0.97679771      0.26480062
C      -0.36781676      0.92886122      1.77907107
C       0.86029852      0.73461951      2.63485675
C       0.54560918      0.85140079      4.10632732
C       1.77484158      0.61747156      4.93161939
C       1.61510237      1.12481577      6.35023156
O       0.73692359      1.84030324      6.76335412
O       2.64031354      0.72167834      7.13794876
C       2.57525054      0.99335925      8.53732393
H      -0.92137635      1.08262347     -0.37934519
H       0.71817005      1.73060405     -0.01792425
H       0.46914276     -0.00496573      0.06241893
H      -1.19566131      0.18264112      1.89054517
H      -0.81607368      1.86521895      2.06322117
H       1.33365139     -0.19364230      2.33190429
H       1.57253202      1.55779783      2.40382585
H       0.09725375      1.81510496      4.33307984
H      -0.24653015      0.08764951      4.33194639
H       1.97636234     -0.45737365      5.07868193
H       2.62212343      1.18015175      4.54965444
H       3.40992838      0.49079383      8.98233284
H       1.62853140      0.60165799      8.91748572
H       2.60780944      2.09063463      8.75666158
23
Frame 155  Energy = -425.8965584421 Hartree
C      -0.04130138      0.97765511      0.26320426
C      -0.37109360      0.92732853      1.78088492
C       0.86177586      0.73645947      2.63396497
C       0.54438546      0.85375080      4.10387199
C       1.77669308      0.61681129      4.93197417
C       1.61140681      1.12688207      6.35032374
O       0.73770226      1.84083547      6.76450442
O       2.64311289      0.72142201      7.13875893
C       2.57515892      0.99587163      8.53660038
H      -0.91806419      1.07735707     -0.36839204
H       0.70986294      1.72419690     -0.02447676
H       0.47312125     -0.00858293      0.06787264
H      -1.19380151      0.17417593      1.89004636
H      -0.81029743      1.86123850      2.05928972
H       1.33508668     -0.19967369      2.34507340
H       1.56545148      1.55805293      2.40873397
H       0.08854855      1.80409197      4.32817532
H      -0.24872111      0.09017354      4.34072027
H       1.97327682     -0.46527736      5.08325989
H       2.62887037      1.17789240      4.56608168
H       3.40709134      0.48085336      8.98628096
H       1.63554260      0.59420328      8.91605123
H       2.60645768      2.10183743      8.75404584
23
Frame 160  Energy = -425.8966668823 Hartree
C      -0.03970468      0.97823956      0.26162409
C      -0.37451897      0.92581981      1.78248736
C       0.86322343      0.73840244      2.63305552
C       0.54298915      0.85586552      4.10135710
C       1.77852715      0.61605221      4.93272967
C       1.60779214      1.12892340      6.35052610
O       0.73840675      1.84135262      6.76571169
O       2.64587599      0.72122721      7.13935232
C       2.57486579      0.99858573      8.53589813
H      -0.91463291      1.07185104     -0.35720545
H       0.70056282      1.71761036     -0.03001949
H       0.47554888     -0.00993789      0.07273654
H      -1.18940156      0.16641950      1.89061587
H      -0.80567313      1.85871858      2.05579901
H       1.33668666     -0.20579807      2.35847264
H       1.55845221      1.55731539      2.41351036
H       0.08000356      1.79431676      4.32333481
H      -0.24903006      0.09394745      4.34952529
H       1.97096070     -0.47168455      5.08630145
H       2.63659047      1.17472564      4.58174685
H       3.40495105      0.47071285      8.99057147
H       1.64246039      0.58707897      8.91520986
H       2.60537556      2.11033531      8.75088952
23
Frame 165  Energy = -425.8979605290 Hartree
C      -0.03790498      0.97844206      0.26018891
C      -0.37806288      0.92426864      1.78375613
C       0.86463752      0.74032988      2.63209453
C       0.54142002      0.85764647      4.09877461
C       1.78020874      0.61527846      4.93377077
C       1.60437576      1.13094393      6.35080120
O       0.73905763      1.84190489      6.76702627
O       2.64858818      0.72099656      7.13981323
C       2.57451798      1.00153915      8.53533804
H      -0.91165912      1.06630623     -0.34670925
H       0.69145626      1.71223627     -0.03473860
H       0.47611721     -0.00899526      0.07669324
H      -1.18246409      0.15979942      1.89196334
H      -0.80199899      1.85798540      2.05285456
H       1.33823363     -0.21226060      2.37212145
H       1.55163063      1.55563692      2.41787574
H       0.07158058      1.78639737      4.31870477
H      -0.24773373      0.09911318      4.35788197
H       1.96953034     -0.47619576      5.08745185
H       2.64504430      1.17057929      4.59614179
H       3.40299850      0.46126750      8.99479626
H       1.64947404      0.58058246      8.91476068
H       2.60444610      2.11563663      8.74674583
23
Frame 170  Energy = -425.8983623370 Hartree
C      -0.03587087      0.97818781      0.25898184
C      -0.38163517      0.92254740      1.78464311
C       0.86597787      0.74228786      2.63116708
C       0.53976325      0.85900687      4.09609504
C       1.78174249      0.61438710      4.93505105
C       1.60127051      1.13289333      6.35113713
O       0.73968788      1.84245258      6.76834577
O       2.65125946      0.72072372      7.14007829
C       2.57417012      1.00468499      8.53488587
H      -0.90996829      1.06083024     -0.33733208
H       0.68329974      1.70802136     -0.03855571
H       0.47534567     -0.00629557      0.07976354
H      -1.17382244      0.15435404      1.89435688
H      -0.79990483      1.85911004      2.05050824
H       1.33964393     -0.21867870      2.38620557
H       1.54514486      1.55357032      2.42165668
H       0.06295442      1.78076049      4.31471063
H      -0.24469839      0.10543659      4.36581722
H       1.96874263     -0.47877832      5.08708583
H       2.65399576      1.16559548      4.60899442
H       3.40134929      0.45263188      8.99883256
H       1.65617298      0.57453930      8.91476963
H       2.60378557      2.11749379      8.74164727
23
Frame 175  Energy = -425.8984740948 Hartree
C      -0.03370656      0.97749751      0.25801110
C      -0.38508666      0.92064830      1.78515400
C       0.86713650      0.74415173      2.63025820
C       0.53808306      0.85997834      4.09338806
C       1.78314562      0.61338292      4.93674244
C       1.59847137      1.13473585      6.35150501
O       0.74022879      1.84303714      6.76971917
O       2.65388780      0.72046519      7.14022689
C       2.57379876      1.00793487      8.53451627
H      -0.90970458      1.05581011     -0.32925096
H       0.67592398      1.70556353     -0.04187403
H       0.47287389     -0.00191832      0.08186948
H      -1.16363469      0.14994376      1.89723881
H      -0.79944031      1.86219786      2.04864310
H       1.34077216     -0.22459619      2.40000626
H       1.53978242      1.55156546      2.42444537
H       0.05456638      1.77752195      4.31115529
H      -0.24037998      0.11264640      4.37315850
H       1.96847020     -0.47912057      5.08521845
H       2.66380427      1.16022691      4.62057484
H       3.39956875      0.44550570      9.00256499
H       1.66237023      0.56909309      8.91553966
H       2.60328708      2.11600072      8.73595249
23
Frame 180  Energy = -425.9009915921 Hartree
C      -0.03139794      0.97637018      0.25747722
C      -0.38843267      0.91866100      1.78533306
C       0.86808565      0.74588460      2.62936129
C       0.53649150      0.86070173      4.09071176
C       1.78436013      0.61227252      4.93873978
C       1.59601943      1.13639135      6.35191759
O       0.74062149      1.84363287      6.77118470
O       2.65649832      0.72019426      7.14037278
C       2.57352406      1.01137469      8.53423976
H      -0.91149664      1.05117788     -0.32308408
H       0.66986805      1.70521785     -0.04493643
H       0.46870351      0.00382792      0.08307350
H      -1.15225110      0.14622747      1.90088847
H      -0.80036660      1.86687890      2.04766936
H       1.34161528     -0.22974061      2.41385428
H       1.53581222      1.55002859      2.42591798
H       0.04634694      1.77649670      4.30815391
H      -0.23484118      0.12059820      4.38003216
H       1.96842167     -0.47729491      5.08152229
H       2.67408869      1.15376388      4.63062112
H       3.39751682      0.43982349      9.00528947
H       1.66766180      0.56423897      8.91697658
H       2.60305992      2.11143912      8.72993928
23
Frame 185  Energy = -425.9011632890 Hartree
C      -0.02907098      0.97482761      0.25729115
C      -0.39164967      0.91671340      1.78522895
C       0.86887656      0.74746052      2.62847106
C       0.53497720      0.86114607      4.08803653
C       1.78537087      0.61118479      4.94094814
C       1.59393566      1.13790951      6.35239397
O       0.74075197      1.84438744      6.77269808
O       2.65902587      0.71990770      7.14044176
C       2.57332105      1.01477873      8.53402292
H      -0.91554626      1.04671399     -0.31865507
H       0.66526167      1.70757209     -0.04770408
H       0.46363893      0.01049550      0.08311012
H      -1.14024917      0.14267001      1.90544992
H      -0.80304513      1.87274679      2.04745304
H       1.34231165     -0.23350463      2.42753672
H       1.53372780      1.54963291      2.42652966
H       0.03830792      1.77780876      4.30617362
H      -0.22821551      0.12866259      4.38663640
H       1.96890296     -0.47347109      5.07604175
H       2.68468894      1.14654566      4.63882321
H       3.39471516      0.43607512      9.00718908
H       1.67163849      0.55999625      8.91909805
H       2.60305183      2.10429077      8.72397038
23
Frame 190  Energy = -425.9012420535 Hartree
C      -0.02675414      0.97287324      0.25751210
C      -0.39464658      0.91495743      1.78478224
C       0.86949300      0.74882527      2.62767459
C       0.53354230      0.86130931      4.08550083
C       1.78620986      0.61013006      4.94337416
C       1.59223414      1.13914969      6.35289495
O       0.74067485      1.84516471      6.77431187
O       2.66141568      0.71968171      7.14037026
C       2.57333183      1.01809411      8.53383378
H      -0.92175260      1.04216880     -0.31590526
H       0.66237185      1.71262225     -0.05016860
H       0.45835497      0.01754197      0.08217064
H      -1.12796577      0.13872300      1.91049726
H      -0.80710920      1.87932635      2.04770613
H       1.34228731     -0.23588075      2.44076859
H       1.53360309      1.55081778      2.42588377
H       0.03074891      1.78103013      4.30448921
H      -0.22101116      0.13640834      4.39283489
H       1.97005220     -0.46814559      5.06926997
H       2.69544414      1.13862318      4.64570541
H       3.39104431      0.43445413      9.00799180
H       1.67457497      0.55700637      8.92164637
H       2.60311561      2.09573886      8.71824621
23
Frame 195  Energy = -425.9011735843 Hartree
C      -0.02445280      0.97070477      0.25792603
C      -0.39736629      0.91339597      1.78399105
C       0.86983990      0.74998018      2.62694002
C       0.53213496      0.86120699      4.08316568
C       1.78692474      0.60911391      4.94601710
C       1.59097751      1.14018688      6.35337472
O       0.74036761      1.84592341      6.77596658
O       2.66367403      0.71950072      7.14021704
C       2.57345252      1.02121909      8.53369448
H      -0.92954932      1.03789734     -0.31465047
H       0.66084515      1.71993933     -0.05237378
H       0.45282047      0.02418214      0.07991853
H      -1.11553516      0.13432278      1.91619435
H      -0.81225730      1.88601833      2.04813593
H       1.34178403     -0.23674676      2.45336434
H       1.53541117      1.55335832      2.42412248
H       0.02373729      1.78590259      4.30318770
H      -0.21357401      0.14363986      4.39882249
H       1.97161126     -0.46175523      5.06157434
H       2.70562479      1.13004155      4.65109858
H       3.38655204      0.43514373      9.00761464
H       1.67642804      0.55492657      8.92451259
H       2.60306812      2.08644205      8.71266780
23
Frame 200  Energy = -425.9001043186 Hartree
C      -0.02220619      0.96827744      0.25855751
C      -0.39982373      0.91202708      1.78282934
C       0.86994784      0.75086783      2.62629166
C       0.53087064      0.86101293      4.08095412
C       1.78748132      0.60817820      4.94879964
C       1.59016576      1.14091475      6.35377339
O       0.73989293      1.84672401      6.77765664
O       2.66590215      0.71935730      7.13988004
C       2.57364036      1.02396576      8.53353247
H      -0.93788168      1.03391275     -0.31444910
H       0.66046072      1.72896181     -0.05425916
H       0.44759466      0.02994583      0.07619776
H      -1.10371049      0.12934915      1.92244034
H      -0.81827144      1.89252425      2.04899079
H       1.34135263     -0.23616661      2.46575266
H       1.53906368      1.55713235      2.42131413
H       0.01774322      1.79174471      4.30192870
H      -0.20642137      0.14960744      4.40460901
H       1.97366493     -0.45508909      5.05318886
H       2.71496615      1.12047230      4.65459975
H       3.38136313      0.43827503      9.00638083
H       1.67759278      0.55387154      8.92807088
H       2.60292826      2.07715144      8.70726628
23
Frame 205  Energy = -425.9001677519 Hartree
C      -0.02015232      0.96573765      0.25940215
C      -0.40193705      0.91096915      1.78130697
C       0.86972075      0.75150394      2.62574308
C       0.52980598      0.86084367      4.07884380
C       1.78794868      0.60755268      4.95176594
C       1.58987374      1.14143759      6.35423599
O       0.73928381      1.84763091      6.77941045
O       2.66800808      0.71928464      7.13943388
C       2.57376791      1.02631975      8.53332081
H      -0.94626427      1.03029779     -0.31484883
H       0.66068819      1.73967896     -0.05526300
H       0.44320013      0.03382428      0.07109634
H      -1.09308639      0.12345074      1.92950699
H      -0.82507706      1.89772110      2.04997650
H       1.34086388     -0.23412225      2.47758903
H       1.54439638      1.56168184      2.41728980
H       0.01308786      1.79801494      4.30100572
H      -0.20020127      0.15400063      4.41005845
H       1.97617682     -0.44849402      5.04427026
H       2.72345291      1.11043749      4.65652041
H       3.37582403      0.44336608      9.00473600
H       1.67796358      0.55402749      8.93183291
H       2.60306807      2.06912543      8.70221242
23
Frame 210  Energy = -425.8984267424 Hartree
C      -0.01839928      0.96311833      0.26040899
C      -0.40363932      0.91037961      1.77952482
C       0.86914998      0.75197367      2.62532253
C       0.52903246      0.86081073      4.07678334
C       1.78826821      0.60718680      4.95484804
C       1.59022685      1.14173866      6.35478796
O       0.73848795      1.84861683      6.78128024
O       2.67000075      0.71922876      7.13888331
C       2.57386895      1.02818990      8.53316464
H      -0.95400781      1.02658696     -0.31560615
H       0.66118932      1.75127056     -0.05517357
H       0.43991960      0.03526248      0.06428866
H      -1.08351614      0.11631459      1.93759884
H      -0.83229395      1.90142595      2.05054546
H       1.34012887     -0.23085235      2.48877335
H       1.55089854      1.56659490      2.41227615
H       0.01000503      1.80449453      4.30000834
H      -0.19499257      0.15603844      4.41509949
H       1.97926967     -0.44271354      5.03454973
H       2.73048239      1.09984116      4.65738139
H       3.37069264      0.45032427      9.00308392
H       1.67755562      0.55527357      8.93543526
H       2.60351356      2.06339042      8.69783805
23
Frame 215  Energy = -425.9021397786 Hartree
C      -0.01702964      0.96048192      0.26150944
C      -0.40494512      0.91008635      1.77755540
C       0.86836393      0.75239703      2.62484277
C       0.52845555      0.86094394      4.07493538
C       1.78842236      0.60709340      4.95801167
C       1.59114237      1.14177008      6.35548613
O       0.73749141      1.84969662      6.78328171
O       2.67186913      0.71924196      7.13828405
C       2.57389536      1.02949780      8.53294387
H      -0.96044240      1.02302272     -0.31646970
H       0.66121125      1.76331421     -0.05405438
H       0.43783221      0.03395896      0.05609217
H      -1.07588182      0.10765008      1.94626261
H      -0.83978642      1.90340114      2.05097373
H       1.33928424     -0.22610065      2.49870252
H       1.55809800      1.57113900      2.40598770
H       0.00899217      1.81104988      4.29883851
H      -0.19086420      0.15574058      4.41986320
H       1.98284675     -0.43822403      5.02452303
H       2.73609482      1.08869269      4.65685026
H       3.36632567      0.45896614      9.00169273
H       1.67626742      0.55748022      8.93897270
H       2.60401204      2.06060268      8.69420292
23
Frame 220  Energy = -425.8948754202 Hartree
C      -0.01597760      0.95782514      0.26260978
C      -0.40591697      0.91033700      1.77536523
C       0.86746896      0.75278907      2.62435056
C       0.52803892      0.86131859      4.07325928
C       1.78831971      0.60733541      4.96113618
C       1.59256281      1.14161325      6.35625663
O       0.73640875      1.85084908      6.78536559
O       2.67362447      0.71933367      7.13759343
C       2.57380740      1.03031442      8.53261250
H      -0.96496145      1.01928732     -0.31708801
H       0.66038488      1.77513803     -0.05170835
H       0.43727817      0.02999799      0.04663287
H      -1.06995308      0.09763320      1.95563821
H      -0.84737330      1.90299745      2.05108578
H       1.33859208     -0.22042890      2.50732616
H       1.56555811      1.57461899      2.39871949
H       0.01009885      1.81714918      4.29765390
H      -0.18806258      0.15337310      4.42413084
H       1.98661415     -0.43559583      5.01460659
H       2.74019075      1.07722468      4.65519232
H       3.36339594      0.46853175      9.00076008
H       1.67435171      0.56102462      8.94235080
H       2.60485054      2.06115239      8.69165877
23
Frame 225  Energy = -425.8945402720 Hartree
C      -0.01521587      0.95514079      0.26373901
C      -0.40646680      0.91105213      1.77306052
C       0.86639911      0.75325428      2.62380796
C       0.52783516      0.86190701      4.07174325
C       1.78799525      0.60798244      4.96429335
C       1.59443243      1.14127677      6.35717330
O       0.73534110      1.85198263      6.78749314
O       2.67523691      0.71948375      7.13679743
C       2.57363724      1.03062147      8.53217330
H      -0.96731655      1.01568880     -0.31744472
H       0.65867005      1.78612807     -0.04805458
H       0.43817703      0.02341540      0.03597476
H      -1.06546782      0.08624163      1.96538523
H      -0.85508885      1.89983999      2.05058438
H       1.33805740     -0.21420613      2.51470963
H       1.57292243      1.57672670      2.39051390
H       0.01349285      1.82247686      4.29653271
H      -0.18680503      0.14896515      4.42781066
H       1.99108660     -0.43507114      5.00505650
H       2.74329927      1.06541187      4.65235339
H       3.36212086      0.47888404      9.00039031
H       1.67172181      0.56590009      8.94576763
H       2.60604526      2.06480406      8.69015191
23
Frame 230  Energy = -425.8911694413 Hartree
C      -0.01482433      0.95260168      0.26492948
C      -0.40662800      0.91205708      1.77064444
C       0.86521312      0.75386372      2.62332010
C       0.52780572      0.86262877      4.07048788
C       1.78751157      0.60904346      4.96743743
C       1.59668045      1.14078743      6.35818670
O       0.73428326      1.85306254      6.78966161
O       2.67660728      0.71974372      7.13587289
C       2.57330114      1.03053426      8.53154506
H      -0.96774917      1.01219588     -0.31726121
H       0.65609788      1.79589258     -0.04316053
H       0.44068617      0.01490801      0.02431499
H      -1.06202785      0.07447246      1.97535505
H      -0.86272796      1.89367313      2.04966594
H       1.33809449     -0.20812947      2.52053440
H       1.57964299      1.57706117      2.38188209
H       0.01869652      1.82717826      4.29525445
H      -0.18694712      0.14256922      4.43084260
H       1.99635715     -0.43666288      4.99577025
H       2.74504827      1.05329902      4.64843473
H       3.36264086      0.48979131      9.00057018
H       1.66843681      0.57193854      8.94889598
H       2.60697560      2.07180566      8.68946685
23
Frame 235  Energy = -425.8911569786 Hartree
C      -0.01471985      0.95020181      0.26612139
C      -0.40639581      0.91338881      1.76812324
C       0.86394489      0.75462872      2.62290051
C       0.52787702      0.86353985      4.06955399
C       1.78690737      0.61042016      4.97048113
C       1.59928311      1.14021807      6.35937095
O       0.73324336      1.85406747      6.79182022
O       2.67778323      0.71997993      7.13492825
C       2.57284128      1.03004041      8.53086766
H      -0.96593462      1.00876147     -0.31639797
H       0.65224448      1.80365989     -0.03665049
H       0.44452147      0.00513136      0.01187229
H      -1.05901191      0.06300896      1.98509301
H      -0.87065062      1.88510389      2.04864381
H       1.33888572     -0.20255310      2.52452759
H       1.58545341      1.57553441      2.37318186
H       0.02587393      1.83071665      4.29375740
H      -0.18826016      0.13462707      4.43321048
H       2.00238694     -0.44005046      4.98712595
H       2.74555363      1.04126829      4.64369098
H       3.36511927      0.50076909      9.00119823
H       1.66485388      0.57944777      8.95134600
H       2.60778707      2.08154095      8.68925963
23
Frame 240  Energy = -425.8911759959 Hartree
C      -0.01486641      0.94778201      0.26736620
C      -0.40583486      0.91487950      1.76552412
C       0.86261058      0.75567935      2.62251629
C       0.52802101      0.86467581      4.06898430
C       1.78614246      0.61196610      4.97328970
C       1.60222220      1.13948692      6.36071544
O       0.73219215      1.85506600      6.79395506
O       2.67884386      0.72021162      7.13388269
C       2.57218932      1.02929710      8.53017482
H      -0.96200661      1.00557131     -0.31520837
H       0.64702545      1.80898757     -0.02868525
H       0.44919207     -0.00498668     -0.00096335
H      -1.05641443      0.05252219      1.99413393
H      -0.87885632      1.87475204      2.04719581
H       1.34041658     -0.19796066      2.52694407
H       1.59009752      1.57183824      2.36465213
H       0.03519735      1.83318280      4.29224207
H      -0.19016474      0.12581666      4.43482814
H       2.00866431     -0.44464891      4.97894548
H       2.74473069      1.02969435      4.63824641
H       3.36998016      0.51158755      9.00240173
H       1.66068681      0.58785220      8.95321155
H       2.60854342      2.09300695      8.68943759
23
Frame 245  Energy = -425.8918900424 Hartree
C      -0.01533494      0.94546118      0.26855202
C      -0.40505186      0.91637710      1.76290196
C       0.86128510      0.75686232      2.62219419
C       0.52823505      0.86599942      4.06872790
C       1.78524122      0.61370863      4.97590037
C       1.60535765      1.13867240      6.36231201
O       0.73121665      1.85596689      6.79600842
O       2.67974475      0.72054590      7.13274815
C       2.57140022      1.02845307      8.52946663
H      -0.95665031      1.00251124     -0.31362718
H       0.64023748      1.81209283     -0.01938406
H       0.45428632     -0.01467012     -0.01384816
H      -1.05392218      0.04316285      2.00251388
H      -0.88700100      1.86303892      2.04530068
H       1.34258025     -0.19451731      2.52764008
H       1.59383427      1.56590422      2.35642097
H       0.04627076      1.83468713      4.29058431
H      -0.19227663      0.11629275      4.43531127
H       2.01472889     -0.45006835      4.97168872
H       2.74254762      1.01872906      4.63202683
H       3.37707785      0.52222430      9.00440081
H       1.65634761      0.59692554      8.95456621
H       2.60907099      2.10512634      8.69009721
23
Frame 250  Energy = -425.8920154293 Hartree
C      -0.01613395      0.94315279      0.26978283
C      -0.40398724      0.91789675      1.76020390
C       0.85990785      0.75832308      2.62198729
C       0.52844107      0.86737230      4.06888828
C       1.78426341      0.61555699      4.97836396
C       1.60867571      1.13783617      6.36424268
O       0.73031858      1.85680177      6.79799351
O       2.68049294      0.72092608      7.13170776
C       2.57042501      1.02759246      8.52879894
H      -0.94991090      0.99970213     -0.31175496
H       0.63207362      1.81297349     -0.00929071
H       0.45947595     -0.02269560     -0.02617521
H      -1.05081009      0.03582647      2.01022966
H      -0.89538141      1.85048235      2.04315829
H       1.34518484     -0.19257222      2.52658739
H       1.59671334      1.55797160      2.34863009
H       0.05889905      1.83496100      4.28892396
H      -0.19480862      0.10683626      4.43435853
H       2.02021082     -0.45563441      4.96519365
H       2.73966059      1.00886556      4.62498091
H       3.38618145      0.53245009      9.00701175
H       1.65226830      0.60677473      8.95542019
H       2.60936976      2.11714727      8.69092527
23
Frame 255  Energy = -425.8921944920 Hartree
C      -0.01714234      0.94076724      0.27089706
C      -0.40269748      0.91937001      1.75751096
C       0.85848918      0.75998085      2.62175553
C       0.52867552      0.86865825      4.06944116
C       1.78317795      0.61732177      4.98068035
C       1.61215856      1.13695606      6.36634096
O       0.72960307      1.85761749      6.79984430
O       2.68105659      0.72136021      7.13072709
C       2.56935058      1.02681637      8.52808333
H      -0.94208818      0.99710933     -0.31016401
H       0.62275300      1.81158696      0.00153716
H       0.46439581     -0.02876201     -0.03764778
H      -1.04663386      0.03091290      2.01646343
H      -0.90401804      1.83754141      2.04060349
H       1.34822738     -0.19190214      2.52387656
H       1.59821350      1.54819557      2.34129305
H       0.07265105      1.83496786      4.28739460
H      -0.19706048      0.09862722      4.43177858
H       2.02484540     -0.46092413      4.95966442
H       2.73678683      1.00021167      4.61699820
H       3.39680494      0.54244610      9.00998979
H       1.64848081      0.61720167      8.95555720
H       2.60958183      2.12780700      8.69181502
23
Frame 260  Energy = -425.8917372873 Hartree
C      -0.01826521      0.93826248      0.27188517
C      -0.40112232      0.92069486      1.75489882
C       0.85694825      0.76184824      2.62149672
C       0.52905830      0.86991772      4.07031510
C       1.78190257      0.61898214      4.98272420
C       1.61572491      1.13612446      6.36868300
O       0.72900368      1.85839767      6.80163917
O       2.68148390      0.72189026      7.12971727
C       2.56818301      1.02619329      8.52731826
H      -0.93384847      0.99493076     -0.30905476
H       0.61286049      1.80859116      0.01297108
H       0.46906287     -0.03249579     -0.04790501
H      -1.04141600      0.02842958      2.02135812
H      -0.91324792      1.82443568      2.03820361
H       1.35144899     -0.19270118      2.51975011
H       1.59823976      1.53727977      2.33425641
H       0.08739663      1.83503932      4.28591396
H      -0.19876034      0.09198951      4.42784399
H       2.02844920     -0.46529791      4.95505137
H       2.73343367      0.99254246      4.60851977
H       3.40844535      0.55185346      9.01316962
H       1.64492178      0.62838155      8.95539531
H       2.60960207      2.13627042      8.69262772
23
Frame 265  Energy = -425.8921893789 Hartree
C      -0.01944262      0.93557254      0.27272678
C      -0.39942117      0.92183986      1.75229106
C       0.85541367      0.76380830      2.62125740
C       0.52948979      0.87110385      4.07154611
C       1.78045767      0.62050568      4.98448994
C       1.61934441      1.13554275      6.37122422
O       0.72853438      1.85901684      6.80340677
O       2.68182944      0.72246987      7.12862943
C       2.56699778      1.02578928      8.52657474
H      -0.92541905      0.99321137     -0.30846967
H       0.60282488      1.80410914      0.02491369
H       0.47308538     -0.03294205     -0.05683877
H      -1.03540579      0.02821569      2.02493716
H      -0.92293308      1.81200208      2.03580274
H       1.35493256     -0.19417493      2.51421920
H       1.59726791      1.52527090      2.32768148
H       0.10220493      1.83528807      4.28487067
H      -0.19959937      0.08676156      4.42241794
H       2.03101660     -0.46824975      4.95159977
H       2.73004028      0.98604504      4.59955912
H       3.42068292      0.56127673      9.01613892
H       1.64173819      0.63990398      8.95511990
H       2.60967362      2.14193152      8.69309156
23
Frame 270  Energy = -425.8921293956 Hartree
C      -0.02060165      0.93261991      0.27350994
C      -0.39752217      0.92268357      1.74968497
C       0.85390667      0.76575728      2.62117560
C       0.53000464      0.87211668      4.07320993
C       1.77891112      0.62182409      4.98598467
C       1.62293004      1.13518694      6.37403486
O       0.72825490      1.85943809      6.80510023
O       2.68206528      0.72314871      7.12755537
C       2.56590802      1.02559814      8.52591947
H      -0.91747204      0.99182653     -0.30851226
H       0.59295269      1.79852910      0.03727802
H       0.47642742     -0.03039877     -0.06441001
H      -1.02865898      0.03041226      2.02742943
H      -0.93340638      1.80083343      2.03358674
H       1.35821020     -0.19598523      2.50766132
H       1.59594457      1.51292315      2.32125523
H       0.11649253      1.83631646      4.28466322
H      -0.19946226      0.08354765      4.41569627
H       2.03241104     -0.46950714      4.94946235
H       2.72623997      0.98127328      4.59020125
H       3.43273763      0.57047301      9.01871418
H       1.63881545      0.65153999      8.95454927
H       2.60962232      2.14422816      8.69304283
23
Frame 275  Energy = -425.8924055240 Hartree
C      -0.02169942      0.92951791      0.27416251
C      -0.39541797      0.92302800      1.74716939
C       0.85244052      0.76764115      2.62109341
C       0.53054010      0.87296289      4.07519758
C       1.77729884      0.62296035      4.98726477
C       1.62638838      1.13497939      6.37713901
O       0.72831763      1.85965244      6.80668652
O       2.68221787      0.72377442      7.12658891
C       2.56492723      1.02566650      8.52536811
H      -0.91046766      0.99115398     -0.30952107
H       0.58361358      1.79255550      0.04988867
H       0.47951734     -0.02522513     -0.07055673
H      -1.02138342      0.03466112      2.02865685
H      -0.94452605      1.79128041      2.03178023
H       1.36094674     -0.19742190      2.49990514
H       1.59442152      1.50046889      2.31490122
H       0.13033725      1.83848884      4.28530023
H      -0.19840676      0.08225433      4.40771255
H       2.03241671     -0.46907648      4.94884569
H       2.72213519      0.97833651      4.58049971
H       3.44376578      0.57975849      9.02068274
H       1.63575758      0.66298896      8.95329788
H       2.60970498      2.14330279      8.69272046
23
Frame 280  Energy = -425.8924861363 Hartree
C      -0.02269151      0.92628874      0.27478334
C      -0.39311153      0.92286489      1.74487370
C       0.85106420      0.76944650      2.62103095
C       0.53123189      0.87346210      4.07745727
C       1.77555126      0.62388137      4.98836731
C       1.62967695      1.13493985      6.38041936
O       0.72863943      1.85964303      6.80816145
O       2.68227218      0.72448313      7.12568344
C       2.56408896      1.02604814      8.52490968
H      -0.90492974      0.99091754     -0.31167389
H       0.57513800      1.78683014      0.06210748
H       0.48203544     -0.01761161     -0.07521913
H      -1.01375999      0.04061824      2.02864101
H      -0.95630366      1.78348590      2.03004739
H       1.36275943     -0.19853869      2.49087205
H       1.59329055      1.48816672      2.30890275
H       0.14354528      1.84167589      4.28676105
H      -0.19657204      0.08306289      4.39852594
H       2.03105446     -0.46677125      4.94980347
H       2.71768153      0.97702764      4.57052945
H       3.45333561      0.58901339      9.02199979
H       1.63233317      0.67373339      8.95187992
H       2.60969340      2.13937367      8.69147234
23
Frame 285  Energy = -425.8915887576 Hartree
C      -0.02362147      0.92287723      0.27537267
C      -0.39058263      0.92229275      1.74264833
C       0.84976192      0.77108246      2.62092841
C       0.53204485      0.87371486      4.07994666
C       1.77364062      0.62445909      4.98913749
C       1.63270694      1.13503829      6.38385605
O       0.72928144      1.85943897      6.80956583
O       2.68221072      0.72521087      7.12488221
C       2.56355197      1.02676699      8.52452112
H      -0.90101416      0.99116936     -0.31518225
H       0.56795288      1.78192760      0.07369073
H       0.48398415     -0.00780109     -0.07832261
H      -1.00621044      0.04820878      2.02708343
H      -0.96878081      1.77747399      2.02836780
H       1.36346730     -0.19933845      2.48074451
H       1.59291124      1.47704924      2.30312226
H       0.15585769      1.84617960      4.28912900
H      -0.19409630      0.08600751      4.38810188
H       2.02811398     -0.46259120      4.95224592
H       2.71303655      0.97782013      4.56061664
H       3.46134215      0.59832564      9.02249515
H       1.62896719      0.68377630      8.95046327
H       2.60942138      2.13276393      8.68947995
23
Frame 290  Energy = -425.8919302148 Hartree
C      -0.02463750      0.91933473      0.27604256
C      -0.38788926      0.92132134      1.74067789
C       0.84856162      0.77240241      2.62079177
C       0.53293498      0.87377711      4.08259959
C       1.77166997      0.62477421      4.98958401
C       1.63546443      1.13529718      6.38746109
O       0.73017863      1.85908306      6.81097047
O       2.68198339      0.72592250      7.12418594
C       2.56321865      1.02769868      8.52422356
H      -0.89930345      0.99170773     -0.32030268
H       0.56219267      1.77874681      0.08453694
H       0.48566251      0.00395322     -0.07984845
H      -0.99876473      0.05683278      2.02418219
H      -0.98144534      1.77301253      2.02668929
H       1.36334981     -0.19969971      2.46999536
H       1.59348064      1.46784903      2.29733709
H       0.16712516      1.85196599      4.29251169
H      -0.19160500      0.09059592      4.37697995
H       2.02348239     -0.45700743      4.95630875
H       2.70792546      0.98023340      4.55078921
H       3.46701495      0.60790600      9.02189377
H       1.62581463      0.69302497      8.94902829
H       2.60886982      2.12396706      8.68700516
23
Frame 295  Energy = -425.8911056007 Hartree
C      -0.02572578      0.91562474      0.27681712
C      -0.38506641      0.92003601      1.73890479
C       0.84749343      0.77341563      2.62059405
C       0.53407617      0.87377538      4.08553556
C       1.76972294      0.62497203      4.98972811
C       1.63799928      1.13571046      6.39113882
O       0.73137044      1.85848963      6.81232899
O       2.68165340      0.72654584      7.12364941
C       2.56319881      1.02885348      8.52400845
H      -0.89981718      0.99276357     -0.32668147
H       0.55848154      1.77708532      0.09448820
H       0.48729392      0.01675216     -0.08010059
H      -0.99177185      0.06578527      2.02012011
H      -0.99404035      1.76990541      2.02447921
H       1.36221721     -0.19920677      2.45848340
H       1.59512499      1.46087287      2.29135852
H       0.17732854      1.85903145      4.29687178
H      -0.18948213      0.09676451      4.36581904
H       2.01779197     -0.45016053      4.96176035
H       2.70244767      0.98428635      4.54125448
H       3.47039674      0.61748106      9.02055833
H       1.62258288      0.70162568      8.94774088
H       2.60775561      2.11439225      8.68405976
23
Frame 300  Energy = -425.8897627122 Hartree
C      -0.02686732      0.91180309      0.27767299
C      -0.38216385      0.91860641      1.73720045
C       0.84652443      0.77417648      2.62031978
C       0.53538216      0.87374301      4.08866525
C       1.76776970      0.62502017      4.98961484
C       1.64036658      1.13641676      6.39478100
O       0.73287064      1.85758631      6.81367753
O       2.68123295      0.72714719      7.12316816
C       2.56351152      1.03018686      8.52387951
H      -0.90212271      0.99429549     -0.33424133
H       0.55701190      1.77710045      0.10322154
H       0.48923191      0.02999702     -0.07955078
H      -0.98582427      0.07421272      2.01547251
H      -1.00639258      1.76749101      2.02181454
H       1.35944901     -0.19822796      2.44624829
H       1.59825881      1.45604733      2.28522405
H       0.18644457      1.86687327      4.30225913
H      -0.18789981      0.10397689      4.35428966
H       2.01121642     -0.44267829      4.96826432
H       2.69648492      0.98996605      4.53196970
H       3.47169883      0.62724884      9.01831436
H       1.61953781      0.70916474      8.94656841
H       2.60600942      2.10446823      8.68040823
