23
Frame 5  Energy = -425.8863284998 Hartree
C      -0.00138920      1.11436684      0.11288957
C      -0.22703577      1.31578774      1.60202716
C       0.88513910      0.71152499      2.51636562
C       0.66169957      1.03297856      3.99201704
C       1.85820484      0.67045725      4.85425477
C       1.58737452      1.02208974      6.30680741
O       0.75332851      1.71638305      6.77229694
O       2.57819215      0.46420032      7.11417394
C       2.53614092      0.80003400      8.48617721
H      -0.82430680      1.46821389     -0.46467561
H       0.86236676      1.60713289     -0.27884052
H       0.17061888      0.04448017     -0.13618891
H      -1.14170469      0.84952682      1.90653918
H      -0.26335481      2.37226158      1.80306138
H       0.97657617     -0.39565197      2.28472527
H       1.77970360      1.20356397      2.17399738
H       0.44934383      2.06972180      4.02683087
H      -0.25271881      0.64441956      4.45965187
H       2.06632412     -0.40688821      4.72352067
H       2.80776429      1.09893175      4.51370203
H       3.40130777      0.35302653      8.95429057
H       1.68801831      0.35176586      8.98409291
H       2.55659177      1.91499107      8.62469155
23
Frame 10  Energy = -425.8862255423 Hartree
C      -0.00182290      1.11472330      0.11383090
C      -0.22727839      1.31251598      1.60143530
C       0.88321553      0.70981901      2.51671271
C       0.66094681      1.03089971      3.99430461
C       1.85509762      0.66862963      4.85262795
C       1.58871397      1.02370162      6.30709432
O       0.75261429      1.71839597      6.77232360
O       2.58051957      0.46357943      7.11612150
C       2.53405759      0.80160502      8.48519221
H      -0.83160788      1.46689986     -0.46834465
H       0.86559859      1.61319968     -0.27823337
H       0.16602396      0.05038844     -0.13660379
H      -1.14290307      0.85095119      1.90865101
H      -0.26862200      2.37597073      1.80238558
H       0.98647215     -0.39246897      2.28799091
H       1.77480574      1.20029602      2.16801005
H       0.45322638      2.07012306      4.02146498
H      -0.24338003      0.63186652      4.46807221
H       2.07526129     -0.40011117      4.71688772
H       2.80566385      1.10840217      4.52349627
H       3.40822935      0.35853472      8.95607116
H       1.68204180      0.36039764      8.98236753
H       2.55147909      1.90688378      8.62823652
23
Frame 15  Energy = -425.8862653816 Hartree
C      -0.00218358      1.11494313      0.11478499
C      -0.22729313      1.30920765      1.60097214
C       0.88101116      0.70798802      2.51682765
C       0.66022632      1.02874295      3.99646714
C       1.85204314      0.66669077      4.85094096
C       1.59064817      1.02517581      6.30762168
O       0.75171614      1.72049485      6.77240444
O       2.58278370      0.46295882      7.11788804
C       2.53211355      0.80328804      8.48439368
H      -0.84007168      1.46560267     -0.47242843
H       0.86991953      1.62070025     -0.27737061
H       0.16059586      0.05709230     -0.13673449
H      -1.14612071      0.85211618      1.91068219
H      -0.27469461      2.38014336      1.80194981
H       0.99599915     -0.38715519      2.29233498
H       1.77142549      1.19694414      2.16212835
H       0.45777536      2.07338551      4.01710863
H      -0.23339126      0.61849259      4.47515611
H       2.08361071     -0.39306004      4.71178417
H       2.80274400      1.11896027      4.53368327
H       3.41558009      0.36452204      8.95706682
H       1.67468839      0.36953322      8.98039242
H       2.54567212      1.89673873      8.63135560
23
Frame 20  Energy = -425.8862102885 Hartree
C      -0.00258953      1.11501100      0.11569185
C      -0.22709046      1.30587698      1.60065662
C       0.87858993      0.70607699      2.51670637
C       0.65946820      1.02658237      3.99844945
C       1.84914680      0.66465977      4.84919434
C       1.59310552      1.02650319      6.30833044
O       0.75060054      1.72264520      6.77252263
O       2.58490221      0.46242711      7.11946188
C       2.53030807      0.80502406      8.48379291
H      -0.84885131      1.46430479     -0.47610679
H       0.87476368      1.62905336     -0.27594545
H       0.15437998      0.06417021     -0.13677401
H      -1.15124408      0.85309231      1.91272003
H      -0.28087878      2.38413193      1.80178733
H       1.00528042     -0.38035965      2.29751410
H       1.76996422      1.19406083      2.15662385
H       0.46251414      2.07946443      4.01382439
H      -0.22301443      0.60378287      4.48101487
H       2.09156547     -0.38625397      4.70822392
H       2.79860721      1.13057421      4.54427567
H       3.42276833      0.37081273      8.95740065
H       1.66638016      0.37878362      8.97847378
H       2.53964659      1.88537206      8.63446134
23
Frame 25  Energy = -425.8863826625 Hartree
C      -0.00297820      1.11493156      0.11649063
C      -0.22675575      1.30253891      1.60046543
C       0.87601865      0.70412202      2.51638065
C       0.65861354      1.02445699      4.00022453
C       1.84623712      0.66266261      4.84754229
C       1.59602414      1.02770461      6.30919790
O       0.74932814      1.72489331      6.77266572
O       2.58690240      0.46194597      7.12088905
C       2.52862832      0.80673401      8.48328192
H      -0.85766521      1.46286261     -0.47921448
H       0.87953415      1.63789702     -0.27355542
H       0.14782525      0.07115913     -0.13679302
H      -1.15757192      0.85390192      1.91447632
H      -0.28731998      2.38749485      1.80171608
H       1.01430943     -0.37252985      2.30342472
H       1.77052488      1.19147646      2.15112797
H       0.46762344      2.08727095      4.01165382
H      -0.21277558      0.58821077      4.48564479
H       2.09876517     -0.37973921      4.70574055
H       2.79295344      1.14290441      4.55514015
H       3.42932847      0.37727399      8.95721150
H       1.65718991      0.38811043      8.97671433
H       2.53341829      1.87391120      8.63764738
23
Frame 30  Energy = -425.8862121424 Hartree
C      -0.00333970      1.11483708      0.11711200
C      -0.22641426      1.29926850      1.60044943
C       0.87329055      0.70220769      2.51597826
C       0.65775455      1.02239401      4.00178946
C       1.84334088      0.66068965      4.84589571
C       1.59925581      1.02866673      6.31016476
O       0.74792658      1.72713978      6.77288782
O       2.58877924      0.46155896      7.12211709
C       2.52717575      0.80834671      8.48294471
H      -0.86602369      1.46124554     -0.48168233
H       0.88359528      1.64656963     -0.27029764
H       0.14107461      0.07758378     -0.13685629
H      -1.16497988      0.85486140      1.91588712
H      -0.29361768      2.38963484      1.80193165
H       1.02286922     -0.36369605      2.30995142
H       1.77246665      1.18943562      2.14617926
H       0.47335121      2.09610004      4.01067505
H      -0.20291521      0.57185386      4.48890405
H       2.10550258     -0.37397797      4.70437788
H       2.78593941      1.15573904      4.56599649
H       3.43498372      0.38411425      8.95606548
H       1.64748706      0.39740320      8.97463235
H       2.52740505      1.86326487      8.64069870
23
Frame 35  Energy = -425.8866925569 Hartree
C      -0.00367196      1.11486034      0.11761834
C      -0.22600484      1.29612511      1.60063207
C       0.87036553      0.70042191      2.51549631
C       0.65691846      1.02035706      4.00310654
C       1.84053737      0.65875250      4.84437021
C       1.60281314      1.02944078      6.31131762
O       0.74641337      1.72939251      6.77301951
O       2.59055093      0.46124225      7.12310361
C       2.52583139      0.80964619      8.48290530
H      -0.87342001      1.45912617     -0.48333380
H       0.88697758      1.65499436     -0.26619845
H       0.13402545      0.08279251     -0.13704162
H      -1.17312271      0.85607448      1.91700652
H      -0.30014949      2.39034801      1.80215951
H       1.03083924     -0.35475114      2.31671841
H       1.77522507      1.18781261      2.14200826
H       0.47950893      2.10516014      4.01089552
H      -0.19381546      0.55490260      4.49084550
H       2.11198020     -0.36990688      4.70421745
H       2.77826220      1.16925291      4.57669941
H       3.43932210      0.39117317      8.95428701
H       1.63727704      0.40640234      8.97200843
H       2.52121224      1.85435101      8.64374927
23
Frame 40  Energy = -425.8865817736 Hartree
C      -0.00403192      1.11504029      0.11803006
C      -0.22555141      1.29302862      1.60095050
C       0.86732589      0.69879672      2.51493847
C       0.65617293      1.01841843      4.00427918
C       1.83790390      0.65691163      4.84294491
C       1.60663565      1.02994764      6.31275053
O       0.74488379      1.73163305      6.77308346
O       2.59218626      0.46106103      7.12391525
C       2.52460464      0.81061157      8.48315496
H      -0.87933113      1.45663504     -0.48377028
H       0.88905097      1.66292508     -0.26128506
H       0.12704251      0.08643830     -0.13709370
H      -1.18181333      0.85756807      1.91768872
H      -0.30659436      2.38926170      1.80255205
H       1.03840228     -0.34648944      2.32419955
H       1.77859739      1.18642072      2.13849913
H       0.48590091      2.11343857      4.01226177
H      -0.18557420      0.53780027      4.49136616
H       2.11809932     -0.36743613      4.70538274
H       2.76977049      1.18310839      4.58725287
H       3.44195744      0.39886972      8.95182366
H       1.62697485      0.41485374      8.96913818
H       2.51518812      1.84866279      8.64695534
23
Frame 45  Energy = -425.8860207249 Hartree
C      -0.00444497      1.11542900      0.11843157
C      -0.22520141      1.28994635      1.60139539
C       0.86423148      0.69746571      2.51416900
C       0.65551848      1.01667011      4.00520190
C       1.83552062      0.65523566      4.84177347
C       1.61067177      1.03020126      6.31447694
O       0.74337612      1.73381577      6.77305465
O       2.59367094      0.46101889      7.12455526
C       2.52353951      0.81130305      8.48361626
H      -0.88350770      1.45397082     -0.48281135
H       0.88979214      1.67041095     -0.25512889
H       0.12072118      0.08807917     -0.13743705
H      -1.19051555      0.85947543      1.91808212
H      -0.31278715      2.38606847      1.80292429
H       1.04568149     -0.33969603      2.33199744
H       1.78221767      1.18513721      2.13565922
H       0.49198512      2.12069587      4.01471955
H      -0.17813299      0.52083563      4.49072306
H       2.12402070     -0.36716695      4.70750102
H       2.76007245      1.19772749      4.59690630
H       3.44295795      0.40663587      8.94857685
H       1.61733420      0.42249565      8.96595101
H       2.50942184      1.84685855      8.64958748
23
Frame 50  Energy = -425.8863581025 Hartree
C      -0.00491116      1.11596262      0.11857666
C      -0.22503917      1.28691121      1.60200123
C       0.86120543      0.69644115      2.51335476
C       0.65490659      1.01526506      4.00573621
C       1.83332086      0.65373820      4.84085258
C       1.61485455      1.03024420      6.31648322
O       0.74194677      1.73597322      6.77292466
O       2.59494399      0.46099590      7.12495052
C       2.52257800      0.81170467      8.48430999
H      -0.88618941      1.45110725     -0.48051169
H       0.88904316      1.67674089     -0.24808985
H       0.11507269      0.08775512     -0.13844164
H      -1.19883758      0.86174417      1.91790708
H      -0.31891110      2.38090137      1.80333898
H       1.05258515     -0.33529451      2.33949267
H       1.78569117      1.18394529      2.13383000
H       0.49802119      2.12562731      4.01853827
H      -0.17172623      0.50401931      4.48858635
H       2.13008187     -0.36903196      4.71054843
H       2.74951405      1.21268255      4.60569507
H       3.44248012      0.41445570      8.94484262
H       1.60873595      0.42965821      8.96281334
H       2.50354604      1.84870942      8.65196296
23
Frame 55  Energy = -425.8863693480 Hartree
C      -0.00545783      1.11673653      0.11849735
C      -0.22503302      1.28396012      1.60280807
C       0.85834239      0.69573521      2.51254931
C       0.65428444      1.01412324      4.00608913
C       1.83137137      0.65248652      4.84025299
C       1.61909325      1.03016604      6.31867397
O       0.74059402      1.73807342      6.77264716
O       2.59606879      0.46107110      7.12514945
C       2.52170901      0.81185940      8.48514763
H      -0.88732018      1.44824230     -0.47675142
H       0.88668935      1.68166176     -0.24014942
H       0.11049656      0.08552859     -0.13983788
H      -1.20645958      0.86429303      1.91710393
H      -0.32471471      2.37381495      1.80347922
H       1.05906563     -0.33356385      2.34693712
H       1.78888230      1.18229809      2.13310158
H       0.50404739      2.12773504      4.02335860
H      -0.16668883      0.48800495      4.48506778
H       2.13609528     -0.37260726      4.71424698
H       2.73837925      1.22796451      4.61347666
H       3.44067857      0.42209798      8.94116067
H       1.60130495      0.43602115      8.95935503
H       2.49791033      1.85425705      8.65404584
23
Frame 60  Energy = -425.8866462984 Hartree
C      -0.00608632      1.11760593      0.11830478
C      -0.22518310      1.28102249      1.60378712
C       0.85561352      0.69537852      2.51177846
C       0.65359681      1.01333598      4.00632227
C       1.82959323      0.65143901      4.83996350
C       1.62327620      1.02994105      6.32107436
O       0.73942581      1.74005520      6.77228134
O       2.59703182      0.46129948      7.12509275
C       2.52095465      0.81172951      8.48613956
H      -0.88677580      1.44537692     -0.47189944
H       0.88276051      1.68542265     -0.23175627
H       0.10662883      0.08166767     -0.14154599
H      -1.21279447      0.86716918      1.91565690
H      -0.32992668      2.36507041      1.80339004
H       1.06526121     -0.33453003      2.35425508
H       1.79147120      1.18044069      2.13338329
H       0.50975443      2.12727347      4.02929814
H      -0.16304120      0.47253619      4.48036845
H       2.14210311     -0.37753556      4.71905406
H       2.72677762      1.24318655      4.62061031
H       3.43753311      0.42935233      8.93740692
H       1.59487398      0.44147692      8.95549493
H       2.49280106      1.86304111      8.65586035
23
Frame 65  Energy = -425.8868982280 Hartree
C      -0.00670024      1.11853535      0.11790934
C      -0.22547445      1.27819305      1.60486853
C       0.85304439      0.69534705      2.51105710
C       0.65283079      1.01282023      4.00637114
C       1.82803160      0.65059085      4.83992336
C       1.62730204      1.02965091      6.32366800
O       0.73842600      1.74188790      6.77185758
O       2.59774877      0.46161594      7.12481378
C       2.52027812      0.81155761      8.48724112
H      -0.88474077      1.44291924     -0.46597696
H       0.87746822      1.68806440     -0.22315898
H       0.10336116      0.07631168     -0.14340708
H      -1.21762405      0.87038125      1.91367309
H      -0.33469029      2.35497067      1.80349855
H       1.07067856     -0.33858640      2.36133057
H       1.79315897      1.17822020      2.13463446
H       0.51448687      2.12436417      4.03630963
H      -0.16107212      0.45788465      4.47463380
H       2.14808589     -0.38320396      4.72465264
H       2.71503719      1.25826130      4.62687948
H       3.43342263      0.43599236      8.93384099
H       1.58982348      0.44633494      8.95134910
H       2.48809777      1.87406181      8.65706160
23
Frame 70  Energy = -425.8869779563 Hartree
C      -0.00741552      1.11942779      0.11739224
C      -0.22596894      1.27546797      1.60599085
C       0.85064421      0.69554649      2.51027835
C       0.65205654      1.01245640      4.00624473
C       1.82674956      0.64988233      4.84023748
C       1.63124457      1.02938209      6.32637759
O       0.73758038      1.74355300      6.77124391
O       2.59822211      0.46198971      7.12438308
C       2.51957559      0.81141858      8.48850803
H      -0.88195003      1.44064509     -0.45943870
H       0.87099322      1.68969210     -0.21404014
H       0.10131345      0.06972196     -0.14544743
H      -1.22080502      0.87434594      1.91111539
H      -0.33922600      2.34450049      1.80394844
H       1.07468429     -0.34548030      2.36800602
H       1.79386091      1.17580818      2.13706711
H       0.51871999      2.11939398      4.04453141
H      -0.16031069      0.44471035      4.46774144
H       2.15404116     -0.38895140      4.73030470
H       2.70359229      1.27324423      4.63200645
H       3.42889268      0.44193804      8.93064302
H       1.58607542      0.45057783      8.94694651
H       2.48377682      1.88622513      8.65728274
23
Frame 75  Energy = -425.8868520883 Hartree
C      -0.00814760      1.12033921      0.11692510
C      -0.22666114      1.27278163      1.60720621
C       0.84832546      0.69604731      2.50961374
C       0.65129822      1.01223420      4.00594755
C       1.82572455      0.64933751      4.84094502
C       1.63493164      1.02906401      6.32930741
O       0.73689628      1.74497578      6.77055748
O       2.59855623      0.46240376      7.12383970
C       2.51873993      0.81134550      8.48989192
H      -0.87883741      1.43884731     -0.45232795
H       0.86360726      1.69048424     -0.20512006
H       0.09997358      0.06256593     -0.14759854
H      -1.22282664      0.87827459      1.90777865
H      -0.34317466      2.33403021      1.80460547
H       1.07733303     -0.35416543      2.37429663
H       1.79360869      1.17308492      2.14100901
H       0.52196757      2.11236714      4.05426267
H      -0.16029931      0.43309331      4.45950219
H       2.15970690     -0.39399127      4.73656842
H       2.69191107      1.28814884      4.63555845
H       3.42439771      0.44663767      8.92815207
H       1.58307800      0.45429419      8.94233310
H       2.47999496      1.89849262      8.65638693
23
Frame 80  Energy = -425.8863323876 Hartree
C      -0.00891312      1.12112678      0.11635124
C      -0.22755796      1.27005846      1.60850720
C       0.84621399      0.69685033      2.50905579
C       0.65056773      1.01210631      4.00535827
C       1.82503223      0.64889309      4.84193884
C       1.63835539      1.02867795      6.33239611
O       0.73648590      1.74609279      6.76978979
O       2.59880608      0.46293840      7.12307152
C       2.51779195      0.81140645      8.49134052
H      -0.87562354      1.43768122     -0.44504374
H       0.85594749      1.69045458     -0.19682994
H       0.09883325      0.05562934     -0.14972300
H      -1.22399298      0.88175683      1.90412731
H      -0.34631303      2.32423409      1.80563226
H       1.07876367     -0.36367656      2.37981393
H       1.79243268      1.17023611      2.14623541
H       0.52405237      2.10376048      4.06513980
H      -0.16133616      0.42305600      4.44998298
H       2.16500716     -0.39784883      4.74360953
H       2.68047127      1.30241052      4.63748366
H       3.42024339      0.44982530      8.92670023
H       1.58125153      0.45751743      8.93770786
H       2.47605620      1.91028472      8.65447581
23
Frame 85  Energy = -425.8864045192 Hartree
C      -0.00969202      1.12174521      0.11572207
C      -0.22869240      1.26722063      1.60988539
C       0.84443132      0.69779377      2.50857143
C       0.64989129      1.01207536      4.00466177
C       1.82468577      0.64849368      4.84329574
C       1.64158157      1.02820750      6.33566085
O       0.73640460      1.74700980      6.76882467
O       2.59896345      0.46356674      7.12212311
C       2.51675519      0.81181855      8.49283242
H      -0.87297293      1.43748472     -0.43825209
H       0.84876939      1.69009288     -0.18927248
H       0.09852346      0.04974461     -0.15176469
H      -1.22399318      0.88500016      1.89994716
H      -0.34904475      2.31603345      1.80728223
H       1.07872788     -0.37384399      2.38499287
H       1.79052502      1.16723467      2.15267290
H       0.52508544      2.09415369      4.07696014
H      -0.16332060      0.41496420      4.43915068
H       2.16987048     -0.40008317      4.75102990
H       2.66987083      1.31575656      4.63809872
H       3.41705639      0.45195414      8.92667519
H       1.58081170      0.45974820      8.93301753
H       2.47229588      1.92066353      8.65144505
23
Frame 90  Energy = -425.8874008137 Hartree
C      -0.01048147      1.12217150      0.11521477
C      -0.23002507      1.26422014      1.61128832
C       0.84296539      0.69884325      2.50815868
C       0.64924748      1.01201144      4.00381677
C       1.82475426      0.64811688      4.84492851
C       1.64450205      1.02783459      6.33898996
O       0.73659158      1.74773221      6.76776480
O       2.59898072      0.46436369      7.12103057
C       2.51551848      0.81258865      8.49433306
H      -0.87105244      1.43825972     -0.43212932
H       0.84265977      1.68973457     -0.18256958
H       0.09917992      0.04517831     -0.15394991
H      -1.22321897      0.88766840      1.89540107
H      -0.35104663      2.30933645      1.80965820
H       1.07721268     -0.38379355      2.39018407
H       1.78776475      1.16422214      2.15998677
H       0.52497059      2.08448677      4.08944696
H      -0.16586712      0.40885207      4.42681518
H       2.17416633     -0.40082756      4.75867874
H       2.65977884      1.32816378      4.63723490
H       3.41521058      0.45261463      8.92835991
H       1.58115111      0.46090466      8.92812413
H       2.46923334      1.92910349      8.64696967
23
Frame 95  Energy = -425.8869698650 Hartree
C      -0.01124092      1.12227191      0.11486702
C      -0.23150906      1.26115218      1.61268182
C       0.84172601      0.69991995      2.50785142
C       0.64858606      1.01167489      4.00287673
C       1.82517635      0.64784128      4.84691771
C       1.64709208      1.02752590      6.34231068
O       0.73707519      1.74829226      6.76659203
O       2.59885068      0.46525238      7.11979458
C       2.51420777      0.81378312      8.49584146
H      -0.87058159      1.44012107     -0.42648879
H       0.83835966      1.69003920     -0.17687574
H       0.10051973      0.04259467     -0.15576855
H      -1.22196118      0.88931486      1.89053440
H      -0.35227997      2.30465935      1.81277162
H       1.07432284     -0.39266145      2.39517484
H       1.78405421      1.16101555      2.16769516
H       0.52347488      2.07509345      4.10220389
H      -0.16886735      0.40437977      4.41340324
H       2.17800495     -0.39972377      4.76636414
H       2.65037262      1.33936853      4.63520508
H       3.41434464      0.45214428      8.93128001
H       1.58198483      0.46042398      8.92352828
H       2.46691580      1.93497896      8.64167633
23
Frame 100  Energy = -425.8870035089 Hartree
C      -0.01204232      1.12197744      0.11463402
C      -0.23319362      1.25806067      1.61405799
C       0.84070129      0.70088975      2.50751043
C       0.64797415      1.01114111      4.00182287
C       1.82586390      0.64767981      4.84923332
C       1.64931335      1.02719622      6.34553617
O       0.73786217      1.74863516      6.76530600
O       2.59857041      0.46623424      7.11842984
C       2.51292082      0.81539638      8.49736345
H      -0.87171504      1.44338908     -0.42187481
H       0.83615144      1.69090758     -0.17206358
H       0.10225069      0.04199927     -0.15725591
H      -1.22071848      0.88972293      1.88564574
H      -0.35284580      2.30219481      1.81654151
H       1.07008105     -0.39973786      2.39980099
H       1.78014133      1.15775310      2.17605033
H       0.52015317      2.06642789      4.11545451
H      -0.17264378      0.40127673      4.39909730
H       2.18129296     -0.39697193      4.77397294
H       2.64161431      1.34963404      4.63223417
H       3.41429200      0.45068926      8.93535683
H       1.58301184      0.45878253      8.91956447
H       2.46514304      1.93842088      8.63529775
23
Frame 105  Energy = -425.8870197856 Hartree
C      -0.01288112      1.12122425      0.11449087
C      -0.23500057      1.25503210      1.61546158
C       0.83997435      0.70171407      2.50727459
C       0.64735782      1.01040729      4.00075993
C       1.82667444      0.64759021      4.85183739
C       1.65113032      1.02695233      6.34868483
O       0.73890549      1.74879024      6.76389135
O       2.59820222      0.46730876      7.11702620
C       2.51158423      0.81740948      8.49883027
H      -0.87421174      1.44798834     -0.41804804
H       0.83580734      1.69225192     -0.16860042
H       0.10479408      0.04359035     -0.15855938
H      -1.21926129      0.88886425      1.88061047
H      -0.35281078      2.30166851      1.82131871
H       1.06433533     -0.40479129      2.40376069
H       1.77692201      1.15473804      2.18453397
H       0.51497856      2.05912311      4.12918332
H      -0.17725004      0.39959425      4.38437729
H       2.18435668     -0.39256745      4.78157003
H       2.63372612      1.35876030      4.62820181
H       3.41464374      0.44835627      8.94047560
H       1.58431533      0.45621785      8.91614656
H       2.46403991      1.93952783      8.62782228
23
Frame 110  Energy = -425.8873351475 Hartree
C      -0.01375344      1.11999469      0.11442543
C      -0.23694658      1.25206370      1.61680925
C       0.83949345      0.70232161      2.50713145
C       0.64681986      1.00936426      3.99967587
C       1.82773241      0.64760610      4.85473392
C       1.65261248      1.02697058      6.35178029
O       0.74016545      1.74877671      6.76239647
O       2.59773232      0.46847684      7.11559366
C       2.51027735      0.81985552      8.50027080
H      -0.87791605      1.45370592     -0.41514215
H       0.83734968      1.69437553     -0.16621261
H       0.10807738      0.04730924     -0.15930930
H      -1.21812276      0.88670041      1.87570191
H      -0.35227323      2.30291259      1.82674454
H       1.05695597     -0.40732634      2.40714992
H       1.77426606      1.15202318      2.19289511
H       0.50816898      2.05381425      4.14348686
H      -0.18242681      0.39907102      4.36931711
H       2.18751732     -0.38706492      4.78901798
H       2.62678880      1.36664180      4.62303567
H       3.41510909      0.44562817      8.94687068
H       1.58550211      0.45251673      8.91349122
H       2.46367039      1.93794517      8.61955082
23
Frame 115  Energy = -425.8875047007 Hartree
C      -0.01463694      1.11843502      0.11442759
C      -0.23906924      1.24923214      1.61800299
C       0.83927892      0.70270883      2.50714552
C       0.64634584      1.00811355      3.99852264
C       1.82905789      0.64775887      4.85785616
C       1.65373424      1.02718203      6.35476065
O       0.74173735      1.74850568      6.76087687
O       2.59717886      0.46967068      7.11423222
C       2.50894272      0.82261960      8.50161626
H      -0.88247386      1.46048795     -0.41311906
H       0.84074486      1.69707566     -0.16487281
H       0.11217180      0.05265146     -0.15998474
H      -1.21792806      0.88268841      1.87094851
H      -0.35126176      2.30554909      1.83294679
H       1.04801085     -0.40733216      2.40986171
H       1.77273224      1.14980026      2.20068008
H       0.49977671      2.05068428      4.15784423
H      -0.18829308      0.39979118      4.35416675
H       2.19019059     -0.38069442      4.79616323
H       2.62063330      1.37334530      4.61657907
H       3.41522025      0.44240639      8.95407719
H       1.58662922      0.44808952      8.91123860
H       2.46384290      1.93379459      8.61090820
23
Frame 120  Energy = -425.8873865156 Hartree
C      -0.01547629      1.11659565      0.11459000
C      -0.24128795      1.24660795      1.61908515
C       0.83926613      0.70297319      2.50736496
C       0.64582684      1.00668925      3.99742329
C       1.83057849      0.64808692      4.86134462
C       1.65453255      1.02749909      6.35748429
O       0.74361655      1.74801830      6.75931716
O       2.59666032      0.47086318      7.11288739
C       2.50773563      0.82553631      8.50287934
H      -0.88779949      1.46828793     -0.41213987
H       0.84515671      1.70041056     -0.16468671
H       0.11698981      0.05926146     -0.16073137
H      -1.21904880      0.87698855      1.86646560
H      -0.34961655      2.30917010      1.83973930
H       1.03772461     -0.40529178      2.41216110
H       1.77273182      1.14809776      2.20774430
H       0.48969936      2.04928733      4.17179842
H      -0.19508423      0.40149186      4.33935574
H       2.19257259     -0.37377438      4.80273459
H       2.61554417      1.37889866      4.60931778
H       3.41482398      0.43865915      8.96155970
H       1.58768587      0.44284797      8.90926167
H       2.46457413      1.92727672      8.60206423
23
Frame 125  Energy = -425.8871597012 Hartree
C      -0.01619874      1.11464620      0.11488546
C      -0.24358007      1.24401995      1.62013209
C       0.83924983      0.70308578      2.50778666
C       0.64525667      1.00499769      3.99637545
C       1.83223571      0.64860017      4.86502359
C       1.65492995      1.02790837      6.36002071
O       0.74573578      1.74725557      6.75777577
O       2.59617545      0.47208153      7.11157654
C       2.50663232      0.82863438      8.50400800
H      -0.89367382      1.47690915     -0.41207544
H       0.85072618      1.70426546     -0.16567241
H       0.12193161      0.06689997     -0.16151513
H      -1.22099447      0.86954927      1.86226785
H      -0.34744622      2.31326110      1.84672917
H       1.02624586     -0.40135161      2.41386657
H       1.77429242      1.14698147      2.21446939
H       0.47780502      2.04926378      4.18544110
H      -0.20272855      0.40431955      4.32473924
H       2.19473278     -0.36688338      4.80908130
H       2.61151923      1.38273447      4.60120122
H       3.41391957      0.43456139      8.96915171
H       1.58860293      0.43628245      8.90798621
H       2.46569600      1.91952945      8.59303011
23
Frame 130  Energy = -425.8862515818 Hartree
C      -0.01679051      1.11260996      0.11531587
C      -0.24601128      1.24155267      1.62105260
C       0.83935692      0.70292629      2.50835809
C       0.64460571      1.00303029      3.99527808
C       1.83403701      0.64942796      4.86887393
C       1.65499407      1.02833686      6.36235371
O       0.74805101      1.74627024      6.75631591
O       2.59573767      0.47342175      7.11032069
C       2.50564007      0.83176044      8.50501617
H      -0.89923656      1.48597207     -0.41261668
H       0.85645178      1.70791554     -0.16747954
H       0.12709317      0.07494445     -0.16243565
H      -1.22370823      0.86033002      1.85880457
H      -0.34463819      2.31729974      1.85341021
H       1.01357862     -0.39558979      2.41498927
H       1.77762620      1.14644085      2.22028041
H       0.46417617      2.05026677      4.19834795
H      -0.21114384      0.40816700      4.31076618
H       2.19748543     -0.36072300      4.81518797
H       2.60839774      1.38501855      4.59259285
H       3.41211574      0.43054908      8.97645327
H       1.58909400      0.42896594      8.90718694
H       2.46742088      1.91154705      8.58402152
23
Frame 135  Energy = -425.8881077617 Hartree
C      -0.01731001      1.11058556      0.11585457
C      -0.24855725      1.23918130      1.62191651
C       0.83952858      0.70268128      2.50908444
C       0.64387005      1.00089008      3.99416043
C       1.83592328      0.65056942      4.87287935
C       1.65467035      1.02881756      6.36450782
O       0.75056316      1.74521862      6.75491194
O       2.59531966      0.47477570      7.10914407
C       2.50478950      0.83493140      8.50590836
H      -0.90418152      1.49506203     -0.41321698
H       0.86191222      1.71089334     -0.16927407
H       0.13270589      0.08269075     -0.16360436
H      -1.22725851      0.84957456      1.85602452
H      -0.34146058      2.32068165      1.85959204
H       0.99961539     -0.38846151      2.41546897
H       1.78281090      1.14637383      2.22517403
H       0.44941331      2.05160948      4.21050184
H      -0.22044799      0.41257445      4.29767343
H       2.20077096     -0.35494836      4.82088465
H       2.60589563      1.38556968      4.58379343
H       3.40909764      0.42690133      8.98352181
H       1.58903780      0.42125026      8.90706978
H       2.46915384      1.90371663      8.57549861
23
Frame 140  Energy = -425.8885500400 Hartree
C      -0.01785552      1.10871245      0.11632334
C      -0.25121025      1.23703548      1.62266774
C       0.83980876      0.70236400      2.50992231
C       0.64299875      0.99858872      3.99316888
C       1.83787825      0.65189234      4.87701525
C       1.65410697      1.02928349      6.36641255
O       0.75322502      1.74400662      6.75352042
O       2.59496199      0.47611230      7.10811257
C       2.50406383      0.83798000      8.50663652
H      -0.90796259      1.50356648     -0.41370765
H       0.86668729      1.71310501     -0.17116485
H       0.13872160      0.08922119     -0.16535486
H      -1.23150846      0.83775627      1.85372752
H      -0.33824815      2.32280436      1.86578246
H       0.98507386     -0.38115514      2.41532080
H       1.78886988      1.14661218      2.22891201
H       0.43417555      2.05315475      4.22146463
H      -0.23041053      0.41755786      4.28581970
H       2.20464919     -0.35001885      4.82584442
H       2.60414985      1.38432883      4.57464983
H       3.40455560      0.42370555      8.98996406
H       1.58900497      0.41316277      8.90735800
H       2.47086134      1.89672965      8.56775435
23
Frame 145  Energy = -425.8885395240 Hartree
C      -0.01836482      1.10709391      0.11680170
C      -0.25393892      1.23503199      1.62337305
C       0.84020987      0.70194575      2.51098714
C       0.64196509      0.99635953      3.99223290
C       1.83987988      0.65354500      4.88131265
C       1.65323134      1.02974121      6.36802052
O       0.75586142      1.74268719      6.75211733
O       2.59457375      0.47751382      7.10723526
C       2.50335048      0.84070172      8.50725484
H      -0.91018834      1.51148409     -0.41389504
H       0.87041884      1.71437988     -0.17352023
H       0.14468899      0.09423683     -0.16777500
H      -1.23563655      0.82519468      1.85246794
H      -0.33526872      2.32386262      1.87130847
H       0.97001098     -0.37396479      2.41441869
H       1.79551763      1.14740586      2.23175415
H       0.41835207      2.05391428      4.23059271
H      -0.24074221      0.42259020      4.27483223
H       2.20933583     -0.34652207      4.82996466
H       2.60320254      1.38119513      4.56552355
H       3.39833339      0.42081765      8.99595721
H       1.58932155      0.40513277      8.90791374
H       2.47256396      1.89212623      8.56123398
23
Frame 150  Energy = -425.8902385665 Hartree
C      -0.01886526      1.10574240      0.11727052
C      -0.25670510      1.23329472      1.62414649
C       0.84078262      0.70155660      2.51228489
C       0.64081738      0.99410443      3.99144982
C       1.84177541      0.65561085      4.88571782
C       1.65209092      1.03014144      6.36926427
O       0.75853012      1.74142431      6.75082863
O       2.59430329      0.47894666      7.10647266
C       2.50269882      0.84307496      8.50777668
H      -0.91044354      1.51856302     -0.41374940
H       0.87250722      1.71424369     -0.17536463
H       0.15073733      0.09768215     -0.17093234
H      -1.23944875      0.81240690      1.85184239
H      -0.33241040      2.32344064      1.87577609
H       0.95456612     -0.36740630      2.41271068
H       1.80230844      1.14838395      2.23383007
H       0.40246863      2.05324703      4.23830508
H      -0.25121709      0.42756798      4.26509178
H       2.21481184     -0.34445190      4.83324415
H       2.60310208      1.37660924      4.55681115
H       3.39088382      0.41850097      9.00140011
H       1.59019152      0.39711850      8.90904807
H       2.47408860      1.89062421      8.55581547
23
Frame 155  Energy = -425.8912182692 Hartree
C      -0.01930161      1.10480899      0.11785714
C      -0.25951108      1.23180923      1.62499516
C       0.84157800      0.70130714      2.51381840
C       0.63952075      0.99194232      3.99075428
C       1.84358453      0.65797417      4.89005774
C       1.65071514      1.03044908      6.37016466
O       0.76110626      1.74013332      6.74967982
O       2.59423366      0.48047431      7.10590628
C       2.50210007      0.84506768      8.50824352
H      -0.90869804      1.52444766     -0.41307399
H       0.87303152      1.71284993     -0.17672613
H       0.15683507      0.09887198     -0.17502872
H      -1.24284429      0.79936589      1.85140626
H      -0.32987138      2.32131935      1.87937783
H       0.93932095     -0.36233592      2.40996138
H       1.80872269      1.14947597      2.23541477
H       0.38667793      2.05099835      4.24469340
H      -0.26165407      0.43249441      4.25677677
H       2.22116507     -0.34392250      4.83587761
H       2.60394604      1.37054738      4.54827822
H       3.38267096      0.41705228      9.00648518
H       1.59152100      0.38910684      8.91057794
H       2.47554583      1.89226209      8.55140715
23
Frame 160  Energy = -425.8914080678 Hartree
C      -0.01974352      1.10426550      0.11852400
C      -0.26234117      1.23059292      1.62590306
C       0.84263968      0.70119680      2.51545564
C       0.63820748      0.98977138      3.99021930
C       1.84517217      0.66059009      4.89432862
C       1.64917442      1.03077747      6.37065451
O       0.76356251      1.73883125      6.74868253
O       2.59427687      0.48207327      7.10553680
C       2.50155051      0.84673757      8.50864692
H      -0.90487267      1.52920501     -0.41208265
H       0.87185847      1.71015156     -0.17784844
H       0.16295435      0.09803000     -0.17993366
H      -1.24555334      0.78607774      1.85126549
H      -0.32777723      2.31744289      1.88229705
H       0.92432006     -0.35908652      2.40644796
H       1.81416194      1.15006183      2.23656352
H       0.37138811      2.04713189      4.24971190
H      -0.27146026      0.43721078      4.24996759
H       2.22806018     -0.34445169      4.83788172
H       2.60603591      1.36355433      4.54007818
H       3.37401677      0.41629069      9.01102288
H       1.59324632      0.38209158      8.91216346
H       2.47649469      1.89691842      8.54785138
23
Frame 165  Energy = -425.8913667342 Hartree
C      -0.02017273      1.10406662      0.11917234
C      -0.26523625      1.22961657      1.62682856
C       0.84393012      0.70125702      2.51713585
C       0.63678703      0.98756946      3.98976463
C       1.84658493      0.66340190      4.89850256
C       1.64758054      1.03109441      6.37072231
O       0.76596463      1.73762381      6.74779302
O       2.59435558      0.48365291      7.10535337
C       2.50097594      0.84810100      8.50909598
H      -0.89969081      1.53286837     -0.41058713
H       0.86928267      1.70658957     -0.17805501
H       0.16901201      0.09526872     -0.18550671
H      -1.24700406      0.77316929      1.85157971
H      -0.32632614      2.31194660      1.88442724
H       0.90940189     -0.35801858      2.40218291
H       1.81869347      1.15000907      2.23760628
H       0.35676850      2.04182137      4.25282012
H      -0.28054667      0.44152729      4.24429483
H       2.23522426     -0.34572788      4.83918633
H       2.60914975      1.35586114      4.53254964
H       3.36519152      0.41616195      9.01475934
H       1.59578119      0.37634152      8.91367899
H       2.47706126      1.90461249      8.54518091
23
Frame 170  Energy = -425.8913604576 Hartree
C      -0.02053112      1.10420947      0.11982956
C      -0.26814536      1.22884337      1.62774492
C       0.84548893      0.70152998      2.51883249
C       0.63505038      0.98547851      3.98944475
C       1.84791722      0.66638617      4.90256149
C       1.64608616      1.03130764      6.37027207
O       0.76824531      1.73651786      6.74705204
O       2.59451059      0.48528731      7.10541369
C       2.50034348      0.84913504      8.50949562
H      -0.89300739      1.53518861     -0.40894036
H       0.86550974      1.70231746     -0.17806916
H       0.17480845      0.09119513     -0.19137028
H      -1.24741286      0.76068793      1.85208846
H      -0.32554296      2.30525998      1.88534875
H       0.89486985     -0.35926892      2.39710386
H       1.82235793      1.14903603      2.23834654
H       0.34279775      2.03450560      4.25388125
H      -0.28863486      0.44560013      4.24006951
H       2.24182823     -0.34708659      4.83979207
H       2.61342973      1.34747735      4.52571322
H       3.35623481      0.41645789      9.01762540
H       1.59883665      0.37179632      8.91507717
H       2.47714201      1.91474364      8.54365336
23
Frame 175  Energy = -425.8898730923 Hartree
C      -0.02075755      1.10458054      0.12054569
C      -0.27105469      1.22824187      1.62867358
C       0.84720412      0.70194074      2.52053370
C       0.63305343      0.98351804      3.98931203
C       1.84918244      0.66946293      4.90656255
C       1.64472484      1.03128299      6.36934043
O       0.77041365      1.73555470      6.74651105
O       2.59482249      0.48687540      7.10566643
C       2.49957516      0.84988983      8.50979159
H      -0.88536361      1.53629359     -0.40705791
H       0.86071528      1.69737644     -0.17755384
H       0.18030904      0.08645940     -0.19733421
H      -1.24647052      0.74883283      1.85283419
H      -0.32569702      2.29778454      1.88561770
H       0.88141223     -0.36264404      2.39137867
H       1.82477610      1.14695639      2.23881258
H       0.32952176      2.02546019      4.25328665
H      -0.29582928      0.44899100      4.23728119
H       2.24788975     -0.34811625      4.83993081
H       2.61873251      1.33879192      4.51948266
H       3.34756620      0.41697983      9.01990636
H       1.60214404      0.36854857      8.91650080
H       2.47650805      1.92658503      8.54313559
23
Frame 180  Energy = -425.8898016973 Hartree
C      -0.02084620      1.10509981      0.12135863
C      -0.27398844      1.22774039      1.62954363
C       0.84905372      0.70247110      2.52222659
C       0.63081678      0.98163654      3.98930149
C       1.85030436      0.67249226      4.91041424
C       1.64349431      1.03107869      6.36790148
O       0.77240295      1.73486738      6.74610955
O       2.59525477      0.48844597      7.10616356
C       2.49873361      0.85056336      8.50996317
H      -0.87706583      1.53665174     -0.40497899
H       0.85481798      1.69224019     -0.17653539
H       0.18502522      0.08185770     -0.20313713
H      -1.24422852      0.73776640      1.85376138
H      -0.32686200      2.29024937      1.88475096
H       0.86923775     -0.36770942      2.38490031
H       1.82599943      1.14382482      2.23901304
H       0.31723670      2.01502768      4.25121835
H      -0.30215950      0.45134108      4.23559113
H       2.25332828     -0.34894982      4.83962919
H       2.62518525      1.32962776      4.51424052
H       3.33952896      0.41748916      9.02168728
H       1.60570442      0.36649789      8.91794154
H       2.47569547      1.93910241      8.54366500
23
Frame 185  Energy = -425.8897229485 Hartree
C      -0.02081453      1.10576882      0.12216689
C      -0.27695200      1.22727180      1.63037338
C       0.85099540      0.70318599      2.52390488
C       0.62834302      0.97979435      3.98948793
C       1.85127106      0.67546379      4.91398837
C       1.64255506      1.03066189      6.36601420
O       0.77422674      1.73431807      6.74579436
O       2.59573975      0.49005143      7.10690374
C       2.49788081      0.85118194      8.51001704
H      -0.86814218      1.53617850     -0.40303256
H       0.84830035      1.68709679     -0.17509272
H       0.18865585      0.07756533     -0.20853163
H      -1.24059611      0.72765384      1.85514533
H      -0.32936744      2.28258317      1.88322262
H       0.85821797     -0.37404451      2.37780403
H       1.82592877      1.13984009      2.23861841
H       0.30655708      2.00358874      4.24781351
H      -0.30720147      0.45244278      4.23535839
H       2.25807291     -0.34950314      4.83900958
H       2.63250545      1.32029348      4.50974109
H       3.33256173      0.41800931      9.02344443
H       1.60916941      0.36594720      8.91925197
H       2.47476386      1.95146530      8.54525910
23
Frame 190  Energy = -425.8898494226 Hartree
C      -0.02067326      1.10634584      0.12311411
C      -0.27982385      1.22678394      1.63112834
C       0.85289596      0.70391077      2.52559482
C       0.62566927      0.97800407      3.98992909
C       1.85207210      0.67839900      4.91725376
C       1.64184450      1.02999622      6.36380030
O       0.77579694      1.73401819      6.74567010
O       2.59631144      0.49169918      7.10783689
C       2.49695075      0.85183026      8.50995767
H      -0.85935789      1.53500072     -0.40148448
H       0.84183942      1.68219304     -0.17311567
H       0.19121686      0.07382026     -0.21362274
H      -1.23585723      0.71845036      1.85728633
H      -0.33325193      2.27512488      1.88135063
H       0.84845345     -0.38099996      2.37036171
H       1.82472429      1.13500970      2.23793500
H       0.29740596      1.99221018      4.24318704
H      -0.31076337      0.45251766      4.23671760
H       2.26208885     -0.34896783      4.83853304
H       2.64000207      1.31115072      4.50620845
H       3.32675624      0.41878279      9.02507911
H       1.61257526      0.36690691      8.92072411
H       2.47365394      1.96269001      8.54818890
23
Frame 195  Energy = -425.8900467943 Hartree
C      -0.02052709      1.10676428      0.12417013
C      -0.28255568      1.22619669      1.63175857
C       0.85476342      0.70469247      2.52727834
C       0.62280753      0.97625291      3.99068689
C       1.85278048      0.68118100      4.92007070
C       1.64136887      1.02913645      6.36127699
O       0.77707284      1.73397864      6.74568944
O       2.59688886      0.49336643      7.10896730
C       2.49593418      0.85260115      8.50969565
H      -0.85112919      1.53328959     -0.40027443
H       0.83619025      1.67790639     -0.17115965
H       0.19282288      0.07123680     -0.21791063
H      -1.23024142      0.71027409      1.85964603
H      -0.33880860      2.26865253      1.87906603
H       0.84011365     -0.38794462      2.36251380
H       1.82282687      1.12946783      2.23668030
H       0.28940224      1.98145052      4.23742571
H      -0.31280064      0.45112863      4.23917333
H       2.26493244     -0.34735064      4.83813273
H       2.64795297      1.30186559      4.50371795
H       3.32272108      0.41946529      9.02656330
H       1.61533211      0.36875660      8.92219215
H       2.47223074      1.97164155      8.55222878
23
Frame 200  Energy = -425.8899891412 Hartree
C      -0.02040729      1.10699679      0.12534249
C      -0.28515215      1.22550620      1.63237753
C       0.85659169      0.70536920      2.52890688
C       0.61983615      0.97449817      3.99171128
C       1.85340280      0.68381174      4.92249944
C       1.64111045      1.02808170      6.35837923
O       0.77809207      1.73416167      6.74590964
O       2.59747722      0.49490636      7.11036493
C       2.49481184      0.85355991      8.50936402
H      -0.84409986      1.53150997     -0.40003489
H       0.83206678      1.67496485     -0.16918512
H       0.19350239      0.06993509     -0.22146683
H      -1.22399071      0.70291468      1.86218585
H      -0.34556656      2.26368525      1.87650040
H       0.83304161     -0.39452339      2.35484876
H       1.82043151      1.12347931      2.23497287
H       0.28243442      1.97165103      4.23058422
H      -0.31336053      0.44891082      4.24278547
H       2.26633270     -0.34463130      4.83788771
H       2.65623507      1.29284655      4.50238626
H       3.32064700      0.42016652      9.02827545
H       1.61749648      0.37156966      8.92348586
H       2.47081629      1.97819394      8.55689323
23
Frame 205  Energy = -425.8901812672 Hartree
C      -0.02026717      1.10717736      0.12665899
C      -0.28758193      1.22474692      1.63293692
C       0.85837504      0.70587866      2.53044737
C       0.61678648      0.97257855      3.99286513
C       1.85381555      0.68621807      4.92454615
C       1.64113201      1.02692086      6.35517983
O       0.77881342      1.73451853      6.74634221
O       2.59821906      0.49642276      7.11197540
C       2.49356216      0.85471554      8.50885774
H      -0.83881739      1.52946062     -0.40125479
H       0.82980534      1.67326636     -0.16701919
H       0.19343037      0.07032966     -0.22419314
H      -1.21750900      0.69635357      1.86495100
H      -0.35379597      2.26049465      1.87402527
H       0.82723971     -0.40038458      2.34736772
H       1.81765381      1.11711360      2.23247643
H       0.27634842      1.96332421      4.22287664
H      -0.31284371      0.44540425      4.24776286
H       2.26648955     -0.34095017      4.83802641
H       2.66484268      1.28427875      4.50205410
H       3.32062156      0.42060906      9.03027988
H       1.61838609      0.37517498      8.92458173
H       2.46927781      1.98190448      8.56224141
23
Frame 210  Energy = -425.8901118388 Hartree
C      -0.02005747      1.10715891      0.12807908
C      -0.28974932      1.22389618      1.63345905
C       0.86004666      0.70612727      2.53187027
C       0.61369855      0.97048061      3.99407887
C       1.85411099      0.68839777      4.92612967
C       1.64140050      1.02569467      6.35183853
O       0.77932097      1.73510588      6.74692125
O       2.59896116      0.49791738      7.11370069
C       2.49229321      0.85607672      8.50821447
H      -0.83546872      1.52719442     -0.40420346
H       0.82949256      1.67314845     -0.16485811
H       0.19250927      0.07193652     -0.22608079
H      -1.21105794      0.69056776      1.86813641
H      -0.36344614      2.25960452      1.87193693
H       0.82304405     -0.40468918      2.34041634
H       1.81494410      1.11061949      2.22929572
H       0.27133184      1.95726455      4.21446272
H      -0.31145567      0.44086375      4.25413212
H       2.26551080     -0.33640963      4.83868143
H       2.67367840      1.27603501      4.50294873
H       3.32232249      0.42115283      9.03240321
H       1.61827286      0.37990089      8.92553648
H       2.46757870      1.98255092      8.56830190
23
Frame 215  Energy = -425.8899546401 Hartree
C      -0.01978289      1.10683852      0.12960653
C      -0.29155300      1.22296374      1.63396126
C       0.86152063      0.70603798      2.53321061
C       0.61058094      0.96816238      3.99549712
C       1.85433525      0.69039269      4.92724783
C       1.64187327      1.02445114      6.34831080
O       0.77966909      1.73590082      6.74764207
O       2.59968347      0.49935752      7.11564768
C       2.49095683      0.85770703      8.50747009
H      -0.83424040      1.52512578     -0.40867386
H       0.83128864      1.67420945     -0.16278206
H       0.19047132      0.07470046     -0.22695084
H      -1.20468746      0.68552775      1.87185006
H      -0.37487890      2.26090819      1.87042978
H       0.82028709     -0.40671137      2.33392169
H       1.81230660      1.10378893      2.22551153
H       0.26724321      1.95381981      4.20530669
H      -0.30883485      0.43478437      4.26175575
H       2.26346879     -0.33105435      4.83960422
H       2.68237314      1.26826151      4.50505554
H       3.32554033      0.42177573      9.03460166
H       1.61697847      0.38556703      8.92635528
H       2.46559482      1.98052053      8.57519071
23
Frame 220  Energy = -425.8897823994 Hartree
C      -0.01956525      1.10623000      0.13124890
C      -0.29310942      1.22197312      1.63443606
C       0.86274305      0.70557089      2.53442281
C       0.60744732      0.96567826      3.99714638
C       1.85449346      0.69219433      4.92786607
C       1.64258553      1.02329707      6.34467398
O       0.77994937      1.73684963      6.74848186
O       2.60036891      0.50072374      7.11775928
C       2.48951002      0.85947924      8.50674491
H      -0.83504085      1.52324954     -0.41474435
H       0.83537755      1.67677542     -0.16079546
H       0.18758419      0.07876998     -0.22675693
H      -1.19875540      0.68093945      1.87591760
H      -0.38792617      2.26418760      1.86938847
H       0.81921233     -0.40665519      2.32839425
H       1.81026320      1.09731350      2.22111975
H       0.26352824      1.95330696      4.19555761
H      -0.30487326      0.42693813      4.27050970
H       2.26030594     -0.32508561      4.84057002
H       2.69082896      1.26126219      4.50827314
H       3.32965145      0.42271249      9.03618573
H       1.61460753      0.39171599      8.92740016
H       2.46342964      1.97604862      8.58278272
23
Frame 225  Energy = -425.8871292034 Hartree
C      -0.01929306      1.10540952      0.13302577
C      -0.29439898      1.22091818      1.63493230
C       0.86368390      0.70483630      2.53556439
C       0.60444560      0.96299003      3.99899793
C       1.85452698      0.69386845      4.92796446
C       1.64347290      1.02223702      6.34095061
O       0.78020820      1.73784848      6.74950080
O       2.60112002      0.50210112      7.11999766
C       2.48800590      0.86128722      8.50599142
H      -0.83766704      1.52170882     -0.42218787
H       0.84161145      1.68027963     -0.15875114
H       0.18391301      0.08369999     -0.22566504
H      -1.19370494      0.67695096      1.88057660
H      -0.40206303      2.26865846      1.86880190
H       0.81955539     -0.40473488      2.32369910
H       1.80908784      1.09122263      2.21600368
H       0.26023130      1.95549845      4.18566174
H      -0.29949266      0.41726275      4.28008840
H       2.25587324     -0.31878639      4.84170621
H       2.69898365      1.25499682      4.51253359
H       3.33494732      0.42442941      9.03759662
H       1.61116722      0.39811025      8.92853895
H       2.46138211      1.96922388      8.59103019
23
Frame 230  Energy = -425.8871790697 Hartree
C      -0.01890346      1.10451889      0.13485488
C      -0.29544541      1.22001058      1.63540834
C       0.86424821      0.70384964      2.53655763
C       0.60145431      0.96018910      4.00098358
C       1.85446892      0.69544947      4.92751725
C       1.64453684      1.02122943      6.33723716
O       0.78034440      1.73890042      6.75065308
O       2.60189378      0.50344567      7.12229078
C       2.48659594      0.86305910      8.50518817
H      -0.84164201      1.52058170     -0.43024316
H       0.84888979      1.68485846     -0.15665421
H       0.17956586      0.08929547     -0.22415914
H      -1.18975582      0.67326826      1.88567519
H      -0.41742939      2.27360744      1.86825393
H       0.82148441     -0.40100824      2.32007692
H       1.80939840      1.08566538      2.21073102
H       0.25771450      1.96036131      4.17582330
H      -0.29311602      0.40604758      4.29067571
H       2.25078821     -0.31278974      4.84272636
H       2.70645438      1.24927692      4.51794134
H       3.34090141      0.42707274      9.03814483
H       1.60666497      0.40506804      8.92975285
H       2.45943553      1.96042157      8.59996658
23
Frame 235  Energy = -425.8853993593 Hartree
C      -0.01845327      1.10353914      0.13664829
C      -0.29623016      1.21914319      1.63583639
C       0.86447238      0.70252515      2.53735682
C       0.59847154      0.95728460      4.00301307
C       1.85439172      0.69693436      4.92659311
C       1.64570354      1.02034841      6.33369232
O       0.78036436      1.74002149      6.75192661
O       2.60265176      0.50472652      7.12457672
C       2.48529438      0.86478596      8.50445665
H      -0.84598638      1.51948808     -0.43853362
H       0.85646425      1.68992984     -0.15418133
H       0.17506168      0.09518913     -0.22216594
H      -1.18693185      0.66960064      1.89100452
H      -0.43363765      2.27843585      1.86763913
H       0.82504837     -0.39604949      2.31764897
H       1.81170948      1.08110435      2.20529499
H       0.25620574      1.96706661      4.16592511
H      -0.28584015      0.39359540      4.30198935
H       2.24493027     -0.30766085      4.84372235
H       2.71331977      1.24436458      4.52409031
H       3.34687643      0.43078579      9.03757544
H       1.60128379      0.41252563      8.93128885
H       2.45757290      1.95056975      8.60959694
23
Frame 240  Energy = -425.8854154849 Hartree
C      -0.01789301      1.10261803      0.13839429
C      -0.29659661      1.21826516      1.63626069
C       0.86439961      0.70090249      2.53794825
C       0.59552795      0.95419334      4.00504470
C       1.85421571      0.69829285      4.92517536
C       1.64690164      1.01959941      6.33029968
O       0.78030319      1.74114261      6.75337068
O       2.60336638      0.50596170      7.12683534
C       2.48401525      0.86656691      8.50371489
H      -0.85043236      1.51803108     -0.44662091
H       0.86380473      1.69470821     -0.15176871
H       0.17033248      0.10078816     -0.21976987
H      -1.18523106      0.66550935      1.89638652
H      -0.45051405      2.28285323      1.86736379
H       0.83009363     -0.38960761      2.31582490
H       1.81553856      1.07764672      2.19968863
H       0.25567754      1.97522256      4.15621697
H      -0.27799050      0.37966745      4.31399988
H       2.23856962     -0.30399666      4.84446368
H       2.71970455      1.24068758      4.53079127
H       3.35227685      0.43571536      9.03582699
H       1.59490659      0.42013180      8.93282306
H       2.45568830      1.94046376      8.61959084
23
Frame 245  Energy = -425.8851834260 Hartree
C      -0.01724385      1.10189067      0.13996519
C      -0.29665079      1.21742382      1.63666126
C       0.86401172      0.69915198      2.53839681
C       0.59276996      0.95107365      4.00712008
C       1.85393654      0.69948239      4.92329553
C       1.64813142      1.01896672      6.32713923
O       0.78017616      1.74220228      6.75483099
O       2.60409096      0.50714560      7.12905530
C       2.48274785      0.86822289      8.50300289
H      -0.85453610      1.51650954     -0.45391797
H       0.87038353      1.69898922     -0.14869249
H       0.16549814      0.10551050     -0.21696863
H      -1.18439752      0.66113314      1.90176697
H      -0.46751972      2.28657274      1.86704731
H       0.83666163     -0.38189293      2.31500581
H       1.82045330      1.07510467      2.19384295
H       0.25570480      1.98369829      4.14655412
H      -0.26954062      0.36467394      4.32662682
H       2.23147780     -0.30227591      4.84510436
H       2.72546101      1.23804936      4.53811632
H       3.35653555      0.44173419      9.03273931
H       1.58794816      0.42796643      8.93426708
H       2.45365453      1.93088785      8.62962715
23
Frame 250  Energy = -425.8861777095 Hartree
C      -0.01669312      1.10140259      0.14138071
C      -0.29657338      1.21665861      1.63703821
C       0.86331398      0.69737171      2.53860746
C       0.59009975      0.94806894      4.00928674
C       1.85350082      0.70063727      4.92093687
C       1.64927829      1.01844501      6.32435958
O       0.78000642      1.74331041      6.75631179
O       2.60482415      0.50826338      7.13136059
C       2.48153556      0.86961911      8.50240466
H      -0.85779553      1.51460670     -0.46002642
H       0.87629780      1.70285293     -0.14466175
H       0.16110201      0.10886459     -0.21386787
H      -1.18435415      0.65694320      1.90708262
H      -0.48433291      2.28883429      1.86645889
H       0.84479960     -0.37336532      2.31504936
H       1.82556912      1.07346484      2.18781091
H       0.25638048      1.99213301      4.13687319
H      -0.26065779      0.34862943      4.33983734
H       2.22349958     -0.30239853      4.84545283
H       2.73014288      1.23632185      4.54573891
H       3.35976172      0.44873422      9.02828273
H       1.58051526      0.43578946      8.93567998
H       2.45150850      1.92236119      8.63966226
23
Frame 255  Energy = -425.8869343333 Hartree
C      -0.01622400      1.10119678      0.14271062
C      -0.29636777      1.21598173      1.63744016
C       0.86245931      0.69551131      2.53863089
C       0.58767896      0.94525501      4.01146069
C       1.85299276      0.70175896      4.91810497
C       1.65023858      1.01815161      6.32205383
O       0.77979695      1.74438698      6.75781572
O       2.60554121      0.50941593      7.13367313
C       2.48041836      0.87069965      8.50189873
H      -0.85977147      1.51218747     -0.46497859
H       0.88123768      1.70554936     -0.13981809
H       0.15699367      0.11064817     -0.21043167
H      -1.18505569      0.65310492      1.91234164
H      -0.50094522      2.28940791      1.86573352
H       0.85403659     -0.36547303      2.31567655
H       1.83029957      1.07215689      2.18180841
H       0.25775735      1.99987120      4.12773323
H      -0.25104859      0.33223040      4.35351962
H       2.21518378     -0.30438945      4.84543684
H       2.73417586      1.23556133      4.55343625
H       3.36214090      0.45659289      9.02284740
H       1.57297583      0.44376357      8.93674083
H       2.44938758      1.91564492      8.64962977
23
Frame 260  Energy = -425.8875322260 Hartree
C      -0.01576148      1.10133130      0.14394205
C      -0.29610493      1.21535392      1.63787145
C       0.86137582      0.69357919      2.53846030
C       0.58557692      0.94256055      4.01374531
C       1.85235800      0.70289433      4.91478221
C       1.65111901      1.01806769      6.32021018
O       0.77958307      1.74541083      6.75933932
O       2.60625676      0.51061549      7.13594149
C       2.47938898      0.87154432      8.50152601
H      -0.86035062      1.50896120     -0.46867752
H       0.88482536      1.70711390     -0.13430833
H       0.15313164      0.11014132     -0.20716570
H      -1.18593962      0.64974803      1.91714656
H      -0.51741193      2.28780348      1.86462325
H       0.86430172     -0.35893982      2.31666754
H       1.83427953      1.07101198      2.17647750
H       0.25962030      2.00644443      4.11902285
H      -0.24089166      0.31571687      4.36735369
H       2.20621377     -0.30813011      4.84524979
H       2.73780810      1.23604187      4.56143428
H       3.36373710      0.46501312      9.01631357
H       1.56590074      0.45159382      8.93805503
H       2.44736452      1.91159662      8.65943384
23
Frame 265  Energy = -425.8875630972 Hartree
C      -0.01529540      1.10178623      0.14506500
C      -0.29567781      1.21480347      1.63824701
C       0.86013669      0.69169528      2.53808306
C       0.58367753      0.93993188      4.01603941
C       1.85162295      0.70395417      4.91090369
C       1.65190129      1.01832144      6.31885045
O       0.77936464      1.74632208      6.76079383
O       2.60696871      0.51176484      7.13803897
C       2.47851933      0.87219203      8.50135264
H      -0.85945522      1.50524823     -0.47110911
H       0.88681422      1.70748234     -0.12834233
H       0.14941616      0.10723718     -0.20414347
H      -1.18704241      0.64671259      1.92152708
H      -0.53307649      2.28425107      1.86329007
H       0.87567505     -0.35462060      2.31798050
H       1.83728389      1.07036933      2.17189220
H       0.26252606      2.01134989      4.11107560
H      -0.23006307      0.29985512      4.38111208
H       2.19701022     -0.31367756      4.84497795
H       2.74071490      1.23765835      4.56931525
H       3.36419190      0.47367346      9.00912524
H       1.55928925      0.45903370      8.93931422
H       2.44565027      1.91088248      8.66907849
23
Frame 270  Energy = -425.8874614076 Hartree
C      -0.01479061      1.10257576      0.14599760
C      -0.29518439      1.21433562      1.63870324
C       0.85884983      0.68994091      2.53754326
C       0.58199077      0.93749268      4.01829168
C       1.85077744      0.70490734      4.90659601
C       1.65265964      1.01892092      6.31778818
O       0.77926289      1.74708110      6.76207849
O       2.60762111      0.51286601      7.13992619
C       2.47771852      0.87255164      8.50122890
H      -0.85700382      1.50082591     -0.47231865
H       0.88697171      1.70659883     -0.12219319
H       0.14602404      0.10251308     -0.20102369
H      -1.18835542      0.64362385      1.92521893
H      -0.54816961      2.27893291      1.86213862
H       0.88799865     -0.35272554      2.31954036
H       1.83899163      1.07002799      2.16820077
H       0.26619138      2.01402589      4.10413721
H      -0.21858093      0.28472111      4.39446509
H       2.18780645     -0.32078014      4.84447861
H       2.74306947      1.24032730      4.57661290
H       3.36365895      0.48220157      9.00169218
H       1.55317921      0.46606489      8.94006783
H       2.44417335      1.91372022      8.67882954
23
Frame 275  Energy = -425.8877430678 Hartree
C      -0.01429960      1.10358430      0.14685092
C      -0.29464223      1.21406337      1.63928468
C       0.85744956      0.68839999      2.53683652
C       0.58055051      0.93529551      4.02061660
C       1.84989426      0.70578437      4.90195163
C       1.65325097      1.01979430      6.31719184
O       0.77922213      1.74771225      6.76332637
O       2.60824597      0.51392109      7.14162814
C       2.47696469      0.87260209      8.50121726
H      -0.85344726      1.49595275     -0.47207369
H       0.88541600      1.70464553     -0.11564858
H       0.14310223      0.09620006     -0.19758521
H      -1.18973165      0.64089412      1.92843104
H      -0.56251907      2.27189212      1.86067191
H       0.90090725     -0.35374231      2.32073530
H       1.83943082      1.07031977      2.16557388
H       0.27070322      2.01400618      4.09773074
H      -0.20660495      0.27080866      4.40768759
H       2.17831486     -0.32933797      4.84383678
H       2.74496297      1.24381443      4.58343657
H       3.36280059      0.49035891      8.99440454
H       1.54813870      0.47295178      8.94040475
H       2.44276058      1.91978105      8.68790730
23
Frame 280  Energy = -425.8876589466 Hartree
C      -0.01388845      1.10480058      0.14748253
C      -0.29412279      1.21390388      1.63998467
C       0.85602080      0.68701073      2.53605532
C       0.57934170      0.93340274      4.02294320
C       1.84896168      0.70645552      4.89711310
C       1.65370301      1.02093311      6.31718073
O       0.77920626      1.74828412      6.76453450
O       2.60881246      0.51503296      7.14319247
C       2.47612105      0.87246790      8.50138830
H      -0.84822168      1.49084065     -0.47043515
H       0.88262616      1.70177847     -0.10890134
H       0.14086589      0.08877788     -0.19368815
H      -1.19073377      0.63856158      1.93087720
H      -0.57589323      2.26319192      1.85915621
H       0.91455212     -0.35744424      2.32183188
H       1.83834265      1.07138474      2.16401448
H       0.27551793      2.01119333      4.09209805
H      -0.19398106      0.25816775      4.42008493
H       2.16851513     -0.33821568      4.84323410
H       2.74584881      1.24792348      4.58975333
H       3.36195862      0.49807022      8.98729652
H       1.54406253      0.47958330      8.94038402
H       2.44151167      1.92821210      8.69611415
23
Frame 285  Energy = -425.8874269357 Hartree
C      -0.01350346      1.10620242      0.14795151
C      -0.29368378      1.21370717      1.64076717
C       0.85450804      0.68570775      2.53519956
C       0.57834680      0.93169795      4.02518365
C       1.84799576      0.70685845      4.89209623
C       1.65398596      1.02236988      6.31757466
O       0.77930366      1.74879619      6.76568746
O       2.60930827      0.51616963      7.14459188
C       2.47516777      0.87214925      8.50166404
H      -0.84193467      1.48547436     -0.46803155
H       0.87908925      1.69812625     -0.10184193
H       0.13919233      0.08072117     -0.18940617
H      -1.19148945      0.63618030      1.93251993
H      -0.58808300      2.25344553      1.85794435
H       0.92852169     -0.36355081      2.32329793
H       1.83552294      1.07303065      2.16360983
H       0.28016635      2.00571938      4.08766350
H      -0.18086324      0.24684836      4.43171377
H       2.15844737     -0.34737179      4.84245548
H       2.74597222      1.25229877      4.59534679
H       3.36170997      0.50501569      8.98093559
H       1.54089599      0.48590924      8.93992565
H       2.44029808      1.93822754      8.70340132
23
Frame 290  Energy = -425.8873277528 Hartree
C      -0.01311748      1.10758138      0.14832457
C      -0.29344318      1.21343562      1.64171248
C       0.85289229      0.68454734      2.53427998
C       0.57762533      0.93010823      4.02728989
C       1.84707055      0.70695410      4.88693199
C       1.65408170      1.02404175      6.31844542
O       0.77951092      1.74923219      6.76670191
O       2.60977307      0.51737156      7.14582411
C       2.47415374      0.87188008      8.50206271
H      -0.83508920      1.48017393     -0.46503569
H       0.87474773      1.69397208     -0.09478427
H       0.13795831      0.07235754     -0.18483587
H      -1.19140672      0.63383518      1.93328129
H      -0.59911866      2.24317212      1.85677682
H       0.94257864     -0.37163333      2.32521641
H       1.83108568      1.07526485      2.16432146
H       0.28503482      1.99807347      4.08451234
H      -0.16757779      0.23689724      4.44249874
H       2.14821986     -0.35609973      4.84164106
H       2.74540181      1.25714500      4.60027420
H       3.36193713      0.51075838      8.97561407
H       1.53897453      0.49206615      8.93894614
H       2.43914969      1.94908886      8.70932659
23
Frame 295  Energy = -425.8871069778 Hartree
C      -0.01273657      1.10880142      0.14864923
C      -0.29326027      1.21307138      1.64277527
C       0.85118792      0.68348564      2.53328537
C       0.57716298      0.92855734      4.02938042
C       1.84626245      0.70684502      4.88164268
C       1.65396048      1.02594598      6.31979488
O       0.77980533      1.74948179      6.76763550
O       2.61011135      0.51857418      7.14688764
C       2.47299704      0.87178212      8.50260593
H      -0.82817418      1.47519626     -0.46130023
H       0.87003511      1.68971205     -0.08780235
H       0.13707476      0.06428414     -0.17947206
H      -1.19060238      0.63156976      1.93289920
H      -0.60899595      2.23273539      1.85589559
H       0.95631420     -0.38114504      2.32778354
H       1.82493545      1.07838581      2.16626358
H       0.28965604      1.98844870      4.08255307
H      -0.15451598      0.22833752      4.45198704
H       2.13791762     -0.36375471      4.84056307
H       2.74444001      1.26263440      4.60440357
H       3.36299883      0.51512126      8.97114955
H       1.53802651      0.49752451      8.93746306
H       2.43808571      1.95996390      8.71373555
23
Frame 300  Energy = -425.8870601422 Hartree
C      -0.01228695      1.10984633      0.14896526
C      -0.29322546      1.21271700      1.64391806
C       0.84950434      0.68249460      2.53225802
C       0.57699749      0.92702293      4.03135480
C       1.84549735      0.70643731      4.87641348
C       1.65369155      1.02815050      6.32153604
O       0.78015156      1.74952039      6.76858086
O       2.61037050      0.51980558      7.14777131
C       2.47170831      0.87194798      8.50335973
H      -0.82163472      1.47075073     -0.45710940
H       0.86535157      1.68545116     -0.08101606
H       0.13639194      0.05763345     -0.17356107
H      -1.18893640      0.62928049      1.93149873
H      -0.61787525      2.22244699      1.85558354
H       0.96936083     -0.39118584      2.33074260
H       1.81718671      1.08221590      2.16915577
H       0.29390599      1.97708583      4.08196099
H      -0.14177996      0.22116995      4.46008980
H       2.12777300     -0.37043368      4.83906956
H       2.74273994      1.26878139      4.60768574
H       3.36464989      0.51807911      8.96770676
H       1.53823241      0.50180693      8.93552088
H       2.43730858      1.97002958      8.71625993
