7
Frame 5  Energy = -244.9375610729 Hartree
C      -0.52802342     -0.75584376      0.58862281
N      -1.83323739     -0.97044509     -0.01703984
O      -2.41379898     -2.05774349      0.21187722
O      -2.30589094     -0.07622151     -0.74713087
H       0.22513196     -1.11986134     -0.11241832
H      -0.48946101     -1.31280476      1.52342100
H      -0.39206639      0.31000532      0.75932222
7
Frame 10  Energy = -244.9374375241 Hartree
C      -0.53091953     -0.75677057      0.59016878
N      -1.83396976     -0.96793622     -0.01825180
O      -2.41446671     -2.05619942      0.21573013
O      -2.30257424     -0.07865727     -0.75005595
H       0.21595252     -1.12080410     -0.11752477
H      -0.49307064     -1.31673512      1.51993132
H      -0.37942015      0.30517784      0.75353096
7
Frame 15  Energy = -244.9375268791 Hartree
C      -0.53363032     -0.75780627      0.59161899
N      -1.83520907     -0.96562389     -0.01957753
O      -2.41496093     -2.05440867      0.21948732
O      -2.29904483     -0.08130195     -0.75277766
H       0.20660663     -1.12168046     -0.12239563
H      -0.49706353     -1.32050806      1.51702475
H      -0.36721710      0.30064304      0.74784878
7
Frame 20  Energy = -244.9376565666 Hartree
C      -0.53616820     -0.75884415      0.59303049
N      -1.83692593     -0.96352222     -0.02101118
O      -2.41527879     -2.05228764      0.22311382
O      -2.29539740     -0.08405535     -0.75535967
H       0.19722113     -1.12304513     -0.12662924
H      -0.50129014     -1.32460088      1.51460128
H      -0.35589939      0.29642414      0.74231083
7
Frame 25  Energy = -244.9376152872 Hartree
C      -0.53868906     -0.75987519      0.59440988
N      -1.83913459     -0.96156690     -0.02253077
O      -2.41544555     -2.04988566      0.22666631
O      -2.29169519     -0.08694313     -0.75781168
H       0.18808386     -1.12484182     -0.13056353
H      -0.50566374     -1.32887421      1.51232334
H      -0.34525359      0.29296516      0.73697056
7
Frame 30  Energy = -244.9377270590 Hartree
C      -0.54107049     -0.76090251      0.59567937
N      -1.84176715     -0.95986642     -0.02409610
O      -2.41548367     -2.04721105      0.23011534
O      -2.28794049     -0.08996688     -0.76019325
H       0.17948329     -1.12697813     -0.13418091
H      -0.51007567     -1.33289346      1.51048614
H      -0.33544815      0.29078440      0.73237372
7
Frame 35  Energy = -244.9376833441 Hartree
C      -0.54335141     -0.76185574      0.59680452
N      -1.84468689     -0.95846113     -0.02564410
O      -2.41536140     -2.04426258      0.23357290
O      -2.28412977     -0.09306732     -0.76250940
H       0.17111678     -1.12969598     -0.13740072
H      -0.51448349     -1.33709111      1.50955241
H      -0.32635669      0.28970409      0.72823134
7
Frame 40  Energy = -244.9376886386 Hartree
C      -0.54541346     -0.76274666      0.59773508
N      -1.84794951     -0.95738314     -0.02716298
O      -2.41519803     -2.04098220      0.23696167
O      -2.28028912     -0.09626786     -0.76475353
H       0.16330061     -1.13318748     -0.14001216
H      -0.51872222     -1.34150011      1.50935811
H      -0.31830125      0.28951199      0.72494244
7
Frame 45  Energy = -244.9374625049 Hartree
C      -0.54727941     -0.76363134      0.59862990
N      -1.85150247     -0.95654991     -0.02855826
O      -2.41503931     -2.03744503      0.24021834
O      -2.27637143     -0.09950786     -0.76704120
H       0.15587994     -1.13762012     -0.14224156
H      -0.52281033     -1.34627438      1.50972794
H      -0.31097661      0.28996659      0.72248685
7
Frame 50  Energy = -244.9374564472 Hartree
C      -0.54894276     -0.76444908      0.59950528
N      -1.85522294     -0.95604625     -0.02987807
O      -2.41483769     -2.03361048      0.24341444
O      -2.27248581     -0.10271337     -0.76936391
H       0.14870141     -1.14270091     -0.14419844
H      -0.52685909     -1.35089924      1.51043196
H      -0.30491187      0.29097683      0.72087833
7
Frame 55  Energy = -244.9373768584 Hartree
C      -0.55037750     -0.76519856      0.60035876
N      -1.85912137     -0.95590870     -0.03104985
O      -2.41450803     -2.02950290      0.24646921
O      -2.26860352     -0.10587798     -0.77174091
H       0.14218925     -1.14863465     -0.14554574
H      -0.53056917     -1.35516249      1.51152447
H      -0.30007559      0.29236461      0.72018301
7
Frame 60  Energy = -244.9373490693 Hartree
C      -0.55162469     -0.76592240      0.60120359
N      -1.86306959     -0.95599646     -0.03197181
O      -2.41406341     -2.02523551      0.24940768
O      -2.26466828     -0.10893476     -0.77421834
H       0.13662131     -1.15506348     -0.14636132
H      -0.53410209     -1.35948085      1.51292582
H      -0.29639640      0.29358799      0.72012862
7
Frame 65  Energy = -244.9373636316 Hartree
C      -0.55269187     -0.76660834      0.60192591
N      -1.86702194     -0.95636505     -0.03267766
O      -2.41361890     -2.02092507      0.25228579
O      -2.26079751     -0.11190645     -0.77683951
H       0.13160286     -1.16193943     -0.14648125
H      -0.53717915     -1.36324639      1.51420889
H      -0.29410172      0.29447274      0.72107742
7
Frame 70  Energy = -244.9373930385 Hartree
C      -0.55346122     -0.76724638      0.60249634
N      -1.87098100     -0.95711461     -0.03313216
O      -2.41315555     -2.01659762      0.25504936
O      -2.25700447     -0.11469151     -0.77962995
H       0.12745500     -1.16947078     -0.14600478
H      -0.54008796     -1.36608151      1.51543503
H      -0.29327928      0.29465442      0.72278519
7
Frame 75  Energy = -244.9372849536 Hartree
C      -0.55405028     -0.76781291      0.60301858
N      -1.87486012     -0.95815520     -0.03327689
O      -2.41274498     -2.01230108      0.25777488
O      -2.25340394     -0.11733755     -0.78271488
H       0.12418639     -1.17780012     -0.14485322
H      -0.54299333     -1.36811171      1.51647187
H      -0.29394867      0.29398317      0.72520478
7
Frame 80  Energy = -244.9371874526 Hartree
C      -0.55439264     -0.76836244      0.60345610
N      -1.87854569     -0.95950450     -0.03300772
O      -2.41249504     -2.00802327      0.26043336
O      -2.24991657     -0.11987118     -0.78598384
H       0.12175846     -1.18636841     -0.14329750
H      -0.54568703     -1.36945402      1.51740638
H      -0.29604555      0.29269091      0.72816373
7
Frame 85  Energy = -244.9371822110 Hartree
C      -0.55465557     -0.76901747      0.60383665
N      -1.88204309     -0.96105920     -0.03241202
O      -2.41232251     -2.00380936      0.26302783
O      -2.24655962     -0.12220927     -0.78943200
H       0.12027474     -1.19513685     -0.14162999
H      -0.54822058     -1.37007252      1.51822183
H      -0.29961060      0.29079964      0.73141764
7
Frame 90  Energy = -244.9373173330 Hartree
C      -0.55484567     -0.76980613      0.60422744
N      -1.88526754     -0.96265130     -0.03149984
O      -2.41230803     -1.99978922      0.26554439
O      -2.24340716     -0.12431703     -0.79319542
H       0.11949803     -1.20412532     -0.13931522
H      -0.55028484     -1.36977508      1.51885756
H      -0.30433790      0.28849493      0.73492563
7
Frame 95  Energy = -244.9374304090 Hartree
C      -0.55492166     -0.77067633      0.60452024
N      -1.88812277     -0.96429693     -0.03023528
O      -2.41262726     -1.99599442      0.26797975
O      -2.24052674     -0.12624234     -0.79722045
H       0.11937390     -1.21291549     -0.13605808
H      -0.55177041     -1.36849773      1.51957407
H      -0.30991920      0.28572077      0.73837089
7
Frame 100  Energy = -244.9373803780 Hartree
C      -0.55491455     -0.77156834      0.60475826
N      -1.89049911     -0.96593577     -0.02869140
O      -2.41321801     -1.99239625      0.27035347
O      -2.23788173     -0.12796475     -0.80145777
H       0.11977444     -1.22152614     -0.13226759
H      -0.55305711     -1.36663964      1.52012673
H      -0.31655547      0.28288979      0.74170931
7
Frame 105  Energy = -244.9373660010 Hartree
C      -0.55486510     -0.77254694      0.60492914
N      -1.89240112     -0.96743951     -0.02688992
O      -2.41413196     -1.98904932      0.27280136
O      -2.23543583     -0.12949538     -0.80592999
H       0.12076830     -1.22956396     -0.12733270
H      -0.55419527     -1.36438072      1.52051798
H      -0.32373406      0.27996516      0.74518042
7
Frame 110  Energy = -244.9373554282 Hartree
C      -0.55468684     -0.77347456      0.60506459
N      -1.89375682     -0.96871692     -0.02485735
O      -2.41537798     -1.98594659      0.27531684
O      -2.23317119     -0.13088819     -0.81055255
H       0.12230943     -1.23719373     -0.12156875
H      -0.55479320     -1.36178174      1.52108684
H      -0.33146995      0.27731517      0.74874117
7
Frame 115  Energy = -244.9374554455 Hartree
C      -0.55445454     -0.77448821      0.60520086
N      -1.89453534     -0.96969769     -0.02269677
O      -2.41693112     -1.98322445      0.27787195
O      -2.23102263     -0.13212020     -0.81537697
H       0.12468024     -1.24398135     -0.11513050
H      -0.55474341     -1.35865226      1.52231821
H      -0.33983313      0.27520029      0.75251137
7
Frame 120  Energy = -244.9373514425 Hartree
C      -0.55413223     -0.77564269      0.60526625
N      -1.89478037     -0.97028334     -0.02044623
O      -2.41883011     -1.98088152      0.28047210
O      -2.22895549     -0.13323996     -0.82035318
H       0.12785126     -1.24989170     -0.10838720
H      -0.55461737     -1.35527029      1.52386220
H      -0.34827547      0.27414482      0.75624275
7
Frame 125  Energy = -244.9373489686 Hartree
C      -0.55380497     -0.77694789      0.60525588
N      -1.89440313     -0.97053173     -0.01812046
O      -2.42115515     -1.97891243      0.28324234
O      -2.22704980     -0.13425112     -0.82543732
H       0.13203038     -1.25514372     -0.10109559
H      -0.55422705     -1.35180694      1.52571246
H      -0.35676493      0.27352029      0.75935330
7
Frame 130  Energy = -244.9374278471 Hartree
C      -0.55346780     -0.77837305      0.60526056
N      -1.89334457     -0.97041325     -0.01581903
O      -2.42377722     -1.97732077      0.28605679
O      -2.22527360     -0.13520101     -0.83059306
H       0.13695418     -1.25965555     -0.09312367
H      -0.55326005     -1.34846312      1.52793096
H      -0.36487544      0.27329168      0.76219763
7
Frame 135  Energy = -244.9375165380 Hartree
C      -0.55323247     -0.77995373      0.60533681
N      -1.89180133     -0.96987923     -0.01357679
O      -2.42673207     -1.97603557      0.28889052
O      -2.22358993     -0.13607266     -0.83571336
H       0.14250690     -1.26335530     -0.08469534
H      -0.55181110     -1.34520058      1.53093762
H      -0.37251917      0.27350796      0.76490752
7
Frame 140  Energy = -244.9373491364 Hartree
C      -0.55297319     -0.78158462      0.60529711
N      -1.88980910     -0.96892333     -0.01137805
O      -2.43001985     -1.97515155      0.29185037
O      -2.22200783     -0.13705277     -0.84080548
H       0.14871545     -1.26647354     -0.07592056
H      -0.55043188     -1.34180381      1.53444418
H      -0.37979727      0.27430271      0.76726017
7
Frame 145  Energy = -244.9373467190 Hartree
C      -0.55269486     -0.78326336      0.60525334
N      -1.88733936     -0.96761554     -0.00923070
O      -2.43365800     -1.97460901      0.29496180
O      -2.22067668     -0.13809282     -0.84595861
H       0.15476482     -1.26897681     -0.06707123
H      -0.54907343     -1.33813232      1.53865651
H      -0.38665734      0.27557617      0.76910990
7
Frame 150  Energy = -244.9373480733 Hartree
C      -0.55246720     -0.78500452      0.60523116
N      -1.88453575     -0.96596321     -0.00733498
O      -2.43754406     -1.97430616      0.29824689
O      -2.21945392     -0.13909231     -0.85101986
H       0.16098046     -1.27083952     -0.05846947
H      -0.54750923     -1.33421673      1.54341735
H      -0.39310760      0.27699525      0.77046032
7
Frame 155  Energy = -244.9373583454 Hartree
C      -0.55222151     -0.78677137      0.60526843
N      -1.88146431     -0.96403137     -0.00554978
O      -2.44167335     -1.97424862      0.30154021
O      -2.21821531     -0.14011278     -0.85604568
H       0.16761400     -1.27172688     -0.05018654
H      -0.54586163     -1.32997288      1.54862851
H      -0.39925137      0.27849780      0.77143156
7
Frame 160  Energy = -244.9374128795 Hartree
C      -0.55195084     -0.78851050      0.60542735
N      -1.87827502     -0.96193884     -0.00390008
O      -2.44604497     -1.97433751      0.30481346
O      -2.21691694     -0.14121082     -0.86096790
H       0.17450477     -1.27207650     -0.04239604
H      -0.54434195     -1.32547094      1.55416706
H      -0.40474023      0.27989966      0.77186328
7
Frame 165  Energy = -244.9374939895 Hartree
C      -0.55165123     -0.79020046      0.60578029
N      -1.87500563     -0.95963636     -0.00246149
O      -2.45056178     -1.97451567      0.30804555
O      -2.21557612     -0.14245533     -0.86575544
H       0.18196069     -1.27154231     -0.03515534
H      -0.54297780     -1.32102948      1.55995147
H      -0.40943875      0.28118418      0.77172649
7
Frame 170  Energy = -244.9374367337 Hartree
C      -0.55128798     -0.79173715      0.60625653
N      -1.87164703     -0.95724085     -0.00123534
O      -2.45520425     -1.97471510      0.31123081
O      -2.21417017     -0.14377132     -0.87039304
H       0.18986007     -1.27017996     -0.02851519
H      -0.54203532     -1.31642031      1.56601498
H      -0.41345702      0.28197351      0.77093210
7
Frame 175  Energy = -244.9375110363 Hartree
C      -0.55100196     -0.79324446      0.60681591
N      -1.86832021     -0.95482628     -0.00032456
O      -2.45992833     -1.97491555      0.31441307
O      -2.21264917     -0.14519207     -0.87486635
H       0.19731860     -1.26831403     -0.02233366
H      -0.54135756     -1.31131387      1.57198414
H      -0.41720226      0.28217365      0.76945939
7
Frame 180  Energy = -244.9374629821 Hartree
C      -0.55068718     -0.79459081      0.60751190
N      -1.86504282     -0.95246882      0.00032657
O      -2.46468377     -1.97504009      0.31752377
O      -2.21106469     -0.14670345     -0.87913465
H       0.20416837     -1.26605364     -0.01677690
H      -0.54106276     -1.30535889      1.57768836
H      -0.42032551      0.28193315      0.76705739
7
Frame 185  Energy = -244.9373786510 Hartree
C      -0.55025374     -0.79577442      0.60845879
N      -1.86189054     -0.95019307      0.00069617
O      -2.46947130     -1.97507590      0.32061813
O      -2.20939114     -0.14830513     -0.88322263
H       0.21074069     -1.26336943     -0.01200785
H      -0.54101765     -1.29910733      1.58320623
H      -0.42293348      0.28106692      0.76414650
7
Frame 190  Energy = -244.9372682765 Hartree
C      -0.54973051     -0.79674385      0.60976982
N      -1.85901735     -0.94802056      0.00081733
O      -2.47429717     -1.97491506      0.32369599
O      -2.20763870     -0.15008245     -0.88707228
H       0.21701619     -1.25994145     -0.00793766
H      -0.54159471     -1.29280003      1.58834502
H      -0.42461504      0.27973615      0.76060117
7
Frame 195  Energy = -244.9374720577 Hartree
C      -0.54909867     -0.79743550      0.61134767
N      -1.85644344     -0.94605524      0.00069487
O      -2.47909829     -1.97451981      0.32675785
O      -2.20581102     -0.15191718     -0.89068823
H       0.22285835     -1.25599626     -0.00465400
H      -0.54271766     -1.28621560      1.59288755
H      -0.42540867      0.27791773      0.75698843
7
Frame 200  Energy = -244.9375509271 Hartree
C      -0.54830598     -0.79792425      0.61307959
N      -1.85415646     -0.94449654      0.00030875
O      -2.48376325     -1.97386686      0.32980157
O      -2.20392394     -0.15392255     -0.89400037
H       0.22837884     -1.25133274     -0.00187074
H      -0.54458238     -1.27945123      1.59676576
H      -0.42536597      0.27578915      0.75337324
7
Frame 205  Energy = -244.9375196741 Hartree
C      -0.54743320     -0.79828903      0.61513808
N      -1.85221302     -0.94333014     -0.00036059
O      -2.48821715     -1.97285632      0.33281152
O      -2.20196742     -0.15612421     -0.89701113
H       0.23369812     -1.24637690      0.00013479
H      -0.54710894     -1.27268636      1.60035243
H      -0.42438788      0.27362113      0.74928446
7
Frame 210  Energy = -244.9373618851 Hartree
C      -0.54648114     -0.79851627      0.61740372
N      -1.85064258     -0.94258160     -0.00128490
O      -2.49252975     -1.97143902      0.33575301
O      -2.19990060     -0.15848022     -0.89979591
H       0.23861659     -1.24092663      0.00146507
H      -0.55047690     -1.26609693      1.60361573
H      -0.42228810      0.27174567      0.74486378
7
Frame 215  Energy = -244.9372585177 Hartree
C      -0.54540999     -0.79870798      0.61990935
N      -1.84947036     -0.94212176     -0.00242901
O      -2.49672019     -1.96962945      0.33863201
O      -2.19775043     -0.16102596     -0.90235391
H       0.24285713     -1.23490138      0.00207247
H      -0.55436611     -1.25958131      1.60657151
H      -0.41937778      0.27021131      0.74040820
7
Frame 220  Energy = -244.9373568847 Hartree
C      -0.54412417     -0.79870853      0.62253085
N      -1.84873900     -0.94199057     -0.00373017
O      -2.50075043     -1.96746942      0.34135948
O      -2.19552361     -0.16369074     -0.90475758
H       0.24622919     -1.22875534      0.00263744
H      -0.55815267     -1.25339703      1.60912211
H      -0.41559360      0.26918919      0.73586563
7
Frame 225  Energy = -244.9373750800 Hartree
C      -0.54274722     -0.79844636      0.62530064
N      -1.84846044     -0.94223472     -0.00523750
O      -2.50457096     -1.96493843      0.34402010
O      -2.19312051     -0.16646893     -0.90686542
H       0.24885357     -1.22249011      0.00299685
H      -0.56235887     -1.24763175      1.61161169
H      -0.41113930      0.26886379      0.73116382
7
Frame 230  Energy = -244.9374900094 Hartree
C      -0.54125763     -0.79796518      0.62810487
N      -1.84860763     -0.94286262     -0.00692450
O      -2.50816805     -1.96204293      0.34661639
O      -2.19059811     -0.16937965     -0.90866239
H       0.25078715     -1.21651668      0.00312255
H      -0.56684869     -1.24271950      1.61436533
H      -0.40615698      0.26928534      0.72674994
7
Frame 235  Energy = -244.9376800648 Hartree
C      -0.53963745     -0.79727787      0.63081204
N      -1.84919474     -0.94382596     -0.00875776
O      -2.51148961     -1.95868858      0.34912370
O      -2.18799774     -0.17239376     -0.91034317
H       0.25210256     -1.21070783      0.00334618
H      -0.57135324     -1.23864428      1.61687030
H      -0.40101225      0.27099177      0.72228982
7
Frame 240  Energy = -244.9377273336 Hartree
C      -0.53800412     -0.79641795      0.63347373
N      -1.85016693     -0.94528006     -0.01070157
O      -2.51455925     -1.95505523      0.35147946
O      -2.18525761     -0.17551244     -0.91183705
H       0.25288903     -1.20524632      0.00375142
H      -0.57599469     -1.23539386      1.61950574
H      -0.39524997      0.27358754      0.71805696
7
Frame 245  Energy = -244.9377342427 Hartree
C      -0.53630740     -0.79542861      0.63602157
N      -1.85146406     -0.94721580     -0.01278838
O      -2.51744241     -1.95099854      0.35383114
O      -2.18242900     -0.17869519     -0.91318791
H       0.25293916     -1.20017775      0.00395730
H      -0.58057747     -1.23311485      1.62278602
H      -0.38931100      0.27661481      0.71424517
7
Frame 250  Energy = -244.9376026989 Hartree
C      -0.53459806     -0.79422576      0.63859604
N      -1.85307633     -0.94952698     -0.01481096
O      -2.52009265     -1.94657918      0.35610056
O      -2.17957306     -0.18197109     -0.91440737
H       0.25261658     -1.19599384      0.00378325
H      -0.58539643     -1.23182410      1.62677111
H      -0.38315424      0.28004378      0.71066826
7
Frame 255  Energy = -244.9375928892 Hartree
C      -0.53283231     -0.79286427      0.64119171
N      -1.85496236     -0.95217285     -0.01680016
O      -2.52256703     -1.94176882      0.35822311
O      -2.17668901     -0.18531929     -0.91554660
H       0.25206740     -1.19263964      0.00361993
H      -0.59057803     -1.23134696      1.63091775
H      -0.37664916      0.28380512      0.70707021
7
Frame 260  Energy = -244.9374566342 Hartree
C      -0.53109575     -0.79124706      0.64371403
N      -1.85708004     -0.95508306     -0.01864712
O      -2.52492450     -1.93661562      0.36025326
O      -2.17370169     -0.18872968     -0.91660719
H       0.25094528     -1.19008896      0.00353568
H      -0.59582309     -1.23139881      1.63491378
H      -0.37030444      0.28789027      0.70426486
7
Frame 265  Energy = -244.9375244137 Hartree
C      -0.52949289     -0.78942050      0.64624414
N      -1.85928282     -0.95825834     -0.02046815
O      -2.52722872     -1.93116711      0.36219090
O      -2.17061193     -0.19223399     -0.91750655
H       0.24977238     -1.18838808      0.00367783
H      -0.60085397     -1.23148194      1.63871720
H      -0.36415541      0.29185529      0.70175703
7
Frame 270  Energy = -244.9373876544 Hartree
C      -0.52795657     -0.78734796      0.64884070
N      -1.86152314     -0.96165149     -0.02224711
O      -2.52950395     -1.92548553      0.36403238
O      -2.16751390     -0.19562902     -0.91831869
H       0.24817378     -1.18745492      0.00388624
H      -0.60552141     -1.23167953      1.64233139
H      -0.35846223      0.29518772      0.69979768
7
Frame 275  Energy = -244.9371466663 Hartree
C      -0.52653492     -0.78514614      0.65138806
N      -1.86381289     -0.96527561     -0.02396234
O      -2.53178777     -1.91952094      0.36584757
O      -2.16438190     -0.19896532     -0.91912412
H       0.24637112     -1.18739255      0.00446001
H      -0.60965114     -1.23188684      1.64558542
H      -0.35323474      0.29802315      0.69856971
7
Frame 280  Energy = -244.9368935957 Hartree
C      -0.52513149     -0.78276460      0.65385046
N      -1.86605949     -0.96902873     -0.02565956
O      -2.53414134     -1.91329646      0.36756529
O      -2.16122591     -0.20231252     -0.91992128
H       0.24479513     -1.18854861      0.00540825
H      -0.61294028     -1.23209172      1.64849004
H      -0.34836178      0.30020438      0.69767426
7
Frame 285  Energy = -244.9369563028 Hartree
C      -0.52393516     -0.78016616      0.65616645
N      -1.86822194     -0.97286704     -0.02722184
O      -2.53654701     -1.90693397      0.36916336
O      -2.15808433     -0.20563767     -0.92071563
H       0.24286211     -1.19047437      0.00625791
H      -0.61530687     -1.23234992      1.65059904
H      -0.34382923      0.30164831      0.69717394
7
Frame 290  Energy = -244.9370643341 Hartree
C      -0.52291960     -0.77743305      0.65836689
N      -1.87017663     -0.97668609     -0.02867627
O      -2.53892275     -1.90055075      0.37070022
O      -2.15499641     -0.20891620     -0.92151781
H       0.24086704     -1.19361690      0.00742142
H      -0.61703319     -1.23249011      1.65186976
H      -0.34016222      0.30231269      0.69734759
7
Frame 295  Energy = -244.9369285681 Hartree
C      -0.52201873     -0.77455068      0.66047735
N      -1.87182997     -0.98051178     -0.03005022
O      -2.54146384     -1.89424184      0.37224734
O      -2.15193991     -0.21221090     -0.92235853
H       0.23897739     -1.19781497      0.00863042
H      -0.61809929     -1.23222323      1.65234959
H      -0.33722687      0.30224568      0.69770347
7
Frame 300  Energy = -244.9368777210 Hartree
C      -0.52123589     -0.77165767      0.66253160
N      -1.87321866     -0.98432305     -0.03129007
O      -2.54414572     -1.88801377      0.37385103
O      -2.14901767     -0.21539811     -0.92325609
H       0.23690110     -1.20280181      0.01039108
H      -0.61817762     -1.23173693      1.65185848
H      -0.33501633      0.30215285      0.69828801
