7
Frame 5  Energy = -244.9332223692 Hartree
C      -0.65783212     -0.77560772      0.83306713
N      -1.90713210     -0.90542757     -0.01421091
O      -2.92842050     -1.09382192      0.58711469
O      -1.70800626     -0.87651627     -1.17852369
H       0.08811362     -1.27569934      0.25985274
H      -0.82915603     -1.24193603      1.80754050
H      -0.36152427      0.26661421      0.87165206
7
Frame 10  Energy = -244.9332503247 Hartree
C      -0.65764593     -0.77574983      0.83400417
N      -1.90736681     -0.90583537     -0.01214722
O      -2.92930065     -1.08874467      0.58616289
O      -1.70726489     -0.88068903     -1.18022773
H       0.08362784     -1.28727160      0.26208985
H      -0.82968968     -1.24881316      1.80966427
H      -0.36259261      0.27129950      0.87991301
7
Frame 15  Energy = -244.9332887632 Hartree
C      -0.65763003     -0.77585382      0.83491334
N      -1.90715475     -0.90622355     -0.00964964
O      -2.93051944     -1.08366779      0.58526019
O      -1.70655614     -0.88479970     -1.18230742
H       0.08090458     -1.30020699      0.26373041
H      -0.83074356     -1.25488075      1.81152407
H      -0.36416038      0.27633755      0.88849784
7
Frame 20  Energy = -244.9331575162 Hartree
C      -0.65774918     -0.77606607      0.83589360
N      -1.90652683     -0.90665142     -0.00674042
O      -2.93204439     -1.07860212      0.58444018
O      -1.70598366     -0.88885966     -1.18474663
H       0.07954407     -1.31418437      0.26490397
H      -0.83193439     -1.25976601      1.81271154
H      -0.36641937      0.28130276      0.89722982
7
Frame 25  Energy = -244.9330212020 Hartree
C      -0.65797960     -0.77639828      0.83689842
N      -1.90545565     -0.90704437     -0.00347071
O      -2.93381011     -1.07347027      0.58372391
O      -1.70545017     -0.89289076     -1.18756366
H       0.07951827     -1.32897004      0.26619890
H      -0.83337785     -1.26383486      1.81285452
H      -0.36911849      0.28587230      0.90653027
7
Frame 30  Energy = -244.9328627643 Hartree
C      -0.65816990     -0.77680820      0.83795685
N      -1.90406474     -0.90744398      0.00010944
O      -2.93579159     -1.06834062      0.58299653
O      -1.70498664     -0.89689444     -1.19066370
H       0.08068482     -1.34376315      0.26740355
H      -0.83485675     -1.26672818      1.81182269
H      -0.37244384      0.28959128      0.91612231
7
Frame 35  Energy = -244.9331043925 Hartree
C      -0.65822312     -0.77729777      0.83906031
N      -1.90223464     -0.90789723      0.00389349
O      -2.93798867     -1.06322581      0.58225680
O      -1.70467926     -0.90081049     -1.19390328
H       0.08222717     -1.35784019      0.26908431
H      -0.83627727     -1.26845140      1.80983552
H      -0.37647215      0.29147796      0.92577702
7
Frame 40  Energy = -244.9326502099 Hartree
C      -0.65832213     -0.77789669      0.84023361
N      -1.90005599     -0.90833804      0.00769391
O      -2.94052793     -1.05815537      0.58144312
O      -1.70456252     -0.90468153     -1.19727349
H       0.08434117     -1.37088119      0.27119308
H      -0.83790804     -1.26908743      1.80665245
H      -0.38115393      0.29168164      0.93547431
7
Frame 45  Energy = -244.9328239665 Hartree
C      -0.65841415     -0.77860481      0.84146108
N      -1.89747956     -0.90884399      0.01136630
O      -2.94338882     -1.05307721      0.58066720
O      -1.70457577     -0.90855235     -1.20071208
H       0.08661494     -1.38264733      0.27402706
H      -0.83967904     -1.26865586      1.80254534
H      -0.38634921      0.29001325      0.94473689
7
Frame 50  Energy = -244.9330697981 Hartree
C      -0.65853056     -0.77944681      0.84260916
N      -1.89464694     -0.90934871      0.01485132
O      -2.94639390     -1.04800562      0.57998335
O      -1.70461544     -0.91226175     -1.20405232
H       0.08824077     -1.39262188      0.27799560
H      -0.84192432     -1.26775593      1.79835674
H      -0.39189373      0.28650935      0.95327206
7
Frame 55  Energy = -244.9332946072 Hartree
C      -0.65865476     -0.78031720      0.84365510
N      -1.89161127     -0.90985987      0.01805063
O      -2.94954391     -1.04290220      0.57935629
O      -1.70473916     -0.91583344     -1.20726058
H       0.08918738     -1.40042096      0.28320149
H      -0.84457480     -1.26654909      1.79448052
H      -0.39780308      0.28160512      0.96114313
7
Frame 60  Energy = -244.9335564257 Hartree
C      -0.65870070     -0.78132151      0.84460729
N      -1.88839911     -0.91040812      0.02098030
O      -2.95282175     -1.03785956      0.57874019
O      -1.70483274     -0.91927010     -1.21018190
H       0.08929293     -1.40622642      0.28942022
H      -0.84743310     -1.26527974      1.79171763
H      -0.40361214      0.27552516      0.96862758
7
Frame 65  Energy = -244.9336414448 Hartree
C      -0.65860198     -0.78258261      0.84545901
N      -1.88516878     -0.91095663      0.02360974
O      -2.95616226     -1.03287201      0.57814917
O      -1.70496540     -0.92259423     -1.21284057
H       0.08841917     -1.41016972      0.29664220
H      -0.85082552     -1.26414163      1.78989371
H      -0.40913948      0.26887257      0.97549781
7
Frame 70  Energy = -244.9338538336 Hartree
C      -0.65834107     -0.78399697      0.84619022
N      -1.88195582     -0.91158124      0.02580608
O      -2.95948132     -1.02787251      0.57749284
O      -1.70522350     -0.92590024     -1.21519156
H       0.08654854     -1.41204991      0.30494582
H      -0.85476007     -1.26313997      1.78927146
H      -0.41443852      0.26194732      0.98189602
7
Frame 75  Energy = -244.9335832939 Hartree
C      -0.65793288     -0.78557528      0.84678684
N      -1.87875001     -0.91215858      0.02757310
O      -2.96276313     -1.02281967      0.57679254
O      -1.70552455     -0.92913392     -1.21718890
H       0.08408854     -1.41154888      0.31432831
H      -0.85932202     -1.26256755      1.79011151
H      -0.41926054      0.25531552      0.98791622
7
Frame 80  Energy = -244.9333863215 Hartree
C      -0.65744899     -0.78742060      0.84738239
N      -1.87550393     -0.91277913      0.02892279
O      -2.96601573     -1.01769280      0.57606044
O      -1.70589270     -0.93233936     -1.21873622
H       0.08132275     -1.40919151      0.32462949
H      -0.86455118     -1.26233292      1.79232871
H      -0.42347748      0.24957864      0.99291367
7
Frame 85  Energy = -244.9333577550 Hartree
C      -0.65694281     -0.78946733      0.84806411
N      -1.87239375     -0.91344268      0.02979994
O      -2.96915290     -1.01253282      0.57524784
O      -1.70624872     -0.93547514     -1.21990480
H       0.07872055     -1.40520917      0.33558212
H      -0.87041156     -1.26228928      1.79603237
H      -0.42671598      0.24483649      0.99725099
7
Frame 90  Energy = -244.9335245402 Hartree
C      -0.65647246     -0.79168588      0.84884546
N      -1.86946792     -0.91407330      0.03026537
O      -2.97208767     -1.00733333      0.57436396
O      -1.70665239     -0.93851950     -1.22059971
H       0.07683056     -1.40040161      0.34648394
H      -0.87648570     -1.26248497      1.80082825
H      -0.42940532      0.24151209      1.00111057
7
Frame 95  Energy = -244.9335595668 Hartree
C      -0.65612608     -0.79408913      0.84979740
N      -1.86680290     -0.91474338      0.03026147
O      -2.97483653     -1.00215215      0.57343011
O      -1.70706382     -0.94148912     -1.22090021
H       0.07653828     -1.39486717      0.35672176
H      -0.88254548     -1.26268473      1.80639598
H      -0.43109748      0.23952003      1.00445834
7
Frame 100  Energy = -244.9336658260 Hartree
C      -0.65596633     -0.79665664      0.85088402
N      -1.86453259     -0.91537719      0.02977506
O      -2.97731339     -0.99697479      0.57237732
O      -1.70748207     -0.94443096     -1.22071646
H       0.07855529     -1.38934878      0.36614892
H      -0.88900594     -1.26277279      1.81189591
H      -0.43193763      0.23910208      1.00756020
7
Frame 105  Energy = -244.9336028204 Hartree
C      -0.65605513     -0.79937382      0.85216975
N      -1.86264615     -0.91597009      0.02877697
O      -2.97949083     -0.99178071      0.57118625
O      -1.70787931     -0.94734756     -1.22001576
H       0.08306254     -1.38406602      0.37418439
H      -0.89549641     -1.26243526      1.81727221
H      -0.43175922      0.24005156      1.01036102
7
Frame 110  Energy = -244.9334940747 Hartree
C      -0.65621543     -0.80213231      0.85365497
N      -1.86111915     -0.91662082      0.02729779
O      -2.98135927     -0.98653484      0.56996617
O      -1.70838989     -0.95025959     -1.21886568
H       0.09065419     -1.37927971      0.38074295
H      -0.90228744     -1.26160632      1.82234992
H      -0.43066273      0.24152494      1.01255008
7
Frame 115  Energy = -244.9333306954 Hartree
C      -0.65651954     -0.80495429      0.85547910
N      -1.86003451     -0.91726931      0.02542414
O      -2.98295682     -0.98121303      0.56875810
O      -1.70895038     -0.95312097     -1.21727545
H       0.10084176     -1.37523730      0.38601309
H      -0.90930599     -1.26046169      1.82688267
H      -0.42900679      0.24345135      1.01400313
7
Frame 120  Energy = -244.9332190977 Hartree
C      -0.65708864     -0.80772723      0.85769836
N      -1.85940641     -0.91791111      0.02306501
O      -2.98422567     -0.97579212      0.56750883
O      -1.70956801     -0.95599131     -1.21524818
H       0.11331537     -1.37205948      0.39009037
H      -0.91606583     -1.25849118      1.83089803
H      -0.42681108      0.24527975      1.01473182
7
Frame 125  Energy = -244.9330391492 Hartree
C      -0.65783394     -0.81044771      0.86028871
N      -1.85917741     -0.91865911      0.02041862
O      -2.98511163     -0.97027161      0.56622664
O      -1.71018771     -0.95894120     -1.21283163
H       0.12769443     -1.36938771      0.39303738
H      -0.92264307     -1.25634163      1.83399296
H      -0.42438171      0.24698931      1.01460086
7
Frame 130  Energy = -244.9330520921 Hartree
C      -0.65870804     -0.81305811      0.86315241
N      -1.85936599     -0.91946636      0.01750493
O      -2.98566935     -0.96469901      0.56489393
O      -1.71075197     -0.96182134     -1.21002119
H       0.14324772     -1.36725060      0.39528728
H      -0.92903481     -1.25421371      1.83607224
H      -0.42209228      0.24853518      1.01410190
7
Frame 135  Energy = -244.9328663249 Hartree
C      -0.65965200     -0.81569659      0.86612650
N      -1.86006109     -0.92032756      0.01434597
O      -2.98598511     -0.95903624      0.56348363
O      -1.71128583     -0.96471766     -1.20695342
H       0.15929367     -1.36512514      0.39729067
H      -0.93506725     -1.25228530      1.83699219
H      -0.41957508      0.24963038      1.01317371
7
Frame 140  Energy = -244.9328336171 Hartree
C      -0.66064486     -0.81823134      0.86936844
N      -1.86122609     -0.92134397      0.01091910
O      -2.98600468     -0.95335125      0.56204662
O      -1.71182194     -0.96749405     -1.20364867
H       0.17487156     -1.36296564      0.39901592
H      -0.94093233     -1.24990566      1.83690840
H      -0.41724020      0.24974731      1.01143105
7
Frame 145  Energy = -244.9329218119 Hartree
C      -0.66151082     -0.82075430      0.87269048
N      -1.86282374     -0.92245591      0.00736701
O      -2.98578546     -0.94770584      0.56058684
O      -1.71237736     -0.97014986     -1.20020495
H       0.18922498     -1.36061061      0.40107529
H      -0.94609606     -1.24759586      1.83590052
H      -0.41521213      0.24870226      1.00892408
7
Frame 150  Energy = -244.9331734551 Hartree
C      -0.66216102     -0.82326805      0.87602174
N      -1.86473510     -0.92361218      0.00382963
O      -2.98525559     -0.94210490      0.55904032
O      -1.71282655     -0.97275972     -1.19671279
H       0.20190842     -1.35704216      0.40380713
H      -0.95059169     -1.24594636      1.83467967
H      -0.41384623      0.24645341      1.00582327
7
Frame 155  Energy = -244.9328897383 Hartree
C      -0.66280068     -0.82580944      0.87931356
N      -1.86692670     -0.92487132      0.00044465
O      -2.98440308     -0.93652694      0.55733090
O      -1.71320896     -0.97538236     -1.19317534
H       0.21234731     -1.35254163      0.40758062
H      -0.95504857     -1.24475605      1.83338893
H      -0.41310444      0.24336380      1.00253000
7
Frame 160  Energy = -244.9328912630 Hartree
C      -0.66332938     -0.82825198      0.88250505
N      -1.86940907     -0.92619614     -0.00268237
O      -2.98318005     -0.93083834      0.55540000
O      -1.71352790     -0.97800981     -1.18978941
H       0.22004873     -1.34708404      0.41214506
H      -0.95922127     -1.24422721      1.83242448
H      -0.41339216      0.23904860      0.99908484
7
Frame 165  Energy = -244.9327588205 Hartree
C      -0.66366635     -0.83074664      0.88553037
N      -1.87223397     -0.92756640     -0.00555486
O      -2.98172528     -0.92511189      0.55339074
O      -1.71377809     -0.98056445     -1.18653421
H       0.22482526     -1.34133676      0.41749209
H      -0.96352846     -1.24415794      1.83221638
H      -0.41461594      0.23377299      0.99520292
7
Frame 170  Energy = -244.9326328395 Hartree
C      -0.66386192     -0.83323727      0.88840226
N      -1.87534201     -0.92892142     -0.00802610
O      -2.98006438     -0.91936673      0.55130869
O      -1.71394384     -0.98316757     -1.18347497
H       0.22651914     -1.33512214      0.42376314
H      -0.96772372     -1.24500882      1.83336446
H      -0.41634406      0.22745459      0.99133822
7
Frame 175  Energy = -244.9324676838 Hartree
C      -0.66397438     -0.83570186      0.89097617
N      -1.87865851     -0.93033246     -0.01003734
O      -2.97826188     -0.91363121      0.54910748
O      -1.71403953     -0.98578236     -1.18071904
H       0.22572662     -1.32833017      0.43097534
H      -0.97169357     -1.24670736      1.83571274
H      -0.41850177      0.22082183      0.98719688
7
Frame 180  Energy = -244.9325857068 Hartree
C      -0.66398216     -0.83809319      0.89341433
N      -1.88209386     -0.93172282     -0.01151839
O      -2.97636688     -0.90791054      0.54682593
O      -1.71406086     -0.98850284     -1.17829240
H       0.22274481     -1.32165310      0.43859173
H      -0.97561250     -1.24906428      1.83931311
H      -0.42094884      0.21407072      0.98291790
7
Frame 185  Energy = -244.9327086028 Hartree
C      -0.66396100     -0.84030999      0.89574189
N      -1.88548185     -0.93308439     -0.01238533
O      -2.97444270     -0.90218984      0.54457721
O      -1.71409463     -0.99125311     -1.17629325
H       0.21757774     -1.31569172      0.44658190
H      -0.97959442     -1.25185960      1.84353999
H      -0.42376625      0.20832174      0.97864895
7
Frame 190  Energy = -244.9327292026 Hartree
C      -0.66396319     -0.84257994      0.89792340
N      -1.88883001     -0.93445673     -0.01274442
O      -2.97248906     -0.89649721      0.54234477
O      -1.71406178     -0.99409602     -1.17467873
H       0.21095843     -1.31059949      0.45456074
H      -0.98330082     -1.25524191      1.84823997
H      -0.42705825      0.20397767      0.97503813
7
Frame 195  Energy = -244.9326506289 Hartree
C      -0.66408693     -0.84482359      0.89992067
N      -1.89212466     -0.93588109     -0.01261517
O      -2.97055773     -0.89081682      0.54017500
O      -1.71390337     -0.99701512     -1.17352570
H       0.20407552     -1.30678002      0.46177292
H      -0.98635344     -1.25900411      1.85351666
H      -0.43084246      0.20106789      0.97212515
7
Frame 200  Energy = -244.9325082388 Hartree
C      -0.66446440     -0.84697485      0.90181391
N      -1.89530619     -0.93729498     -0.01199310
O      -2.96866262     -0.88510615      0.53804797
O      -1.71361439     -0.99993925     -1.17282518
H       0.19737896     -1.30503623      0.46831675
H      -0.98876039     -1.26311796      1.85911249
H      -0.43509967      0.19966546      0.96947029
7
Frame 205  Energy = -244.9326219986 Hartree
C      -0.66520448     -0.84915708      0.90371622
N      -1.89824759     -0.93856482     -0.01081923
O      -2.96690727     -0.87943907      0.53597761
O      -1.71314989     -1.00292673     -1.17258972
H       0.19138627     -1.30565864      0.47387815
H      -0.99034523     -1.26712708      1.86484442
H      -0.43936536      0.19983853      0.96733408
7
Frame 210  Energy = -244.9327124197 Hartree
C      -0.66635789     -0.85132627      0.90568894
N      -1.90081784     -0.93977670     -0.00925765
O      -2.96539339     -0.87376946      0.53395155
O      -1.71263009     -1.00598117     -1.17283468
H       0.18660776     -1.30890298      0.47815405
H      -0.99087748     -1.27082486      1.87004135
H      -0.44368776      0.20144335      0.96613281
7
Frame 215  Energy = -244.9327995652 Hartree
C      -0.66793767     -0.85338865      0.90768716
N      -1.90293613     -0.94100368     -0.00735221
O      -2.96416684     -0.86814465      0.53204509
O      -1.71207210     -1.00908394     -1.17352711
H       0.18347444     -1.31442639      0.48108777
H      -0.99024659     -1.27432141      1.87481598
H      -0.44818822      0.20423286      0.96550217
7
Frame 220  Energy = -244.9329263278 Hartree
C      -0.66985275     -0.85540174      0.90976776
N      -1.90454133     -0.94227113     -0.00505324
O      -2.96326746     -0.86254725      0.53036396
O      -1.71145249     -1.01224944     -1.17457941
H       0.18153516     -1.32204177      0.48245833
H      -0.98854851     -1.27740896      1.87872833
H      -0.45294320      0.20790066      0.96593891
7
Frame 225  Energy = -244.9329491288 Hartree
C      -0.67214195     -0.85730631      0.91199399
N      -1.90562933     -0.94351310     -0.00256068
O      -2.96275000     -0.85688008      0.52876275
O      -1.71074340     -1.01538462     -1.17589402
H       0.18086090     -1.33200041      0.48213358
H      -0.98613504     -1.28017479      1.88143976
H      -0.45794239      0.21183200      0.96745178
7
Frame 230  Energy = -244.9330112266 Hartree
C      -0.67473203     -0.85902907      0.91423184
N      -1.90623746     -0.94472310      0.00002038
O      -2.96257653     -0.85122758      0.52733494
O      -1.70994994     -1.01861347     -1.17749745
H       0.18105251     -1.34399604      0.48066921
H      -0.98339506     -1.28227797      1.88296271
H      -0.46287292      0.21558477      0.96959900
7
Frame 235  Energy = -244.9329212547 Hartree
C      -0.67755750     -0.86055894      0.91640235
N      -1.90641365     -0.94599077      0.00267804
O      -2.96280387     -0.84554608      0.52608422
O      -1.70913785     -1.02187663     -1.17937201
H       0.18181025     -1.35741539      0.47840572
H      -0.98038909     -1.28384673      1.88370638
H      -0.46821603      0.21911618      0.97267451
7
Frame 240  Energy = -244.9330610586 Hartree
C      -0.68049887     -0.86190348      0.91846992
N      -1.90609720     -0.94720792      0.00537334
O      -2.96348453     -0.83977580      0.52508334
O      -1.70829832     -1.02518177     -1.18148023
H       0.18255376     -1.37169462      0.47562996
H      -0.97731197     -1.28504326      1.88380085
H      -0.47383947      0.22201993      0.97689404
7
Frame 245  Energy = -244.9328255101 Hartree
C      -0.68342220     -0.86316681      0.92035355
N      -1.90524415     -0.94834987      0.00806297
O      -2.96462277     -0.83396767      0.52431304
O      -1.70740708     -1.02859264     -1.18374439
H       0.18224184     -1.38629338      0.47278061
H      -0.97391605     -1.28587680      1.88338282
H      -0.47917390      0.22352252      0.98177865
7
Frame 250  Energy = -244.9328152502 Hartree
C      -0.68633653     -0.86433991      0.92203952
N      -1.90387878     -0.94947054      0.01069351
O      -2.96617450     -0.82810692      0.52374769
O      -1.70648278     -1.03207830     -1.18614120
H       0.18028132     -1.40054371      0.46979504
H      -0.97040895     -1.28677896      1.88275679
H      -0.48455113      0.22354122      0.98715141
7
Frame 255  Energy = -244.9329591835 Hartree
C      -0.68919291     -0.86541489      0.92353180
N      -1.90207238     -0.95068929      0.01318317
O      -2.96806232     -0.82228872      0.52341046
O      -1.70551180     -1.03562897     -1.18850197
H       0.17635175     -1.41372936      0.46722907
H      -0.96686055     -1.28769972      1.88209751
H      -0.48987765      0.22212909      0.99289864
7
Frame 260  Energy = -244.9330404568 Hartree
C      -0.69194225     -0.86643303      0.92488513
N      -1.89991891     -0.95195377      0.01558155
O      -2.97014273     -0.81645685      0.52313989
O      -1.70449217     -1.03918257     -1.19077380
H       0.17013396     -1.42582162      0.46531006
H      -0.96358028     -1.28859259      1.88204614
H      -0.49464408      0.21952987      0.99912286
7
Frame 265  Energy = -244.9326737292 Hartree
C      -0.69462554     -0.86746340      0.92607181
N      -1.89753149     -0.95316413      0.01778183
O      -2.97244597     -0.81054838      0.52294910
O      -1.70347294     -1.04276295     -1.19303397
H       0.16157016     -1.43632201      0.46405458
H      -0.96080006     -1.28963677      1.88269390
H      -0.49924990      0.21524626      1.00570377
7
Frame 270  Energy = -244.9326216667 Hartree
C      -0.69727663     -0.86856433      0.92706040
N      -1.89486058     -0.95436305      0.01974931
O      -2.97497227     -0.80460814      0.52286767
O      -1.70240089     -1.04645085     -1.19524051
H       0.15053511     -1.44524382      0.46322896
H      -0.95867785     -1.29096567      1.88370064
H      -0.50353074      0.20971661      1.01251788
7
Frame 275  Energy = -244.9326294908 Hartree
C      -0.69977116     -0.86964443      0.92780057
N      -1.89198252     -0.95541040      0.02147098
O      -2.97759767     -0.79873546      0.52285770
O      -1.70122888     -1.05016694     -1.19725378
H       0.13708522     -1.45247439      0.46329953
H      -0.95728243     -1.29258688      1.88538060
H      -0.50709571      0.20331695      1.01950746
7
Frame 280  Energy = -244.9327799922 Hartree
C      -0.70224293     -0.87080537      0.92837455
N      -1.88906566     -0.95642087      0.02290937
O      -2.98024618     -0.79293051      0.52287874
O      -1.70008286     -1.05391500     -1.19909418
H       0.12168426     -1.45807175      0.46421765
H      -0.95706239     -1.29453760      1.88781218
H      -0.50995522      0.19600168      1.02660319
7
Frame 285  Energy = -244.9326024340 Hartree
C      -0.70471236     -0.87208502      0.92881002
N      -1.88616729     -0.95747447      0.02399790
O      -2.98286509     -0.78719071      0.52293911
O      -1.69894489     -1.05775144     -1.20068646
H       0.10508440     -1.46204836      0.46588661
H      -0.95778547     -1.29673081      1.89131314
H      -0.51182653      0.18873091      1.03348632
7
Frame 290  Energy = -244.9326436463 Hartree
C      -0.70718714     -0.87353751      0.92921885
N      -1.88329543     -0.95837720      0.02478671
O      -2.98545214     -0.78152350      0.52302342
O      -1.69778858     -1.06167680     -1.20196997
H       0.08799611     -1.46437006      0.46781546
H      -0.95920772     -1.29906965      1.89523549
H      -0.51276233      0.18168437      1.04010110
7
Frame 295  Energy = -244.9326473260 Hartree
C      -0.70962243     -0.87517731      0.92954557
N      -1.88046446     -0.95919680      0.02525441
O      -2.98798193     -0.77594320      0.52314952
O      -1.69661921     -1.06565281     -1.20291669
H       0.07106338     -1.46527685      0.46977992
H      -0.96143009     -1.30147792      1.89932219
H      -0.51281386      0.17561329      1.04657272
7
Frame 300  Energy = -244.9324035411 Hartree
C      -0.71213046     -0.87696635      0.92984800
N      -1.87787855     -0.95984144      0.02545465
O      -2.99030805     -0.77038222      0.52325635
O      -1.69537843     -1.06968324     -1.20347108
H       0.05475991     -1.46557107      0.47106393
H      -0.96472793     -1.30399168      1.90307117
H      -0.51187039      0.17102618      1.05289214
