7
Frame 5  Energy = -244.9340885983 Hartree
C      -0.61073089     -0.74391815      0.80055785
N      -1.85355747     -0.97120022      0.00797934
O      -2.84868635     -1.38003071      0.58440982
O      -1.86149334     -0.59971340     -1.18816614
H       0.19558249     -1.25887581      0.30916015
H      -0.77878167     -1.09078936      1.83512253
H      -0.37623313      0.33081806      0.78749706
7
Frame 10  Energy = -244.9338230092 Hartree
C      -0.61153524     -0.74321593      0.80253059
N      -1.85599883     -0.97247364      0.00531834
O      -2.84985076     -1.37437165      0.58424311
O      -1.85820264     -0.60383189     -1.18713126
H       0.19762107     -1.25190227      0.30295833
H      -0.78207848     -1.09253107      1.83773094
H      -0.36799320      0.33132797      0.78473765
7
Frame 15  Energy = -244.9338463954 Hartree
C      -0.61236410     -0.74248961      0.80454324
N      -1.85862851     -0.97353845      0.00238117
O      -2.85104364     -1.36873077      0.58408437
O      -1.85486193     -0.60814250     -1.18582100
H       0.20054274     -1.24617360      0.29677544
H      -0.78526949     -1.09406298      1.83865595
H      -0.36049264      0.33123260      0.78163340
7
Frame 20  Energy = -244.9339126582 Hartree
C      -0.61316720     -0.74178619      0.80654267
N      -1.86135452     -0.97438224     -0.00084717
O      -2.85220337     -1.36320453      0.58397004
O      -1.85150273     -0.61266762     -1.18423585
H       0.20349113     -1.24124620      0.29090617
H      -0.78811991     -1.09535289      1.83807233
H      -0.35366936      0.33041185      0.77880747
7
Frame 25  Energy = -244.9337563565 Hartree
C      -0.61386720     -0.74113381      0.80842262
N      -1.86402819     -0.97497689     -0.00415509
O      -2.85327737     -1.35767707      0.58392446
O      -1.84813972     -0.61731306     -1.18239010
H       0.20644355     -1.23728732      0.28535063
H      -0.79080823     -1.09653972      1.83605735
H      -0.34800655      0.32858621      0.77619740
7
Frame 30  Energy = -244.9337159341 Hartree
C      -0.61462573     -0.74049838      0.81018186
N      -1.86670060     -0.97529616     -0.00748118
O      -2.85436075     -1.35214444      0.58384471
O      -1.84470848     -0.62207590     -1.18037038
H       0.20900867     -1.23428076      0.28034817
H      -0.79335568     -1.09763012      1.83301955
H      -0.34358939      0.32614360      0.77381727
7
Frame 35  Energy = -244.9338438554 Hartree
C      -0.61539658     -0.73977564      0.81176754
N      -1.86937592     -0.97536677     -0.01081859
O      -2.85553444     -1.34670543      0.58378288
O      -1.84130548     -0.62694139     -1.17827369
H       0.21087864     -1.23201453      0.27605518
H      -0.79607397     -1.09879789      1.82925304
H      -0.34072100      0.32312866      0.77184552
7
Frame 40  Energy = -244.9338767960 Hartree
C      -0.61602963     -0.73911786      0.81315030
N      -1.87192217     -0.97528385     -0.01406786
O      -2.85678218     -1.34129498      0.58374146
O      -1.83794905     -0.63175713     -1.17611139
H       0.21205904     -1.23045710      0.27247271
H      -0.79860668     -1.09978516      1.82456309
H      -0.33918375      0.31996094      0.77006365
7
Frame 45  Energy = -244.9339459809 Hartree
C      -0.61654248     -0.73857151      0.81430588
N      -1.87440732     -0.97496538     -0.01717888
O      -2.85812761     -1.33604347      0.58377697
O      -1.83455643     -0.63652966     -1.17399357
H       0.21237775     -1.22956333      0.26982692
H      -0.80099286     -1.10094241      1.81963236
H      -0.33900942      0.31697703      0.76867460
7
Frame 50  Energy = -244.9335490534 Hartree
C      -0.61692253     -0.73812468      0.81521138
N      -1.87672632     -0.97443145     -0.02012501
O      -2.85961655     -1.33084550      0.58388388
O      -1.83107658     -0.64140592     -1.17193905
H       0.21190922     -1.22952482      0.26885364
H      -0.80276474     -1.10232693      1.81458821
H      -0.34020579      0.31432888      0.76770870
7
Frame 55  Energy = -244.9334694849 Hartree
C      -0.61716182     -0.73774017      0.81580254
N      -1.87881607     -0.97373982     -0.02286374
O      -2.86119183     -1.32569256      0.58403779
O      -1.82760532     -0.64640049     -1.17004557
H       0.21057586     -1.23040356      0.26941684
H      -0.80451761     -1.10422434      1.81016052
H      -0.34288768      0.31229738      0.76723126
7
Frame 60  Energy = -244.9335625552 Hartree
C      -0.61725210     -0.73742520      0.81600288
N      -1.88075655     -0.97284042     -0.02525904
O      -2.86284906     -1.32062114      0.58422603
O      -1.82419196     -0.65137528     -1.16842078
H       0.20784464     -1.23183734      0.27108216
H      -0.80611270     -1.10672545      1.80671096
H      -0.34660288      0.31108362      0.76727911
7
Frame 65  Energy = -244.9337808843 Hartree
C      -0.61721385     -0.73718098      0.81590986
N      -1.88244007     -0.97170374     -0.02717265
O      -2.86468145     -1.31567552      0.58442931
O      -1.82079443     -0.65622042     -1.16716878
H       0.20380366     -1.23383743      0.27393043
H      -0.80746523     -1.10952814      1.80440354
H      -0.35153804      0.31062115      0.76802649
7
Frame 70  Energy = -244.9338637496 Hartree
C      -0.61714949     -0.73702879      0.81548965
N      -1.88396222     -0.97046075     -0.02854384
O      -2.86664456     -1.31084620      0.58475956
O      -1.81739517     -0.66097428     -1.16631003
H       0.19901024     -1.23618806      0.27788595
H      -0.80842800     -1.11254063      1.80323362
H      -0.35747769      0.31117652      0.76928450
7
Frame 75  Energy = -244.9338848695 Hartree
C      -0.61713514     -0.73703878      0.81476701
N      -1.88530382     -0.96908448     -0.02930128
O      -2.86867845     -1.30608440      0.58506579
O      -1.81398351     -0.66566021     -1.16584131
H       0.19358141     -1.23932686      0.28294686
H      -0.80922145     -1.11598160      1.80317958
H      -0.36424459      0.31258798      0.77119254
7
Frame 80  Energy = -244.9339663603 Hartree
C      -0.61719331     -0.73710811      0.81382251
N      -1.88642575     -0.96757854     -0.02949105
O      -2.87089010     -1.30137503      0.58531344
O      -1.81059387     -0.67025254     -1.16579780
H       0.18799064     -1.24346834      0.28842912
H      -0.80999691     -1.11969028      1.80386419
H      -0.37180635      0.31533942      0.77381383
7
Frame 85  Energy = -244.9340450827 Hartree
C      -0.61735612     -0.73724409      0.81264470
N      -1.88723963     -0.96606329     -0.02906329
O      -2.87320253     -1.29673644      0.58553098
O      -1.80736265     -0.67477597     -1.16621012
H       0.18282058     -1.24844044      0.29371651
H      -0.81079216     -1.12357727      1.80537443
H      -0.38022772      0.31919219      0.77720559
7
Frame 90  Energy = -244.9341168536 Hartree
C      -0.61756601     -0.73756328      0.81126613
N      -1.88775216     -0.96454234     -0.02792527
O      -2.87566535     -1.29211921      0.58584229
O      -1.80413385     -0.67923347     -1.16711524
H       0.17815129     -1.25421655      0.29866896
H      -0.81162118     -1.12754916      1.80749503
H      -0.38898399      0.32381619      0.78102035
7
Frame 95  Energy = -244.9342748527 Hartree
C      -0.61785609     -0.73792008      0.80968116
N      -1.88795386     -0.96300064     -0.02611347
O      -2.87816062     -1.28757972      0.58618344
O      -1.80084609     -0.68356032     -1.16856884
H       0.17422789     -1.26109092      0.30302014
H      -0.81250177     -1.13143537      1.81015362
H      -0.39824390      0.32850744      0.78508666
7
Frame 100  Energy = -244.9343910021 Hartree
C      -0.61827450     -0.73829802      0.80800947
N      -1.88788776     -0.96139423     -0.02366787
O      -2.88073409     -1.28308237      0.58657757
O      -1.79759926     -0.68779015     -1.17038412
H       0.17126027     -1.26872857      0.30693024
H      -0.81344892     -1.13473337      1.81255894
H      -0.40804040      0.33339565      0.78944277
7
Frame 105  Energy = -244.9342801697 Hartree
C      -0.61880038     -0.73869862      0.80634086
N      -1.88756206     -0.95966943     -0.02071104
O      -2.88338342     -1.27858412      0.58702035
O      -1.79441883     -0.69198982     -1.17263064
H       0.16902166     -1.27708220      0.31043217
H      -0.81418521     -1.13707088      1.81449212
H      -0.41826248      0.33821084      0.79409770
7
Frame 110  Energy = -244.9344846473 Hartree
C      -0.61945266     -0.73910205      0.80473280
N      -1.88694441     -0.95790109     -0.01738800
O      -2.88614323     -1.27413431      0.58750333
O      -1.79121972     -0.69611629     -1.17523461
H       0.16768908     -1.28595182      0.31295135
H      -0.81472409     -1.13875621      1.81555308
H      -0.42877638      0.34253689      0.79929837
7
Frame 115  Energy = -244.9345142486 Hartree
C      -0.62034384     -0.73959316      0.80322894
N      -1.88617005     -0.95609306     -0.01363661
O      -2.88899722     -1.26974310      0.58791403
O      -1.78794829     -0.70014309     -1.17808976
H       0.16715693     -1.29513584      0.31477486
H      -0.81482112     -1.13975395      1.81580400
H      -0.43926082      0.34608147      0.80480928
7
Frame 120  Energy = -244.9345902911 Hartree
C      -0.62140675     -0.74017159      0.80181168
N      -1.88520350     -0.95413434     -0.00954451
O      -2.89188678     -1.26539762      0.58830404
O      -1.78469339     -0.70412005     -1.18123742
H       0.16759123     -1.30424252      0.31592979
H      -0.81455655     -1.14015700      1.81508073
H      -0.44921187      0.34849874      0.81030836
7
Frame 125  Energy = -244.9343399287 Hartree
C      -0.62256624     -0.74076642      0.80048149
N      -1.88403044     -0.95204477     -0.00517810
O      -2.89486688     -1.26110889      0.58867550
O      -1.78148482     -0.70810160     -1.18464430
H       0.16875941     -1.31301447      0.31657793
H      -0.81413543     -1.14011885      1.81332163
H      -0.45893540      0.34971864      0.81536874
7
Frame 130  Energy = -244.9345207687 Hartree
C      -0.62384022     -0.74138880      0.79924533
N      -1.88268930     -0.94984498     -0.00069427
O      -2.89786638     -1.25689000      0.58911435
O      -1.77828760     -0.71207615     -1.18818918
H       0.17040580     -1.32117677      0.31669083
H      -0.81376128     -1.13951283      1.81073107
H      -0.46845166      0.34943059      0.82024188
7
Frame 135  Energy = -244.9346895850 Hartree
C      -0.62513395     -0.74203713      0.79812868
N      -1.88128565     -0.94762608      0.00384117
O      -2.90087525     -1.25279242      0.58965623
O      -1.77516350     -0.71610707     -1.19176628
H       0.17186701     -1.32825254      0.31672620
H      -0.81341112     -1.13799429      1.80731650
H      -0.47734015      0.34773820      0.82483233
7
Frame 140  Energy = -244.9345451715 Hartree
C      -0.62655967     -0.74281148      0.79708552
N      -1.87988599     -0.94535618      0.00834554
O      -2.90377233     -1.24872558      0.59024791
O      -1.77211335     -0.72019827     -1.19525660
H       0.17297466     -1.33392303      0.31684423
H      -0.81307498     -1.13595432      1.80317044
H      -0.48544285      0.34483119      0.82930673
7
Frame 145  Energy = -244.9346054859 Hartree
C      -0.62802685     -0.74377279      0.79611051
N      -1.87854974     -0.94305331      0.01276048
O      -2.90661997     -1.24455990      0.59088829
O      -1.76908576     -0.72436268     -1.19857699
H       0.17360147     -1.33806108      0.31697778
H      -0.81289123     -1.13352969      1.79878267
H      -0.49282242      0.34114973      0.83360917
7
Frame 150  Energy = -244.9345338995 Hartree
C      -0.62947176     -0.74484990      0.79510916
N      -1.87717952     -0.94076671      0.01692100
O      -2.90942219     -1.24042422      0.59145996
O      -1.76608532     -0.72859253     -1.20174942
H       0.17327074     -1.34046371      0.31726696
H      -0.81281627     -1.13068423      1.79429060
H      -0.49924570      0.33681319      0.83754072
7
Frame 155  Energy = -244.9347297361 Hartree
C      -0.63094834     -0.74603414      0.79416771
N      -1.87584267     -0.93842415      0.02076441
O      -2.91214445     -1.23637184      0.59204552
O      -1.76315608     -0.73289438     -1.20469817
H       0.17235688     -1.34069501      0.31770539
H      -0.81245388     -1.12777484      1.79030197
H      -0.50447754      0.33209276      0.84068618
7
Frame 160  Energy = -244.9348072060 Hartree
C      -0.63242182     -0.74727208      0.79328826
N      -1.87460471     -0.93599465      0.02423013
O      -2.91474843     -1.23239827      0.59265905
O      -1.76038899     -0.73733063     -1.20738540
H       0.17075824     -1.33870269      0.31865423
H      -0.81230464     -1.12535432      1.78713382
H      -0.50825323      0.32713976      0.84315510
7
Frame 165  Energy = -244.9346567667 Hartree
C      -0.63399363     -0.74868822      0.79251205
N      -1.87353723     -0.93361603      0.02736729
O      -2.91726109     -1.22834578      0.59331959
O      -1.75772334     -0.74179402     -1.20971337
H       0.16810255     -1.33480704      0.31961729
H      -0.81249397     -1.12359359      1.78471812
H      -0.51060669      0.32260837      0.84515820
7
Frame 170  Energy = -244.9346093129 Hartree
C      -0.63570482     -0.75027407      0.79176358
N      -1.87260479     -0.93122133      0.03000199
O      -2.91965297     -1.22427709      0.59398732
O      -1.75513708     -0.74626768     -1.21169935
H       0.16452176     -1.32925431      0.32028821
H      -0.81303511     -1.12274304      1.78345616
H      -0.51170112      0.31863685      0.84633601
7
Frame 175  Energy = -244.9346091645 Hartree
C      -0.63739026     -0.75196158      0.79114059
N      -1.87189364     -0.92883047      0.03216130
O      -2.92188079     -1.22018551      0.59466671
O      -1.75259786     -0.75081688     -1.21332361
H       0.16107584     -1.32246956      0.32065732
H      -0.81397363     -1.12277900      1.78339848
H      -0.51099586      0.31523092      0.84710786
7
Frame 180  Energy = -244.9346055319 Hartree
C      -0.63910398     -0.75384563      0.79070157
N      -1.87129380     -0.92648409      0.03370743
O      -2.92390882     -1.21606776      0.59523927
O      -1.75011863     -0.75544416     -1.21454989
H       0.15783363     -1.31466781      0.32043843
H      -0.81500777     -1.12324916      1.78420460
H      -0.50907384      0.31260108      0.84719203
7
Frame 185  Energy = -244.9348105176 Hartree
C      -0.64093523     -0.75580184      0.79038679
N      -1.87083968     -0.92419490      0.03468418
O      -2.92571833     -1.21192760      0.59570995
O      -1.74769760     -0.76014471     -1.21535182
H       0.15485738     -1.30647059      0.31945157
H      -0.81611322     -1.12456958      1.78630986
H      -0.50611671      0.31116393      0.84689707
7
Frame 190  Energy = -244.9347657118 Hartree
C      -0.64266510     -0.75777385      0.79029714
N      -1.87064505     -0.92196819      0.03511213
O      -2.92732565     -1.20786791      0.59617726
O      -1.74534459     -0.76496811     -1.21569250
H       0.15290893     -1.29859062      0.31772893
H      -0.81738594     -1.12663304      1.78969783
H      -0.50161201      0.31080212      0.84661230
7
Frame 195  Energy = -244.9346470269 Hartree
C      -0.64435964     -0.75976261      0.79054556
N      -1.87076213     -0.91980658      0.03497141
O      -2.92876247     -1.20373973      0.59660849
O      -1.74302477     -0.76980817     -1.21560939
H       0.15218508     -1.29100945      0.31498292
H      -0.81912390     -1.12963453      1.79411211
H      -0.49549574      0.31071901      0.84609165
7
Frame 200  Energy = -244.9344514821 Hartree
C      -0.64610503     -0.76165095      0.79107682
N      -1.87107281     -0.91776057      0.03425725
O      -2.92997480     -1.19943187      0.59700792
O      -1.74080223     -0.77472855     -1.21500245
H       0.15272997     -1.28383933      0.31109369
H      -0.82141160     -1.13339261      1.79894201
H      -0.48815593      0.31152964      0.84542773
7
Frame 205  Energy = -244.9343892550 Hartree
C      -0.64788241     -0.76340957      0.79190097
N      -1.87164758     -0.91579995      0.03302923
O      -2.93105396     -1.19501633      0.59726342
O      -1.73859176     -0.77974607     -1.21398311
H       0.15446218     -1.27750323      0.30588437
H      -0.82405673     -1.13747379      1.80350428
H      -0.47979660      0.31290376      0.84485052
7
Frame 210  Energy = -244.9342559474 Hartree
C      -0.64970631     -0.76503244      0.79301874
N      -1.87254399     -0.91392220      0.03126141
O      -2.93193035     -1.19045679      0.59745168
O      -1.73643242     -0.78479795     -1.21254193
H       0.15738563     -1.27160765      0.29948814
H      -0.82634643     -1.14170657      1.80741148
H      -0.47088602      0.31432597      0.84407309
7
Frame 215  Energy = -244.9341660676 Hartree
C      -0.65152985     -0.76652593      0.79454381
N      -1.87370733     -0.91219811      0.02898477
O      -2.93256488     -1.18586947      0.59758830
O      -1.73437463     -0.78991047     -1.21063820
H       0.16086213     -1.26651665      0.29220125
H      -0.82784277     -1.14616649      1.81055596
H      -0.46137839      0.31551726      0.84314124
7
Frame 220  Energy = -244.9339724030 Hartree
C      -0.65337940     -0.76787025      0.79645076
N      -1.87506719     -0.91062836      0.02618924
O      -2.93296523     -1.18118936      0.59767893
O      -1.73228580     -0.79504416     -1.20841011
H       0.16482441     -1.26194814      0.28445800
H      -0.82885094     -1.15083464      1.81305914
H      -0.45141568      0.31556482      0.84191675
7
Frame 225  Energy = -244.9339695744 Hartree
C      -0.65520568     -0.76908323      0.79869650
N      -1.87661922     -0.90921408      0.02294323
O      -2.93317815     -1.17644981      0.59772424
O      -1.73030307     -0.80014070     -1.20592884
H       0.16848691     -1.25809759      0.27649020
H      -0.82931465     -1.15561532      1.81456931
H      -0.44123635      0.31431458      0.84073775
7
Frame 230  Energy = -244.9337836618 Hartree
C      -0.65699298     -0.77011014      0.80119539
N      -1.87829115     -0.90795921      0.01932711
O      -2.93319324     -1.17163015      0.59773290
O      -1.72838161     -0.80526704     -1.20321755
H       0.17167316     -1.25447427      0.26871427
H      -0.82944059     -1.16026127      1.81522797
H      -0.43080628      0.31200153      0.83950102
7
Frame 235  Energy = -244.9337850041 Hartree
C      -0.65862603     -0.77097509      0.80386476
N      -1.88010686     -0.90689831      0.01543022
O      -2.93306986     -1.16668993      0.59769418
O      -1.72655143     -0.81036812     -1.20037909
H       0.17408663     -1.25130856      0.26123835
H      -0.82890956     -1.16460374      1.81452043
H      -0.42066612      0.30863975      0.83856390
7
Frame 240  Energy = -244.9337785259 Hartree
C      -0.66000087     -0.77173854      0.80667801
N      -1.88216477     -0.90604771      0.01139609
O      -2.93288080     -1.16166563      0.59761706
O      -1.72475515     -0.81542018     -1.19741146
H       0.17533916     -1.24866558      0.25430332
H      -0.82789411     -1.16850809      1.81270736
H      -0.41155482      0.30412132      0.83778207
7
Frame 245  Energy = -244.9337922504 Hartree
C      -0.66105573     -0.77236894      0.80955977
N      -1.88432145     -0.90535463      0.00730176
O      -2.93251434     -1.15660915      0.59737891
O      -1.72301590     -0.82047783     -1.19440397
H       0.17544579     -1.24644035      0.24852678
H      -0.82676949     -1.17209291      1.80983968
H      -0.40310672      0.29862110      0.83678829
7
Frame 250  Energy = -244.9335369518 Hartree
C      -0.66180815     -0.77281139      0.81242361
N      -1.88647986     -0.90482424      0.00322201
O      -2.93200508     -1.15148002      0.59690551
O      -1.72130283     -0.82551190     -1.19136267
H       0.17383706     -1.24448768      0.24390932
H      -0.82581962     -1.17552449      1.80644204
H      -0.39543900      0.29239904      0.83614993
7
Frame 255  Energy = -244.9334160212 Hartree
C      -0.66226718     -0.77317090      0.81532263
N      -1.88874741     -0.90441417     -0.00071199
O      -2.93137213     -1.14622181      0.59625605
O      -1.71968110     -0.83051736     -1.18840170
H       0.17038914     -1.24302594      0.24058063
H      -0.82494832     -1.17896053      1.80314171
H      -0.38868299      0.28563582      0.83597171
7
Frame 260  Energy = -244.9332422567 Hartree
C      -0.66239925     -0.77349692      0.81804458
N      -1.89115561     -0.90412343     -0.00437184
O      -2.93071001     -1.14090372      0.59552033
O      -1.71814164     -0.83550013     -1.18559147
H       0.16533006     -1.24191379      0.23839456
H      -0.82433447     -1.18266716      1.80012246
H      -0.38282666      0.27852341      0.83659381
7
Frame 265  Energy = -244.9331690576 Hartree
C      -0.66226139     -0.77378783      0.82064123
N      -1.89363464     -0.90396870     -0.00770909
O      -2.92998053     -1.13563214      0.59476599
O      -1.71675974     -0.84043889     -1.18299479
H       0.15871704     -1.24091613      0.23759689
H      -0.82418461     -1.18716435      1.79784742
H      -0.37777459      0.27178339      0.83781008
7
Frame 270  Energy = -244.9330664947 Hartree
C      -0.66188138     -0.77411408      0.82300441
N      -1.89610202     -0.90389750     -0.01065481
O      -2.92928584     -1.13028718      0.59393028
O      -1.71544457     -0.84530538     -1.18067261
H       0.15036005     -1.24054252      0.23826748
H      -0.82430769     -1.19247668      1.79644624
H      -0.37340561      0.26588145      0.83945302
7
Frame 275  Energy = -244.9332642592 Hartree
C      -0.66132604     -0.77445093      0.82511300
N      -1.89841578     -0.90389524     -0.01306827
O      -2.92869058     -1.12495917      0.59297741
O      -1.71418863     -0.85002379     -1.17880343
H       0.14074052     -1.24109174      0.24011538
H      -0.82480245     -1.19844526      1.79603253
H      -0.36952394      0.26130672      0.84161436
7
Frame 280  Energy = -244.9334210266 Hartree
C      -0.66064169     -0.77475568      0.82689518
N      -1.90057418     -0.90393714     -0.01488141
O      -2.92817511     -1.11967944      0.59202043
O      -1.71297770     -0.85466346     -1.17743214
H       0.13043661     -1.24276428      0.24297166
H      -0.82523361     -1.20510897      1.79648796
H      -0.36609888      0.25822846      0.84430681
7
Frame 285  Energy = -244.9335089118 Hartree
C      -0.65993461     -0.77494146      0.82844961
N      -1.90243459     -0.90404334     -0.01605470
O      -2.92779465     -1.11443688      0.59105445
O      -1.71178018     -0.85917806     -1.17657188
H       0.12005336     -1.24605760      0.24648609
H      -0.82591874     -1.21246800      1.79784760
H      -0.36356933      0.25675428      0.84787767
7
Frame 290  Energy = -244.9337760644 Hartree
C      -0.65923008     -0.77514631      0.82975997
N      -1.90408745     -0.90428698     -0.01655389
O      -2.92752943     -1.10924347      0.59011215
O      -1.71071487     -0.86358742     -1.17625289
H       0.11041373     -1.25105708      0.25022001
H      -0.82677240     -1.22016134      1.79980782
H      -0.36201739      0.25708530      0.85232215
7
Frame 295  Energy = -244.9337963436 Hartree
C      -0.65859399     -0.77532250      0.83091551
N      -1.90547995     -0.90462664     -0.01646468
O      -2.92756189     -1.10410279      0.58912208
O      -1.70973520     -0.86801802     -1.17649301
H       0.10166025     -1.25762915      0.25370969
H      -0.82761432     -1.22761596      1.80212560
H      -0.36130365      0.25909248      0.85774799
7
Frame 300  Energy = -244.9339693518 Hartree
C      -0.65813017     -0.77543030      0.83201609
N      -1.90647153     -0.90501268     -0.01569419
O      -2.92785878     -1.09894034      0.58810638
O      -1.70881259     -0.87231918     -1.17727456
H       0.09405010     -1.26577238      0.25689781
H      -0.82848978     -1.23474459      1.80490330
H      -0.36121778      0.26243809      0.86420125
