7
Frame 5  Energy = -244.9359587161 Hartree
C      -0.52063158     -0.76878063      0.66444917
N      -1.87419997     -0.98794534     -0.03239417
O      -2.54702884     -1.88189598      0.37553952
O      -2.14616818     -0.21860498     -0.92424363
H       0.23488271     -1.20873284      0.01267311
H      -0.61729421     -1.23105950      1.65066771
H      -0.33359253      0.30234500      0.69929128
7
Frame 10  Energy = -244.9357826545 Hartree
C      -0.52016721     -0.76589977      0.66619342
N      -1.87480993     -0.99132786     -0.03339180
O      -2.55007123     -1.87595936      0.37731170
O      -2.14344862     -0.22181893     -0.92540152
H       0.23313701     -1.21540616      0.01603659
H      -0.61569270     -1.23038916      1.64855583
H      -0.33283729      0.30282451      0.70074716
7
Frame 15  Energy = -244.9358798444 Hartree
C      -0.51988407     -0.76304141      0.66772843
N      -1.87494347     -0.99445453     -0.03425544
O      -2.55339147     -1.87029965      0.37918230
O      -2.14080469     -0.22500601     -0.92663696
H       0.23119053     -1.22258549      0.02010992
H      -0.61315018     -1.22939114      1.64595134
H      -0.33250329      0.30405886      0.70279234
7
Frame 20  Energy = -244.9358965708 Hartree
C      -0.51985317     -0.76032765      0.66902568
N      -1.87455347     -0.99724790     -0.03499021
O      -2.55701661     -1.86500548      0.38116241
O      -2.13821769     -0.22809889     -0.92794012
H       0.22883112     -1.23005657      0.02456638
H      -0.61012333     -1.22809463      1.64306295
H      -0.33284528      0.30611551      0.70511139
7
Frame 25  Energy = -244.9359095458 Hartree
C      -0.51996254     -0.75768993      0.67020804
N      -1.87370799     -0.99972289     -0.03556669
O      -2.56089801     -1.86011413      0.38328480
O      -2.13568021     -0.23113874     -0.92931077
H       0.22634366     -1.23759495      0.02965067
H      -0.60681198     -1.22657837      1.64027742
H      -0.33396694      0.30870524      0.70776534
7
Frame 30  Energy = -244.9360109941 Hartree
C      -0.52024127     -0.75521668      0.67134930
N      -1.87236173     -1.00174336     -0.03596934
O      -2.56503909     -1.85573007      0.38555195
O      -2.13313474     -0.23412564     -0.93085661
H       0.22361588     -1.24514437      0.03543504
H      -0.60284985     -1.22515031      1.63820258
H      -0.33562774      0.31160739      0.71042669
7
Frame 35  Energy = -244.9359167356 Hartree
C      -0.52064374     -0.75301553      0.67236103
N      -1.87057945     -1.00326952     -0.03616557
O      -2.56943645     -1.85171243      0.38799260
O      -2.13060716     -0.23702329     -0.93255169
H       0.22058927     -1.25267571      0.04184803
H      -0.59856737     -1.22382514      1.63704797
H      -0.33777368      0.31490742      0.71358415
7
Frame 40  Energy = -244.9360535381 Hartree
C      -0.52117523     -0.75096428      0.67320932
N      -1.86836698     -1.00433381     -0.03627939
O      -2.57406985     -1.84807823      0.39051877
O      -2.12801151     -0.23981310     -0.93441875
H       0.21724192     -1.26028637      0.04861550
H      -0.59441282     -1.22260570      1.63694951
H      -0.34016631      0.31879990      0.71673851
7
Frame 45  Energy = -244.9358904244 Hartree
C      -0.52190994     -0.74911947      0.67368914
N      -1.86575968     -1.00491137     -0.03628164
O      -2.57890200     -1.84474940      0.39319546
O      -2.12529198     -0.24254083     -0.93652267
H       0.21395454     -1.26743978      0.05563856
H      -0.59036187     -1.22146022      1.63792276
H      -0.34270645      0.32295408      0.71972380
7
Frame 50  Energy = -244.9359444563 Hartree
C      -0.52275908     -0.74749302      0.67392425
N      -1.86278801     -1.00514374     -0.03617516
O      -2.58397290     -1.84175281      0.39601345
O      -2.12261100     -0.24522798     -0.93881543
H       0.21085892     -1.27415205      0.06288639
H      -0.58652187     -1.22031914      1.63991126
H      -0.34533284      0.32736661      0.72246325
7
Frame 55  Energy = -244.9363469246 Hartree
C      -0.52361961     -0.74609826      0.67395429
N      -1.85953157     -1.00501764     -0.03594622
O      -2.58920719     -1.83905998      0.39897534
O      -2.12002077     -0.24789123     -0.94118078
H       0.20795812     -1.28052384      0.07003691
H      -0.58273453     -1.21937838      1.64303608
H      -0.34849232      0.33161503      0.72467532
7
Frame 60  Energy = -244.9361754008 Hartree
C      -0.52449260     -0.74492761      0.67372240
N      -1.85604405     -1.00458720     -0.03563099
O      -2.59452651     -1.83658954      0.40207165
O      -2.11745253     -0.25042611     -0.94366736
H       0.20529233     -1.28661817      0.07703206
H      -0.57932183     -1.21838700      1.64697559
H      -0.35187191      0.33502722      0.72669154
7
Frame 65  Energy = -244.9363501693 Hartree
C      -0.52544401     -0.74395162      0.67338748
N      -1.85238879     -1.00389900     -0.03523378
O      -2.59991541     -1.83433588      0.40521542
O      -2.11480046     -0.25297591     -0.94628582
H       0.20291813     -1.29240047      0.08366227
H      -0.57607414     -1.21737127      1.65145844
H      -0.35543601      0.33739605      0.72851613
7
Frame 70  Energy = -244.9365123827 Hartree
C      -0.52640814     -0.74300303      0.67307279
N      -1.84866932     -1.00305369     -0.03469224
O      -2.60525853     -1.83228797      0.40836334
O      -2.11210063     -0.25544664     -0.94905366
H       0.20073378     -1.29750153      0.09004742
H      -0.57357975     -1.21584939      1.65632825
H      -0.35962132      0.33876124      0.73005632
7
Frame 75  Energy = -244.9364723633 Hartree
C      -0.52747398     -0.74218455      0.67270753
N      -1.84495001     -1.00204100     -0.03392739
O      -2.61057855     -1.83034747      0.41159060
O      -2.10939065     -0.25784074     -0.95194437
H       0.19913403     -1.30187538      0.09575324
H      -0.57181519     -1.21399099      1.66137533
H      -0.36434566      0.33946321      0.73147947
7
Frame 80  Energy = -244.9365310912 Hartree
C      -0.52864371     -0.74161472      0.67238835
N      -1.84119782     -1.00088836     -0.03301040
O      -2.61578465     -1.82855312      0.41484747
O      -2.10660830     -0.26024676     -0.95492796
H       0.19835598     -1.30551791      0.10099472
H      -0.57072141     -1.21141540      1.66622318
H      -0.36931400      0.33952776      0.73250207
7
Frame 85  Energy = -244.9365495223 Hartree
C      -0.52996373     -0.74118111      0.67221294
N      -1.83746730     -0.99950617     -0.03184345
O      -2.62082736     -1.82675720      0.41803727
O      -2.10377646     -0.26258065     -0.95799806
H       0.19875241     -1.30828905      0.10558264
H      -0.57020934     -1.20820282      1.67036931
H      -0.37405163      0.33892323      0.73309683
7
Frame 90  Energy = -244.9364711761 Hartree
C      -0.53125428     -0.74100458      0.67210253
N      -1.83374950     -0.99800782     -0.03039020
O      -2.62573946     -1.82494021      0.42110803
O      -2.10097298     -0.26499812     -0.96113940
H       0.20004767     -1.30992173      0.10964798
H      -0.57014356     -1.20403656      1.67380474
H      -0.37844938      0.33776978      0.73361270
7
Frame 95  Energy = -244.9364499629 Hartree
C      -0.53253188     -0.74125984      0.67214883
N      -1.83019105     -0.99636200     -0.02876537
O      -2.63051551     -1.82309687      0.42406140
O      -2.09822465     -0.26747710     -0.96436259
H       0.20222460     -1.31038731      0.11306818
H      -0.57090630     -1.19920159      1.67625427
H      -0.38248729      0.33619127      0.73388432
7
Frame 100  Energy = -244.9364297412 Hartree
C      -0.53396377     -0.74184058      0.67230233
N      -1.82696251     -0.99468019     -0.02692768
O      -2.63502595     -1.82114089      0.42700410
O      -2.09535283     -0.26995407     -0.96761320
H       0.20534005     -1.30998949      0.11570462
H      -0.57273253     -1.19342553      1.67773054
H      -0.38603008      0.33422518      0.73394921
7
Frame 105  Energy = -244.9364521545 Hartree
C      -0.53553636     -0.74269085      0.67249671
N      -1.82415199     -0.99299240     -0.02492686
O      -2.63927880     -1.81900541      0.42991663
O      -2.09242209     -0.27232621     -0.97081873
H       0.20935152     -1.30855153      0.11729067
H      -0.57547795     -1.18640821      1.67809411
H      -0.38893002      0.33193648      0.73363341
7
Frame 110  Energy = -244.9365949815 Hartree
C      -0.53715020     -0.74381081      0.67288208
N      -1.82174503     -0.99137139     -0.02293332
O      -2.64330037     -1.81672654      0.43274939
O      -2.08948620     -0.27478193     -0.97399907
H       0.21416707     -1.30595010      0.11861782
H      -0.57886335     -1.17869291      1.67790414
H      -0.39141509      0.32953193      0.73278161
7
Frame 115  Energy = -244.9367419711 Hartree
C      -0.53873312     -0.74514473      0.67337103
N      -1.81980480     -0.98988762     -0.02086794
O      -2.64696157     -1.81435732      0.43545241
O      -2.08647159     -0.27720271     -0.97719750
H       0.21940517     -1.30233535      0.11970649
H      -0.58298262     -1.17063524      1.67741544
H      -0.39323573      0.32755312      0.73091319
7
Frame 120  Energy = -244.9367773108 Hartree
C      -0.54024179     -0.74663225      0.67396218
N      -1.81837680     -0.98852386     -0.01868007
O      -2.65025698     -1.81178504      0.43811140
O      -2.08342668     -0.27961483     -0.98033147
H       0.22522356     -1.29757653      0.12044686
H      -0.58785029     -1.16233320      1.67703199
H      -0.39436496      0.32559785      0.72829351
7
Frame 125  Energy = -244.9366569666 Hartree
C      -0.54170300     -0.74827494      0.67469268
N      -1.81745114     -0.98720830     -0.01651753
O      -2.65323285     -1.80903178      0.44071521
O      -2.08034108     -0.28199316     -0.98343656
H       0.23088056     -1.29153450      0.12101518
H      -0.59337150     -1.15405823      1.67688001
H      -0.39519603      0.32386089      0.72501324
7
Frame 130  Energy = -244.9366169198 Hartree
C      -0.54317294     -0.75013048      0.67557471
N      -1.81713214     -0.98598312     -0.01429895
O      -2.65587687     -1.80610081      0.44327632
O      -2.07713327     -0.28444095     -0.98653556
H       0.23611797     -1.28454334      0.12183364
H      -0.59940083     -1.14618564      1.67720802
H      -0.39561049      0.32215518      0.72117580
7
Frame 135  Energy = -244.9366082332 Hartree
C      -0.54463096     -0.75209546      0.67646981
N      -1.81739354     -0.98493912     -0.01192637
O      -2.65812117     -1.80295107      0.44576626
O      -2.07387734     -0.28699493     -0.98965129
H       0.24102936     -1.27659923      0.12284642
H      -0.60600592     -1.13887426      1.67848803
H      -0.39569446      0.32080420      0.71660047
7
Frame 140  Energy = -244.9367248384 Hartree
C      -0.54589187     -0.75412252      0.67726057
N      -1.81826645     -0.98401385     -0.00965178
O      -2.66010257     -1.79961915      0.44813485
O      -2.07056325     -0.28962749     -0.99270223
H       0.24574002     -1.26789600      0.12388669
H      -0.61329318     -1.13215144      1.68079199
H      -0.39542082      0.31977728      0.71135104
7
Frame 145  Energy = -244.9367920975 Hartree
C      -0.54691860     -0.75619021      0.67803945
N      -1.81977256     -0.98311844     -0.00749484
O      -2.66166815     -1.79616926      0.45044361
O      -2.06713811     -0.29229919     -0.99566697
H       0.25018763     -1.25879651      0.12474303
H      -0.62104379     -1.12638240      1.68403174
H      -0.39484759      0.31886238      0.70586955
7
Frame 150  Energy = -244.9365762675 Hartree
C      -0.54783645     -0.75826897      0.67882100
N      -1.82187438     -0.98233538     -0.00542956
O      -2.66286053     -1.79250368      0.45270983
O      -2.06364812     -0.29513093     -0.99862688
H       0.25440696     -1.24891929      0.12546838
H      -0.62908596     -1.12158671      1.68812165
H      -0.39385121      0.31783281      0.70032608
7
Frame 155  Energy = -244.9365617062 Hartree
C      -0.54863696     -0.76037835      0.67965003
N      -1.82445906     -0.98167109     -0.00342528
O      -2.66368040     -1.78860357      0.45495647
O      -2.06006336     -0.29811846     -1.00145285
H       0.25880095     -1.23868397      0.12632012
H      -0.63705962     -1.11782208      1.69287569
H      -0.39287836      0.31692649      0.69446004
7
Frame 160  Energy = -244.9367821300 Hartree
C      -0.54924463     -0.76229356      0.68050990
N      -1.82751043     -0.98109350     -0.00152859
O      -2.66419039     -1.78448286      0.45718684
O      -2.05642823     -0.30115819     -1.00412129
H       0.26313509     -1.22910675      0.12727982
H      -0.64510481     -1.11501294      1.69828475
H      -0.39169627      0.31598094      0.68863093
7
Frame 165  Energy = -244.9368147329 Hartree
C      -0.54976458     -0.76398899      0.68144207
N      -1.83106336     -0.98061256      0.00020757
O      -2.66437864     -1.78025564      0.45943528
O      -2.05273389     -0.30425770     -1.00664329
H       0.26726860     -1.22019181      0.12841879
H      -0.65315811     -1.11310068      1.70395693
H      -0.39043988      0.31549890      0.68267534
7
Frame 170  Energy = -244.9366024818 Hartree
C      -0.55020527     -0.76556214      0.68245991
N      -1.83513614     -0.98019821      0.00180496
O      -2.66430537     -1.77589345      0.46172270
O      -2.04897542     -0.30736513     -1.00901445
H       0.27061774     -1.21202493      0.12957201
H      -0.66109928     -1.11166578      1.70984119
H      -0.38922700      0.31505651      0.67644501
7
Frame 175  Energy = -244.9367154272 Hartree
C      -0.55062204     -0.76699495      0.68362281
N      -1.83961713     -0.97982404      0.00318354
O      -2.66408744     -1.77142656      0.46403188
O      -2.04512691     -0.31053758     -1.01126613
H       0.27324170     -1.20487052      0.13055377
H      -0.66852966     -1.11075763      1.71544776
H      -0.38810450      0.31486716      0.66994898
7
Frame 180  Energy = -244.9368976709 Hartree
C      -0.55105091     -0.76820584      0.68495691
N      -1.84430585     -0.97946798      0.00430694
O      -2.66374638     -1.76686351      0.46639140
O      -2.04125695     -0.31371331     -1.01336311
H       0.27547122     -1.19898626      0.13096897
H      -0.67531230     -1.11029123      1.72052736
H      -0.38745423      0.31442635      0.66374142
7
Frame 185  Energy = -244.9367900119 Hartree
C      -0.55150311     -0.76919870      0.68637838
N      -1.84921264     -0.97906137      0.00531979
O      -2.66327899     -1.76223187      0.46871872
O      -2.03734547     -0.31691348     -1.01535610
H       0.27723675     -1.19495238      0.13119569
H      -0.68125544     -1.11016097      1.72485348
H      -0.38704098      0.31363245      0.65807481
7
Frame 190  Energy = -244.9366370745 Hartree
C      -0.55191650     -0.77000628      0.68792609
N      -1.85429015     -0.97864686      0.00610267
O      -2.66276951     -1.75752008      0.47111095
O      -2.03342486     -0.32023795     -1.01730819
H       0.27891609     -1.19228033      0.13144368
H      -0.68620558     -1.11024756      1.72832396
H      -0.38672367      0.31255381      0.65291401
7
Frame 195  Energy = -244.9365031628 Hartree
C      -0.55233090     -0.77058803      0.68974435
N      -1.85938702     -0.97813119      0.00664821
O      -2.66216356     -1.75284529      0.47350306
O      -2.02949007     -0.32371121     -1.01917746
H       0.28004057     -1.19119161      0.13196867
H      -0.69026213     -1.11054518      1.73059321
H      -0.38668260      0.31125163      0.64867092
7
Frame 200  Energy = -244.9364488836 Hartree
C      -0.55275292     -0.77090431      0.69177518
N      -1.86456578     -0.97755450      0.00697550
O      -2.66158909     -1.74822628      0.47597456
O      -2.02558262     -0.32723013     -1.02099695
H       0.28050515     -1.19144750      0.13234750
H      -0.69356963     -1.11126252      1.73182304
H      -0.38711047      0.30976670      0.64512555
7
Frame 205  Energy = -244.9364061187 Hartree
C      -0.55321473     -0.77111074      0.69392516
N      -1.86962017     -0.97686099      0.00706079
O      -2.66107971     -1.74363133      0.47849442
O      -2.02168488     -0.33078524     -1.02264977
H       0.28015402     -1.19341394      0.13290406
H      -0.69587722     -1.11199273      1.73187364
H      -0.38802639      0.30812606      0.64247891
7
Frame 210  Energy = -244.9362532627 Hartree
C      -0.55376476     -0.77118102      0.69613478
N      -1.87445080     -0.97605065      0.00689053
O      -2.66072965     -1.73911784      0.48111099
O      -2.01783835     -0.33438765     -1.02422502
H       0.27939794     -1.19722883      0.13334965
H      -0.69706825     -1.11296940      1.73097250
H      -0.38975595      0.30630544      0.64050437
7
Frame 215  Energy = -244.9359600653 Hartree
C      -0.55448776     -0.77110033      0.69834552
N      -1.87903179     -0.97508060      0.00647241
O      -2.66051922     -1.73461334      0.48383683
O      -2.01408124     -0.33809624     -1.02586578
H       0.27762891     -1.20244120      0.13398826
H      -0.69739459     -1.11385951      1.72931402
H      -0.39159079      0.30445654      0.63918865
7
Frame 220  Energy = -244.9359010676 Hartree
C      -0.55530224     -0.77088884      0.70054605
N      -1.88328627     -0.97388100      0.00584796
O      -2.66053419     -1.73024721      0.48671629
O      -2.01039727     -0.34182527     -1.02755922
H       0.27504766     -1.20885517      0.13474954
H      -0.69655876     -1.11488128      1.72686912
H      -0.39324176      0.30306438      0.63853694
7
Frame 225  Energy = -244.9359219835 Hartree
C      -0.55622169     -0.77057453      0.70264545
N      -1.88715982     -0.97236563      0.00508848
O      -2.66079935     -1.72613518      0.48973826
O      -2.00686137     -0.34557444     -1.02930622
H       0.27118119     -1.21690384      0.13593559
H      -0.69509024     -1.11636522      1.72385473
H      -0.39458876      0.30213462      0.63892701
7
Frame 230  Energy = -244.9358823445 Hartree
C      -0.55728355     -0.77016310      0.70458817
N      -1.89045869     -0.97059157      0.00421958
O      -2.66135993     -1.72228630      0.49285526
O      -2.00342380     -0.34928137     -1.03116945
H       0.26598110     -1.22604061      0.13769833
H      -0.69294623     -1.11790796      1.72112080
H      -0.39600267      0.30147814      0.64010484
7
Frame 235  Energy = -244.9358397293 Hartree
C      -0.55853915     -0.76968562      0.70646986
N      -1.89324289     -0.96863606      0.00321101
O      -2.66223274     -1.71863100      0.49606846
O      -2.00013128     -0.35296302     -1.03310913
H       0.25973159     -1.23640576      0.13993365
H      -0.68999777     -1.11958507      1.71866821
H      -0.39754420      0.30110249      0.64190911
7
Frame 240  Energy = -244.9358177823 Hartree
C      -0.55996089     -0.76913039      0.70820476
N      -1.89550578     -0.96645724      0.00211487
O      -2.66340322     -1.71522382      0.49937548
O      -1.99691775     -0.35666194     -1.03511015
H       0.25242469     -1.24748038      0.14259730
H      -0.68637074     -1.12176400      1.71679943
H      -0.39881980      0.30109418      0.64438697
7
Frame 245  Energy = -244.9359236573 Hartree
C      -0.56149830     -0.76846493      0.70978302
N      -1.89719735     -0.96417290      0.00106309
O      -2.66488259     -1.71210525      0.50284949
O      -1.99383335     -0.36032294     -1.03731097
H       0.24429645     -1.25910947      0.14593544
H      -0.68268135     -1.12491996      1.71592345
H      -0.39981895      0.30186750      0.64797502
7
Frame 250  Energy = -244.9358937587 Hartree
C      -0.56304858     -0.76778499      0.71117789
N      -1.89838041     -0.96176073      0.00000239
O      -2.66672850     -1.70927838      0.50638007
O      -1.99088096     -0.36394328     -1.03980694
H       0.23551396     -1.27090576      0.14967398
H      -0.67863876     -1.12878098      1.71613781
H      -0.40061746      0.30339025      0.65224862
7
Frame 255  Energy = -244.9358707742 Hartree
C      -0.56478361     -0.76703737      0.71238261
N      -1.89897387     -0.95923401     -0.00099230
O      -2.66894378     -1.70669645      0.50996863
O      -1.98803983     -0.36743511     -1.04259144
H       0.22599138     -1.28282167      0.15346270
H      -0.67399780     -1.13292211      1.71777771
H      -0.40102510      0.30526219      0.65735782
7
Frame 260  Energy = -244.9357515637 Hartree
C      -0.56658875     -0.76620151      0.71341086
N      -1.89893848     -0.95671573     -0.00187441
O      -2.67159201     -1.70428778      0.51364932
O      -1.98535710     -0.37085610     -1.04551298
H       0.21584234     -1.29503819      0.15746533
H      -0.66953897     -1.13751731      1.72059899
H      -0.40106123      0.30757256      0.66334319
7
Frame 265  Energy = -244.9357295237 Hartree
C      -0.56846142     -0.76534686      0.71433272
N      -1.89829760     -0.95407368     -0.00257913
O      -2.67456833     -1.70195240      0.51730957
O      -1.98283577     -0.37432345     -1.04853051
H       0.20471359     -1.30690254      0.16161885
H      -0.66505822     -1.14258793      1.72456645
H      -0.40068537      0.31021453      0.66985972
7
Frame 270  Energy = -244.9358152232 Hartree
C      -0.57039449     -0.76440971      0.71519123
N      -1.89712928     -0.95136975     -0.00302860
O      -2.67771213     -1.69969134      0.52103096
O      -1.98039781     -0.37766373     -1.05176445
H       0.19295706     -1.31847455      0.16544414
H      -0.66104129     -1.14761091      1.72893549
H      -0.39979310      0.31282337      0.67665272
7
Frame 275  Energy = -244.9359764773 Hartree
C      -0.57241754     -0.76347370      0.71599483
N      -1.89552883     -0.94868766     -0.00319052
O      -2.68103171     -1.69753849      0.52480223
O      -1.97809355     -0.38083995     -1.05519825
H       0.18095306     -1.32989556      0.16920506
H      -0.65755435     -1.15201973      1.73304160
H      -0.39831401      0.31524123      0.68362742
7
Frame 280  Energy = -244.9361046974 Hartree
C      -0.57459137     -0.76247463      0.71679600
N      -1.89354369     -0.94612422     -0.00306598
O      -2.68448931     -1.69543497      0.52852125
O      -1.97589524     -0.38383948     -1.05877841
H       0.16906372     -1.34105724      0.17295399
H      -0.65453711     -1.15586310      1.73677169
H      -0.39604568      0.31740357      0.69092716
7
Frame 285  Energy = -244.9363761594 Hartree
C      -0.57684280     -0.76144714      0.71757704
N      -1.89120559     -0.94372305     -0.00262423
O      -2.68801259     -1.69333128      0.53217992
O      -1.97379931     -0.38671133     -1.06249805
H       0.15743359     -1.35173496      0.17617717
H      -0.65196235     -1.15904877      1.74001933
H      -0.39272905      0.31887723      0.69821569
7
Frame 290  Energy = -244.9363290381 Hartree
C      -0.57911515     -0.76048558      0.71841551
N      -1.88857659     -0.94144909     -0.00190909
O      -2.69148834     -1.69114040      0.53565752
O      -1.97175893     -0.38944913     -1.06638566
H       0.14640721     -1.36172710      0.17909060
H      -0.64994028     -1.16203870      1.74267314
H      -0.38894637      0.31931602      0.70566446
7
Frame 295  Energy = -244.9361047317 Hartree
C      -0.58142384     -0.75957015      0.71939859
N      -1.88572904     -0.93941394     -0.00085643
O      -2.69499476     -1.68883016      0.53900123
O      -1.96977117     -0.39222465     -1.07049647
H       0.13610430     -1.37120208      0.18156828
H      -0.64851224     -1.16472069      1.74474590
H      -0.38467062      0.31873306      0.71328144
7
Frame 300  Energy = -244.9361105317 Hartree
C      -0.58386092     -0.75875429      0.72043230
N      -1.88270336     -0.93757934      0.00047213
O      -2.69861374     -1.68632611      0.54214001
O      -1.96787088     -0.39503245     -1.07474519
H       0.12648179     -1.37986401      0.18347094
H      -0.64799495     -1.16657337      1.74596935
H      -0.37962596      0.31713494      0.72082296
