7
Frame 5  Energy = -244.9353692836 Hartree
C      -0.58632036     -0.75801066      0.72153313
N      -1.87966523     -0.93593677      0.00209980
O      -2.70212257     -1.68370987      0.54505069
O      -1.96611701     -0.39779353     -1.07910734
H       0.11746073     -1.38756127      0.18475282
H      -0.64836905     -1.16771685      1.74604339
H      -0.37398382      0.31459226      0.72768179
7
Frame 10  Energy = -244.9352815223 Hartree
C      -0.58883546     -0.75721689      0.72284154
N      -1.87672865     -0.93438164      0.00393274
O      -2.70550526     -1.68092047      0.54773669
O      -1.96444586     -0.40055287     -1.08357565
H       0.10916521     -1.39413449      0.18506659
H      -0.64956187     -1.16803730      1.74487995
H      -0.36792171      0.31167103      0.73407387
7
Frame 15  Energy = -244.9352622563 Hartree
C      -0.59135930     -0.75639340      0.72426506
N      -1.87380875     -0.93310035      0.00588977
O      -2.70868150     -1.67794879      0.55021129
O      -1.96282710     -0.40329668     -1.08802113
H       0.10174567     -1.39993087      0.18463672
H      -0.65177576     -1.16763665      1.74275817
H      -0.36139938      0.30854864      0.74017402
7
Frame 20  Energy = -244.9351910187 Hartree
C      -0.59391438     -0.75562985      0.72580264
N      -1.87096298     -0.93205681      0.00803332
O      -2.71178082     -1.67474617      0.55255583
O      -1.96127596     -0.40604006     -1.09243372
H       0.09506303     -1.40462685      0.18383686
H      -0.65504778     -1.16652615      1.73980330
H      -0.35449080      0.30538871      0.74561553
7
Frame 25  Energy = -244.9353222769 Hartree
C      -0.59634312     -0.75503752      0.72743352
N      -1.86833673     -0.93114274      0.01032523
O      -2.71470741     -1.67137320      0.55474739
O      -1.95978461     -0.40874806     -1.09672053
H       0.08956454     -1.40784066      0.18262809
H      -0.65929432     -1.16497118      1.73628797
H      -0.34692597      0.30186051      0.75053749
7
Frame 30  Energy = -244.9352947600 Hartree
C      -0.59868586     -0.75463642      0.72915442
N      -1.86602792     -0.93035317      0.01272075
O      -2.71736770     -1.66776482      0.55679384
O      -1.95834784     -0.41150395     -1.10081523
H       0.08494545     -1.41003339      0.18146769
H      -0.66441093     -1.16312460      1.73251432
H      -0.33888592      0.29811033      0.75478122
7
Frame 35  Energy = -244.9355640300 Hartree
C      -0.60091060     -0.75439299      0.73088399
N      -1.86412489     -0.92978026      0.01512599
O      -2.71974273     -1.66390499      0.55872256
O      -1.95687822     -0.41437932     -1.10466922
H       0.08130447     -1.41066217      0.18030358
H      -0.67066442     -1.16135617      1.72923976
H      -0.33045566      0.29449576      0.75805584
7
Frame 40  Energy = -244.9355511095 Hartree
C      -0.60304555     -0.75418767      0.73253771
N      -1.86268459     -0.92939353      0.01740405
O      -2.72190352     -1.65977561      0.56045290
O      -1.95545991     -0.41731517     -1.10826122
H       0.07849586     -1.40968753      0.17889844
H      -0.67805223     -1.15930074      1.72659539
H      -0.32174500      0.29153169      0.76047131
7
Frame 45  Energy = -244.9357923646 Hartree
C      -0.60499009     -0.75406992      0.73402533
N      -1.86172764     -0.92911068      0.01948857
O      -2.72376641     -1.65541781      0.56200067
O      -1.95398950     -0.42033461     -1.11157338
H       0.07640004     -1.40773273      0.17752012
H      -0.68645188     -1.15737937      1.72521660
H      -0.31301033      0.28902151      0.76242956
7
Frame 50  Energy = -244.9360191562 Hartree
C      -0.60673823     -0.75399241      0.73539764
N      -1.86122908     -0.92887518      0.02126340
O      -2.72537554     -1.65083850      0.56334479
O      -1.95245614     -0.42340843     -1.11455920
H       0.07519759     -1.40453457      0.17673951
H      -0.69582911     -1.15607511      1.72537981
H      -0.30444707      0.28684505      0.76358821
7
Frame 55  Energy = -244.9360604136 Hartree
C      -0.60840374     -0.75399745      0.73658597
N      -1.86120455     -0.92889153      0.02282172
O      -2.72683195     -1.64604670      0.56451423
O      -1.95094708     -0.42650724     -1.11724063
H       0.07494607     -1.39999746      0.17649902
H      -0.70594729     -1.15516969      1.72673348
H      -0.29606255      0.28489165      0.76442099
7
Frame 60  Energy = -244.9362649445 Hartree
C      -0.60994670     -0.75417436      0.73770404
N      -1.86168962     -0.92909266      0.02420727
O      -2.72809608     -1.64107786      0.56551516
O      -1.94937890     -0.42966742     -1.11957012
H       0.07562567     -1.39468416      0.17669714
H      -0.71625079     -1.15467034      1.72897286
H      -0.28810967      0.28343203      0.76487531
7
Frame 65  Energy = -244.9362793449 Hartree
C      -0.61126961     -0.75441208      0.73888087
N      -1.86256600     -0.92934329      0.02527360
O      -2.72919029     -1.63588834      0.56633051
O      -1.94775999     -0.43292914     -1.12143932
H       0.07698572     -1.38835577      0.17707636
H      -0.72715027     -1.15477441      1.73209549
H      -0.28061957      0.28231581      0.76481769
7
Frame 70  Energy = -244.9362477588 Hartree
C      -0.61238767     -0.75467957      0.73990951
N      -1.86384460     -0.92959892      0.02602604
O      -2.73013809     -1.63049072      0.56703643
O      -1.94602118     -0.43631661     -1.12289807
H       0.07905041     -1.38110524      0.17776133
H      -0.73857703     -1.15515191      1.73586351
H      -0.27346790      0.28153033      0.76436127
7
Frame 75  Energy = -244.9361720682 Hartree
C      -0.61333574     -0.75494833      0.74092812
N      -1.86550456     -0.92990908      0.02653463
O      -2.73098335     -1.62498356      0.56764509
O      -1.94423168     -0.43978164     -1.12399696
H       0.08179925     -1.37310295      0.17878611
H      -0.75015485     -1.15546783      1.74035943
H      -0.26665052      0.28083459      0.76338741
7
Frame 80  Energy = -244.9360255409 Hartree
C      -0.61419846     -0.75515527      0.74196396
N      -1.86752659     -0.93026705      0.02664709
O      -2.73162566     -1.61939637      0.56813926
O      -1.94243832     -0.44349112     -1.12469894
H       0.08515253     -1.36486956      0.18011909
H      -0.76173153     -1.15544673      1.74570780
H      -0.26042109      0.28012374      0.76185888
7
Frame 85  Energy = -244.9360845911 Hartree
C      -0.61475984     -0.75531378      0.74299343
N      -1.86984794     -0.93057232      0.02630353
O      -2.73212765     -1.61366306      0.56850678
O      -1.94065529     -0.44733043     -1.12502180
H       0.08946779     -1.35656043      0.18168030
H      -0.77319821     -1.15518595      1.75127892
H      -0.25505394      0.27927293      0.76007618
7
Frame 90  Energy = -244.9360120204 Hartree
C      -0.61512109     -0.75542660      0.74410043
N      -1.87226208     -0.93079757      0.02563032
O      -2.73257432     -1.60782834      0.56878010
O      -1.93888549     -0.45126095     -1.12500831
H       0.09522057     -1.34875554      0.18315924
H      -0.78410361     -1.15480345      1.75625598
H      -0.25088304      0.27827633      0.75824838
7
Frame 95  Energy = -244.9360217298 Hartree
C      -0.61530414     -0.75556948      0.74529540
N      -1.87478215     -0.93092956      0.02462374
O      -2.73295830     -1.60183024      0.56902467
O      -1.93712083     -0.45528040     -1.12470757
H       0.10227216     -1.34152593      0.18506509
H      -0.79427025     -1.15448460      1.76038667
H      -0.24779336      0.27732793      0.75624966
7
Frame 100  Energy = -244.9360820624 Hartree
C      -0.61536095     -0.75570612      0.74647660
N      -1.87738525     -0.93100833      0.02326469
O      -2.73336857     -1.59578394      0.56921710
O      -1.93528030     -0.45933694     -1.12415415
H       0.11003325     -1.33531414      0.18723510
H      -0.80379846     -1.15353463      1.76309430
H      -0.24576590      0.27659102      0.75436282
7
Frame 105  Energy = -244.9360117349 Hartree
C      -0.61536174     -0.75589489      0.74772841
N      -1.88002738     -0.93109965      0.02147381
O      -2.73385129     -1.58979785      0.56934992
O      -1.93341137     -0.46350485     -1.12334725
H       0.11864147     -1.33004051      0.19011750
H      -0.81277631     -1.15176744      1.76431258
H      -0.24502985      0.27602807      0.75263500
7
Frame 110  Energy = -244.9359840399 Hartree
C      -0.61523704     -0.75620688      0.74912528
N      -1.88256509     -0.93110814      0.01930895
O      -2.73440872     -1.58387449      0.56949152
O      -1.93154200     -0.46780054     -1.12233758
H       0.12767890     -1.32582520      0.19341207
H      -0.82049859     -1.14904010      1.76406925
H      -0.24575639      0.27521884      0.75117624
7
Frame 115  Energy = -244.9359801974 Hartree
C      -0.61493603     -0.75650318      0.75069762
N      -1.88505397     -0.93099807      0.01688584
O      -2.73508612     -1.57805529      0.56960105
O      -1.92972825     -0.47227081     -1.12125383
H       0.13674777     -1.32248965      0.19700932
H      -0.82696285     -1.14587905      1.76282749
H      -0.24800665      0.27417092      0.74991644
7
Frame 120  Energy = -244.9358073763 Hartree
C      -0.61449430     -0.75682821      0.75231135
N      -1.88739252     -0.93077183      0.01429628
O      -2.73600233     -1.57229619      0.56966396
O      -1.92792398     -0.47682551     -1.12015765
H       0.14559601     -1.32001507      0.20156601
H      -0.83224700     -1.14242911      1.76075563
H      -0.25192286      0.27328547      0.74864328
7
Frame 125  Energy = -244.9355779198 Hartree
C      -0.61395706     -0.75720721      0.75398598
N      -1.88948861     -0.93041394      0.01158072
O      -2.73717479     -1.56658457      0.56968446
O      -1.92616109     -0.48148717     -1.11908226
H       0.15406889     -1.31822216      0.20694870
H      -0.83627331     -1.13859692      1.75789301
H      -0.25760276      0.27278410      0.74763271
7
Frame 130  Energy = -244.9353425667 Hartree
C      -0.61321764     -0.75753586      0.75567838
N      -1.89133088     -0.93002878      0.00874623
O      -2.73864312     -1.56099085      0.56977481
O      -1.92442286     -0.48616471     -1.11791996
H       0.16207498     -1.31707441      0.21305496
H      -0.83913650     -1.13401050      1.75440915
H      -0.26491252      0.27278833      0.74688593
7
Frame 135  Energy = -244.9353770191 Hartree
C      -0.61232798     -0.75788720      0.75731813
N      -1.89281794     -0.92965694      0.00590124
O      -2.74044461     -1.55543140      0.56996083
O      -1.92275426     -0.49076649     -1.11681468
H       0.16949795     -1.31654232      0.22025167
H      -0.84109963     -1.12959430      1.75072091
H      -0.27378130      0.27319442      0.74633553
7
Frame 140  Energy = -244.9355437587 Hartree
C      -0.61136116     -0.75820573      0.75883782
N      -1.89388891     -0.92928839      0.00308559
O      -2.74239618     -1.54992087      0.57025443
O      -1.92116642     -0.49521674     -1.11578466
H       0.17620878     -1.31652666      0.22784964
H      -0.84210816     -1.12532954      1.74756885
H      -0.28385687      0.27423264      0.74576320
7
Frame 145  Energy = -244.9357006137 Hartree
C      -0.61036270     -0.75848218      0.76019073
N      -1.89454134     -0.92885688      0.00026777
O      -2.74459307     -1.54452644      0.57067632
O      -1.91959047     -0.49947338     -1.11502977
H       0.18196056     -1.31687614      0.23572664
H      -0.84229767     -1.12122107      1.74540607
H      -0.29489615      0.27612338      0.74532361
7
Frame 150  Energy = -244.9357946574 Hartree
C      -0.60940002     -0.75878774      0.76136425
N      -1.89479339     -0.92841651     -0.00236466
O      -2.74704577     -1.53934298      0.57116969
O      -1.91813630     -0.50360063     -1.11455879
H       0.18686976     -1.31783620      0.24394535
H      -0.84181279     -1.11753202      1.74448950
H      -0.30684875      0.27896977      0.74551519
7
Frame 155  Energy = -244.9359845900 Hartree
C      -0.60843498     -0.75909974      0.76242200
N      -1.89453086     -0.92808839     -0.00465318
O      -2.74983035     -1.53426779      0.57168376
O      -1.91674039     -0.50761356     -1.11437620
H       0.19054338     -1.31914503      0.25265554
H      -0.84083214     -1.11415645      1.74519261
H      -0.31916132      0.28263494      0.74593237
7
Frame 160  Energy = -244.9360847361 Hartree
C      -0.60753556     -0.75939911      0.76327362
N      -1.89377966     -0.92778482     -0.00662928
O      -2.75295164     -1.52929759      0.57222161
O      -1.91544525     -0.51140602     -1.11445326
H       0.19302096     -1.32071438      0.26175259
H      -0.83937614     -1.11165361      1.74759707
H      -0.33154006      0.28686855      0.74665973
7
Frame 165  Energy = -244.9361332491 Hartree
C      -0.60665763     -0.75957993      0.76396369
N      -1.89257030     -0.92748999     -0.00833675
O      -2.75630649     -1.52438871      0.57280907
O      -1.91424114     -0.51507188     -1.11497314
H       0.19466102     -1.32238093      0.27109259
H      -0.83782245     -1.10969017      1.75134993
H      -0.34397620      0.29186543      0.74771299
7
Frame 170  Energy = -244.9359347882 Hartree
C      -0.60577231     -0.75967797      0.76446959
N      -1.89091595     -0.92721747     -0.00962076
O      -2.75984838     -1.51952595      0.57349697
O      -1.91299955     -0.51868156     -1.11595875
H       0.19562473     -1.32406267      0.28050492
H      -0.83567170     -1.10815783      1.75623102
H      -0.35655809      0.29746632      0.74906329
7
Frame 175  Energy = -244.9359844614 Hartree
C      -0.60496394     -0.75970751      0.76483277
N      -1.88889764     -0.92706098     -0.01050010
O      -2.76363790     -1.51473227      0.57421850
O      -1.91181308     -0.52213065     -1.11733915
H       0.19598476     -1.32603344      0.28998680
H      -0.83254681     -1.10685819      1.76205580
H      -0.36924550      0.30323486      0.75094414
7
Frame 180  Energy = -244.9358389883 Hartree
C      -0.60420349     -0.75969706      0.76504954
N      -1.88650127     -0.92708978     -0.01099456
O      -2.76754672     -1.50999847      0.57496503
O      -1.91067441     -0.52539425     -1.11929450
H       0.19573048     -1.32841772      0.29927489
H      -0.82877892     -1.10597557      1.76862807
H      -0.38194853      0.30892606      0.75310451
7
Frame 185  Energy = -244.9358242683 Hartree
C      -0.60345469     -0.75967227      0.76524345
N      -1.88374607     -0.92732187     -0.01107472
O      -2.77159329     -1.50527542      0.57573220
O      -1.90953027     -0.52850219     -1.12171082
H       0.19520225     -1.33124940      0.30786212
H      -0.82447218     -1.10505384      1.77577318
H      -0.39430779      0.31432022      0.75588766
7
Frame 190  Energy = -244.9356918320 Hartree
C      -0.60275441     -0.75956001      0.76545451
N      -1.88077387     -0.92776737     -0.01071713
O      -2.77575771     -1.50055159      0.57645782
O      -1.90847199     -0.53149705     -1.12457631
H       0.19461209     -1.33464109      0.31595259
H      -0.81997201     -1.10426109      1.78269738
H      -0.40645304      0.31930209      0.75877979
7
Frame 195  Energy = -244.9356986133 Hartree
C      -0.60220816     -0.75941808      0.76577969
N      -1.87767547     -0.92842523     -0.00993341
O      -2.77999944     -1.49581218      0.57725752
O      -1.90753427     -0.53437423     -1.12780966
H       0.19447821     -1.33858199      0.32321457
H      -0.81510506     -1.10342046      1.78901334
H      -0.41826565      0.32360249      0.76192883
7
Frame 200  Energy = -244.9356790701 Hartree
C      -0.60187315     -0.75911904      0.76623331
N      -1.87452142     -0.92939320     -0.00879809
O      -2.78431935     -1.49103102      0.57810177
O      -1.90659978     -0.53714607     -1.13136543
H       0.19465415     -1.34297454      0.32945839
H      -0.80978259     -1.10235066      1.79467765
H      -0.42941916      0.32683058      0.76489247
7
Frame 205  Energy = -244.9354256409 Hartree
C      -0.60174532     -0.75868462      0.76686377
N      -1.87122709     -0.93056160     -0.00731837
O      -2.78868775     -1.48623410      0.57898473
O      -1.90558354     -0.53985092     -1.13518510
H       0.19528439     -1.34733739      0.33477032
H      -0.80407851     -1.10085188      1.79920561
H      -0.43967195      0.32895537      0.76772138
7
Frame 210  Energy = -244.9355812019 Hartree
C      -0.60179783     -0.75811790      0.76765399
N      -1.86788489     -0.93192745     -0.00558226
O      -2.79307485     -1.48138900      0.57985986
O      -1.90444861     -0.54246660     -1.13920541
H       0.19647145     -1.35148992      0.33881504
H      -0.79829072     -1.09907355      1.80230282
H      -0.44896147      0.33003792      0.77073961
7
Frame 215  Energy = -244.9352024647 Hartree
C      -0.60190441     -0.75742857      0.76871187
N      -1.86478083     -0.93350266     -0.00366987
O      -2.79744473     -1.47647144      0.58077086
O      -1.90324844     -0.54505581     -1.14342379
H       0.19804963     -1.35552466      0.34205792
H      -0.79256960     -1.09695556      1.80401006
H      -0.45687328      0.33036916      0.77424263
7
Frame 220  Energy = -244.9350599095 Hartree
C      -0.60209014     -0.75658425      0.77003896
N      -1.86182809     -0.93514588     -0.00157016
O      -2.80181296     -1.47144970      0.58164279
O      -1.90190124     -0.54760125     -1.14789135
H       0.19990235     -1.35918338      0.34426181
H      -0.78693892     -1.09463429      1.80445452
H      -0.46345929      0.33018730      0.77786900
7
Frame 225  Energy = -244.9351549050 Hartree
C      -0.60238598     -0.75565110      0.77158936
N      -1.85895767     -0.93699265      0.00064980
O      -2.80611431     -1.46638779      0.58241053
O      -1.90046644     -0.55009783     -1.15240991
H       0.20165000     -1.36214362      0.34556736
H      -0.78190751     -1.09225289      1.80366163
H      -0.46854056      0.32920144      0.78102900
7
Frame 230  Energy = -244.9350247381 Hartree
C      -0.60278852     -0.75473112      0.77324237
N      -1.85617804     -0.93905274      0.00298353
O      -2.81026151     -1.46129892      0.58304472
O      -1.89898769     -0.55253241     -1.15690347
H       0.20344334     -1.36409071      0.34595166
H      -0.77751053     -1.08975390      1.80200421
H      -0.47218538      0.32740954      0.78412001
7
Frame 235  Energy = -244.9350027621 Hartree
C      -0.60328695     -0.75381752      0.77492490
N      -1.85357909     -0.94112544      0.00529317
O      -2.81429751     -1.45612178      0.58357253
O      -1.89742853     -0.55496519     -1.16128933
H       0.20501156     -1.36482774      0.34563991
H      -0.77327489     -1.08733279      1.80033087
H      -0.47446686      0.32512855      0.78688665
7
Frame 240  Energy = -244.9349383467 Hartree
C      -0.60382400     -0.75280114      0.77665209
N      -1.85126196     -0.94326279      0.00749228
O      -2.81817218     -1.45090824      0.58400559
O      -1.89570196     -0.55742959     -1.16549901
H       0.20579307     -1.36374418      0.34489109
H      -0.76944580     -1.08531168      1.79867029
H      -0.47508872      0.32290401      0.78968699
7
Frame 245  Energy = -244.9350126411 Hartree
C      -0.60432834     -0.75173119      0.77844615
N      -1.84927592     -0.94561443      0.00955893
O      -2.82187406     -1.44568284      0.58434877
O      -1.89375977     -0.55989931     -1.16946452
H       0.20574288     -1.36104334      0.34384920
H      -0.76612169     -1.08355558      1.79706140
H      -0.47398559      0.32105871      0.79230300
7
Frame 250  Energy = -244.9350419021 Hartree
C      -0.60488262     -0.75077876      0.78026684
N      -1.84761739     -0.94798890      0.01140377
O      -2.82532739     -1.44042502      0.58461804
O      -1.89169662     -0.56246472     -1.17313507
H       0.20533086     -1.35684369      0.34309158
H      -0.76335275     -1.08212019      1.79597440
H      -0.47123154      0.31971998      0.79455573
7
Frame 255  Energy = -244.9351181305 Hartree
C      -0.60539773     -0.75002115      0.78217493
N      -1.84628447     -0.95040103      0.01289207
O      -2.82860489     -1.43518571      0.58485681
O      -1.88953641     -0.56515445     -1.17653925
H       0.20414249     -1.35110966      0.34234187
H      -0.76128636     -1.08101009      1.79564445
H      -0.46678154      0.31900152      0.79625347
7
Frame 260  Energy = -244.9354313309 Hartree
C      -0.60590981     -0.74941724      0.78401549
N      -1.84534431     -0.95276631      0.01412609
O      -2.83156802     -1.42991819      0.58510232
O      -1.88729909     -0.56798650     -1.17958792
H       0.20258616     -1.34409740      0.34138724
H      -0.76013276     -1.08045801      1.79623750
H      -0.46061722      0.31880809      0.79750462
7
Frame 265  Energy = -244.9350618727 Hartree
C      -0.60639967     -0.74883394      0.78584818
N      -1.84477484     -0.95507217      0.01508278
O      -2.83423088     -1.42458086      0.58528888
O      -1.88488955     -0.57092471     -1.18222054
H       0.20043183     -1.33596051      0.34017794
H      -0.76013240     -1.08021952      1.79780036
H      -0.45316041      0.31888921      0.79813929
7
Frame 270  Energy = -244.9349092676 Hartree
C      -0.60687441     -0.74818017      0.78767038
N      -1.84462829     -0.95745895      0.01565656
O      -2.83673937     -1.41913518      0.58533826
O      -1.88233957     -0.57400875     -1.18443372
H       0.19809713     -1.32678501      0.33859765
H      -0.76068135     -1.08042022      1.80075201
H      -0.44445101      0.31963346      0.79825901
7
Frame 275  Energy = -244.9348867123 Hartree
C      -0.60732848     -0.74750041      0.78949202
N      -1.84480882     -0.95975684      0.01572251
O      -2.83903655     -1.41360372      0.58532370
O      -1.87967650     -0.57722694     -1.18618602
H       0.19592185     -1.31673351      0.33639888
H      -0.76193178     -1.08122952      1.80489052
H      -0.43488432      0.32082942      0.79803928
7
Frame 280  Energy = -244.9350513866 Hartree
C      -0.60785209     -0.74679620      0.79135363
N      -1.84534381     -0.96202136      0.01541228
O      -2.84111234     -1.40806136      0.58524760
O      -1.87689932     -0.58062849     -1.18753323
H       0.19403964     -1.30627392      0.33334278
H      -0.76389082     -1.08263338      1.80971114
H      -0.42501110      0.32258753      0.79734039
7
Frame 285  Energy = -244.9349439084 Hartree
C      -0.60835365     -0.74619514      0.79309747
N      -1.84630307     -0.96423836      0.01469433
O      -2.84300964     -1.40245750      0.58514311
O      -1.87403431     -0.58418936     -1.18849022
H       0.19269103     -1.29587023      0.32972959
H      -0.76627697     -1.08411004      1.81513245
H      -0.41505989      0.32431352      0.79646402
7
Frame 290  Energy = -244.9349752005 Hartree
C      -0.60880089     -0.74565960      0.79492287
N      -1.84763962     -0.96630746      0.01355127
O      -2.84469118     -1.39687402      0.58501437
O      -1.87104086     -0.58792163     -1.18902933
H       0.19233302     -1.28575441      0.32553129
H      -0.76902180     -1.08566808      1.82074319
H      -0.40490031      0.32633357      0.79503091
7
Frame 295  Energy = -244.9348839083 Hartree
C      -0.60933990     -0.74507585      0.79678204
N      -1.84936258     -0.96813501      0.01208158
O      -2.84613892     -1.39126531      0.58481741
O      -1.86795582     -0.59175432     -1.18914848
H       0.19270516     -1.27595438      0.32051925
H      -0.77209729     -1.08741837      1.82637018
H      -0.39484382      0.32825308      0.79286885
7
Frame 300  Energy = -244.9350172111 Hartree
C      -0.60999597     -0.74453403      0.79865204
N      -1.85134382     -0.96976657      0.01023312
O      -2.84747419     -1.38566033      0.58460557
O      -1.86472280     -0.59570289     -1.18885852
H       0.19379848     -1.26693806      0.31499309
H      -0.77552095     -1.08912962      1.83129281
H      -0.38524796      0.32977513      0.79023643
