23
maple-route1-mmgb-reference-mlip-reweighting-v1 phase=gas replicate=repeat-0 sample=0
C 0.367031284144714 -0.962836012858682 0.478392128987382
C 0.796242758543238 -0.725911716280094 1.989904875934453
C 0.547235858739899 0.684694608174917 2.602807227626504
C 1.287085264788606 0.888645317938993 4.000978934363307
C 1.165577181640231 2.229295814194415 4.731354256399548
C 1.255873573072002 2.141604872605564 6.301362938577472
O 0.300654480869019 2.240206433439153 7.048622641562423
O 2.453028853506757 1.488107182084477 6.641780266347062
C 2.626971684203193 1.003425857940002 7.936764147736252
H 0.465403886893549 -2.037804171480145 0.211545455904436
H -0.713568258964963 -0.693517830862807 0.320147109450041
H 0.914905892665958 -0.335065611085271 -0.282746375900474
H 1.799074787027519 -0.993756168981182 2.061770460306632
H 0.272245514235195 -1.449501236223246 2.626663465661896
H 0.733086865310705 1.489474461840019 1.902812978089065
H -0.490458562655228 0.841515708859356 2.736840765930936
H 0.931900663836873 0.090004713633338 4.686893278510134
H 2.346139083930382 0.633374605296780 3.888465156031336
H 2.031876318106725 2.799217469133662 4.351328568226910
H 0.241846696835294 2.729080276195975 4.481842218034076
H 3.509920548952206 0.347488772436998 8.005854266780538
H 1.744852524256479 0.453563913252181 8.211218898734474
H 2.737090132049989 1.788548996817175 8.629048811330717
23
maple-route1-mmgb-reference-mlip-reweighting-v1 phase=gas replicate=repeat-0 sample=1
C 0.415553884497420 -0.964418504993458 0.583979498846292
C 0.870948029408457 -0.774674469131390 2.049713602987842
C 0.565701735872061 0.618513103714928 2.632130187169980
C 1.223941681530538 0.864079221284699 4.006548917145398
C 1.081196299677575 2.240270547239194 4.720683274301234
C 1.244304322967994 2.183852649860653 6.239928433906078
O 0.306704255111653 2.178927431011203 6.989604836242732
O 2.435042008477669 1.582942678321160 6.595047154017983
C 2.651981467699917 1.033451420166443 7.913766011084475
H 0.634549069804532 -1.991299423430383 0.203268502394318
H -0.670825622793795 -0.779166019066260 0.463524580931258
H 0.860988071977052 -0.239532724235893 -0.076643896137531
H 2.011178027184679 -0.958947116800726 2.013880612582083
H 0.458738241634308 -1.538945856225734 2.669923458776577
H 0.862332381493607 1.428471795182702 1.868390280473687
H -0.493754985388782 0.871477143954144 2.671360542836473
H 0.821940943988601 0.112782833947253 4.714907271378336
H 2.254867627317917 0.616185189817330 3.880330802947943
H 1.835487279044812 2.886677422672154 4.328455323584084
H 0.085409352538566 2.664364049490446 4.553364862112085
H 3.557248870764076 0.534047685183978 8.049228926115598
H 1.867605071485374 0.353165287050300 8.245894464032149
H 2.554540921331230 1.852184661070553 8.684232040757671
23
maple-route1-mmgb-reference-mlip-reweighting-v1 phase=gas replicate=repeat-0 sample=2
C 0.450012414323493 -0.952943590441591 0.729967889459717
C 0.970506747329385 -0.719728019364743 2.087215362528918
C 0.675389810413304 0.619043749811607 2.691222976204801
C 1.159078664920554 0.767521085405524 4.097261994543730
C 1.008367437947106 2.218000778495684 4.670595596662823
C 1.193356714377947 2.069423414326905 6.151793702558387
O 0.266990133122147 2.092695473560473 6.971915814355517
O 2.456900950085181 1.664239648257477 6.494992226255043
C 2.615633815534826 1.185465718834276 7.837441182235299
H 0.815577678333943 -1.883522545662548 0.295661910410260
H -0.618409897086813 -0.954940737396866 0.658411854837871
H 0.762939098164883 -0.168090092798519 0.073133984723085
H 2.106001876554668 -0.939401690355656 2.078751039414513
H 0.486202722619757 -1.504065823149505 2.702494511021136
H 1.039286185710449 1.431930466808332 2.048702518133010
H -0.427049426667426 0.871248723670623 2.630039270527647
H 0.638031575621714 0.080013357956543 4.759134131598104
H 2.224034412617776 0.453480116554653 4.052285102805314
H 1.793826064679145 2.853735061926493 4.272659211784713
H 0.011951040184315 2.640196127698562 4.444699193267680
H 3.645406279638271 0.895504921905110 8.081404658638480
H 2.002211356797826 0.310867356446021 8.103500329705358
H 2.210947890287442 1.981008196467523 8.538398237853214
23
maple-route1-mmgb-reference-mlip-reweighting-v1 phase=gas replicate=repeat-0 sample=3
C 0.440646991309725 -0.975196843350691 0.733037276699921
C 1.079782513636185 -0.743263910880883 2.145454069729639
C 0.767486759888121 0.656984694073077 2.666120835278695
C 1.092197337960470 0.681550598836316 4.168541976643965
C 0.998197499199533 2.101177032946119 4.685786894080382
C 1.153679651764572 2.125709993594452 6.170856305063977
O 0.169301975913921 1.955649701621114 6.891976615930928
O 2.425234542069700 1.771624673196183 6.496589401568656
C 2.667222863241631 1.370596854596774 7.813294934744675
H 0.769841892582974 -1.826738879707551 0.195879142211674
H -0.604982372195879 -0.992748779184151 0.716498842316693
H 0.640636462750854 -0.144296244753501 0.044883758526612
H 2.146061707234942 -0.824709850330631 2.113450143306078
H 0.702962771660290 -1.569282949599704 2.857571428673029
H 1.258035212462213 1.384219559828968 2.119443699078277
H -0.269582516366367 0.937743119611807 2.466105618217568
H 0.361764316411851 0.107515047992708 4.745556116000314
H 2.114678178680586 0.232370641166775 4.282718319945769
H 1.828202190402746 2.683030531460643 4.236079506088497
H 0.012895622196481 2.457940155036579 4.385971856254815
H 3.820022021882787 1.245061616860023 7.895258949975529
H 2.255732805584333 0.371933145458550 8.030678691391923
H 2.191129271689905 2.085299018280199 8.489215466080360
23
maple-route1-mmgb-reference-mlip-reweighting-v1 phase=gas replicate=repeat-0 sample=4
C 0.486751195451296 -1.011877624559577 0.686336380986968
C 1.120339713582579 -0.852914419216731 2.037178468755827
C 0.872899375740658 0.560593180176113 2.632790089038830
C 1.004338761546245 0.665604289934906 4.175059657174139
C 0.937401768933425 2.145335327737030 4.671725090803911
C 1.065739931547954 2.083069375617395 6.194602177376519
O 0.121606677727849 1.856681981996783 6.909802272538450
O 2.393845060755044 1.924664470343859 6.546463348386533
C 2.764546480047969 1.563755709002077 7.918739200566279
H 0.773263369616579 -1.953039237102987 0.248682047157875
H -0.609158181883086 -1.044266909825176 0.735787332778427
H 0.687507386688727 -0.300770203194181 -0.087712574804377
H 2.164408827977416 -0.963419191866927 1.960435122286297
H 0.695969669852460 -1.659328031889696 2.624084745931968
H 1.542736824096165 1.264118317272834 2.141699388396969
H -0.045646437467194 0.913853486061981 2.330726527883119
H 0.172227745636534 0.124435835908016 4.678214462183431
H 1.968944725230064 0.188598780106499 4.388383128906821
H 1.853734460060996 2.629945698491858 4.298473260935818
H 0.000610776309895 2.608508750512209 4.304879392551710
H 3.852552663037970 1.457690779481936 7.867275028072562
H 2.418594770360684 0.533574359757938 8.148210485367114
H 2.370056151493104 2.261411113841232 8.659888402575023
23
maple-route1-mmgb-reference-mlip-reweighting-v1 phase=gas replicate=repeat-0 sample=5
C 0.561763198265656 -1.107042307609406 0.594155596040791
C 1.092028739340381 -0.946672987192852 2.009699626210760
C 0.960719471152766 0.544151462923208 2.537205602747336
C 0.936214064458000 0.654216148344152 4.072337167454014
C 0.892809478827322 2.118198167907332 4.735162769355895
C 1.068440453103179 1.999329126010580 6.255247640018688
O 0.150415564975364 1.778006956573936 7.013128920113216
O 2.400895034270146 2.079152901589156 6.572841900582931
C 2.720788711450262 1.775150881351860 7.972177152136223
H 0.799513182456301 -2.120357963575643 0.188811554350571
H -0.552709009217571 -0.963712502531582 0.501595503381736
H 0.985055903515921 -0.453454434848024 -0.143497019619982
H 2.191374954105875 -1.175169034473930 2.050865166394879
H 0.500833296295412 -1.624151716848363 2.550252488678730
H 1.747981861059500 1.235542964556132 2.078928751748702
H 0.016659184087712 0.944068838136610 2.173796947530723
H 0.017069248120156 0.131174836859138 4.423732519100262
H 1.815917007210508 0.084782709194622 4.330873234280018
H 1.727463690119851 2.694247380594046 4.332923568854295
H -0.116629543938515 2.514931688598127 4.490660645630391
H 3.738191162775373 1.726876073703812 8.056561370685671
H 2.367982126079971 0.774125094215463 8.194754531525160
H 2.261942667115779 2.476180388161553 8.687791533204020
23
maple-route1-mmgb-reference-mlip-reweighting-v1 phase=gas replicate=repeat-0 sample=6
C 0.688724056827104 -1.196457809126703 0.508674260063370
C 1.010526137360754 -0.908155550520035 2.032800418593158
C 0.985776922940908 0.561730537566239 2.485748198976226
C 0.908405283894406 0.605666634342252 4.056900767076744
C 0.832248139680149 1.988770642503803 4.691223283428972
C 1.078709554456097 1.954454251687661 6.252741311887760
O 0.202950877462186 1.693915370906780 7.048053319648182
O 2.361401689941093 2.154627927521830 6.640564591187915
C 2.684005329755692 2.002067752706577 8.027861086579643
H 0.846504871275054 -2.243698583627284 0.139254053913693
H -0.311969957598944 -0.862207842398404 0.185908145407220
H 1.390565439062558 -0.605632340327691 -0.109097167058082
H 2.069134841426320 -1.248217201034814 2.282062094897904
H 0.213941909856722 -1.497437993098830 2.548380375651047
H 1.905452849384277 1.073343728251537 2.103236141997721
H 0.075841163115665 1.110587013013728 1.977954891475338
H 0.040835767732333 0.077277015748383 4.441952504427667
H 1.850685177479241 0.104351387142202 4.336310766946265
H 1.595837686841098 2.562322427173990 4.161701594300183
H -0.164705689731294 2.298584680438175 4.415038960035123
H 3.734057143028828 2.200691552600443 8.213490867534048
H 2.435350329497851 1.033847972513738 8.392679258500410
H 2.136886730170291 2.724621309693946 8.655036762162219
23
maple-route1-mmgb-reference-mlip-reweighting-v1 phase=gas replicate=repeat-0 sample=7
C 0.875431062599524 -1.174389476496185 0.503489874078985
C 0.943884805576067 -0.937869020795877 2.002199108082164
C 0.946874498863599 0.496705207643338 2.522889552882186
C 0.961675860356845 0.534587533811750 4.094038706965949
C 0.836959832803827 1.965214112869846 4.764030456307391
C 1.071637887687097 1.864112140857679 6.255283614566620
O 0.137771456635469 1.601124374222404 7.000979413719072
O 2.337867613805638 2.209305631573896 6.616143312574437
C 2.657505720379383 2.254763564985097 7.981972424493171
H 0.806775007606860 -2.242643421284533 0.294426379897502
H 0.001823331002094 -0.698495862665553 0.069256652002251
H 1.833244644588405 -0.819036935244642 -0.012716659627245
H 1.836458219392662 -1.430474125940697 2.365283064470049
H -0.055104045120900 -1.422864155837033 2.274239703401364
H 1.809229587641652 0.994597128427692 2.097839502220249
H 0.023731201156965 1.027920133103491 2.149913657116666
H 0.093482884804547 0.020983891763270 4.459029466028709
H 1.867387927678497 -0.009500793837537 4.387977275459217
H 1.678004080568742 2.499818919663150 4.297511352400299
H -0.091883035843805 2.423781974953912 4.447594259301843
H 3.671319658076328 2.760674689803784 8.244402624297082
H 2.518524565118101 1.309729510803593 8.532117533307652
H 1.979237783693398 2.970493422043816 8.461787497196928
23
maple-route1-mmgb-reference-mlip-reweighting-v1 phase=gas replicate=repeat-0 sample=8
C 1.062416540232732 -1.066393488713002 0.474485789234454
C 0.877077260355989 -1.067418581254854 2.060893305837456
C 0.877911820920834 0.440097154441564 2.624359565692775
C 0.989360794152024 0.454973300554042 4.123563342802107
C 0.902990669402516 1.892002815441096 4.715923111089239
C 1.034478820387685 1.827073028987452 6.233527657483499
O 0.144305389497265 1.529775827774451 6.995759603040812
O 2.263912850603968 2.254213855202701 6.566406874550705
C 2.595731156118546 2.511341754302867 7.961926815145837
H 0.897778846891669 -2.074736927253056 0.085228172498090
H 0.314220268028289 -0.409976313347941 -0.008570785072529
H 2.075411878760329 -0.768874435031739 0.191279879596510
H 1.748669967430292 -1.560078326705024 2.392218884332376
H -0.047192705007487 -1.606609932189203 2.258753550801836
H 1.776579936325793 0.923890531023507 2.218899191012217
H 0.018437965700079 0.931478787840244 2.354260083047374
H 0.168960216239294 -0.149450801770675 4.557283674504585
H 1.944986209961808 -0.041374878527733 4.326456017096556
H 1.676296923757161 2.458997473422720 4.205581438188462
H -0.047888455087548 2.354639140072038 4.400777468014127
H 3.559443919296074 3.058653224110762 8.096827912164077
H 2.518784463727814 1.589780466224916 8.653097117455614
H 1.887110014706810 3.245589294566295 8.374334567819830
23
maple-route1-mmgb-reference-mlip-reweighting-v1 phase=gas replicate=repeat-0 sample=9
C 1.174666436095104 -0.935492548806006 0.511761057584954
C 0.878209281029755 -1.105093808622738 2.044795848042661
C 0.862897458496898 0.287423945873697 2.620803869213502
C 0.985995965576456 0.319224480503009 4.198074599125074
C 0.890748816372107 1.759252354097696 4.695731299290267
C 1.063315070128338 1.860090617466938 6.230228325700271
O 0.187249404058860 1.506285640421624 6.988934917946574
O 2.272541640946812 2.387682228968821 6.532744299893499
C 2.464401389234961 2.675127862644385 7.952131839304672
H 1.021110540069886 -1.910912494777306 0.022716572817302
H 0.450420045230039 -0.233889518608570 0.063507755870654
H 2.163652169965688 -0.609351256011988 0.338574729080804
H 1.680524016810128 -1.740905156035374 2.428970330314939
H -0.066779070982152 -1.499495578010076 2.109954533483515
H 1.675256086824395 0.869270444006928 2.128387151612628
H -0.121889976394370 0.609980338812139 2.380659972195923
H 0.250797594474428 -0.361151365280507 4.708117345081338
H 1.991997161272623 -0.060445530664263 4.418012492913680
H 1.521292128528866 2.360260572672209 4.068969757311405
H -0.143777279041771 2.086379318691500 4.452867515183484
H 3.438036862163551 3.079226302793835 8.103140862347722
H 2.287992578730539 1.715249687378680 8.521693988339239
H 1.752085468848535 3.465215194324710 8.324205138218764
23
maple-route1-mmgb-reference-mlip-reweighting-v1 phase=gas replicate=repeat-0 sample=10
C 1.260933460517284 -0.967138075096559 0.489849553530159
C 0.926853005415810 -1.130264894898641 1.982503782036185
C 0.824325872807474 0.214833589804468 2.713413995378130
C 1.040814902461562 0.200389332337285 4.241669376929877
C 0.822671488787787 1.665636528766066 4.703854384564850
C 1.079848225236813 1.863731608414587 6.205824187734285
O 0.237366251537959 1.513369736470684 6.989548897243267
O 2.201590549483253 2.520307766829330 6.524247568902021
C 2.352570212514744 2.836901591968111 7.931810950411617
H 1.303316909084918 -1.908149220099807 -0.051751876966901
H 0.577337664798979 -0.295976754809112 0.009740787368205
H 2.258230440483715 -0.506065736204559 0.468442048929383
H 1.788476759613746 -1.766027624515620 2.309171598712354
H -0.025892640686913 -1.665594350599538 2.018005754005792
H 1.674420871250445 0.759658342905826 2.316887772818851
H -0.216141206847297 0.673447865724554 2.459323225121961
H 0.316752192392410 -0.493848570944092 4.699078515997705
H 2.049987764303068 -0.179155042104422 4.504533657424576
H 1.515472880468551 2.305141594501956 4.107605532905065
H -0.159383039003632 2.030025248708840 4.394454276256398
H 3.377834335409710 3.145704715164146 8.024296312779137
H 2.206085775596926 1.914491660073266 8.396957099647498
H 1.723461429508871 3.640304298539838 8.356879250160670
23
maple-route1-mmgb-reference-mlip-reweighting-v1 phase=gas replicate=repeat-0 sample=11
C 1.341426489439574 -1.041236913099505 0.447893696998241
C 1.011050792989479 -1.202614004936399 1.980417605950857
C 0.846432923907549 0.170943886368660 2.702934977712196
C 1.053248525896124 0.192085657596952 4.196121520362084
C 0.863780870290663 1.629166836130240 4.753941758885166
C 1.036052331515463 1.830660517980035 6.257934736549318
O 0.181463710691247 1.469236692973439 7.064297852025918
O 2.101954739654633 2.620273921791523 6.509751655818948
C 2.344421372206097 3.022511122957237 7.874993910716224
H 1.496195386745228 -1.961663178560956 -0.111970399002262
H 0.550002350894448 -0.487409095380212 -0.044793541361734
H 2.267939518621936 -0.412949996083125 0.356660209078690
H 1.818927718608831 -1.875041364430053 2.350374364275170
H -0.022592457398329 -1.769982175469697 2.010608471560014
H 1.640580270072724 0.770381139687732 2.234906834258337
H -0.214541771051878 0.548163710280512 2.496387241587819
H 0.235334494008557 -0.411372339548566 4.536240495932596
H 1.965526964163147 -0.292827105201802 4.576660340237281
H 1.618352033753281 2.275613325395465 4.273075949888663
H -0.063288271823580 2.033790978492394 4.377496262470963
H 3.332718489339928 3.513475417573685 7.940173494107197
H 2.343403274860565 2.124907298792578 8.416537246005621
H 1.651965709788450 3.700943199912334 8.305165445380752
23
maple-route1-mmgb-reference-mlip-reweighting-v1 phase=gas replicate=repeat-0 sample=12
C 1.354350619338013 -1.149626662562883 0.463168891820301
C 1.127363706615021 -1.218327338201269 1.982712191669834
C 0.905467595319069 0.159493517091809 2.586122487795084
C 0.953290390402127 0.198824082507110 4.184305643271482
C 0.891424533686179 1.618618413795294 4.758325880273004
C 1.024068178364320 1.780049886607267 6.306093729731733
O 0.178839621094304 1.435859427496825 7.123683002300382
O 2.017851351453973 2.687958186109205 6.523980210540696
C 2.322670385195930 3.180505171795900 7.840785835938799
H 1.529506182358948 -2.182580465032760 0.107223781001175
H 0.444906831369970 -0.803092853392510 -0.125987585166685
H 2.208122066194850 -0.541204121783097 0.164761337332963
H 2.012521627139702 -1.757416418946105 2.370999653856702
H 0.247514342147129 -1.856586766319379 2.191110600863623
H 1.743090182002573 0.759521488393357 2.129404046687981
H -0.030969940991910 0.456658887206346 2.222482368308335
H 0.295819726164613 -0.541724650348130 4.649983427685067
H 1.933625322750623 -0.095301368050234 4.530069124453886
H 1.604632332746510 2.275952025615392 4.254844572363067
H -0.106132420857019 1.965264678996171 4.450184710674530
H 3.042542562682999 3.997038196361439 7.840245503585061
H 2.624357965149716 2.329040048340636 8.527647817511641
H 1.456275723039251 3.596598599080957 8.336182761409059
23
maple-route1-mmgb-reference-mlip-reweighting-v1 phase=gas replicate=repeat-0 sample=13
C 1.369020812305037 -1.310123573587500 0.475799995468450
C 1.277389939031726 -1.240664680433645 2.025778120520498
C 0.990357596272589 0.241837088304048 2.607358151644554
C 0.938667623008041 0.190206726574131 4.148243892517226
C 0.751604875801371 1.647318528103061 4.752293076807040
C 1.042064643635732 1.779729428193561 6.274201171823237
O 0.269543968681653 1.410759023107971 7.107425734222343
O 1.988775515404438 2.757946030782266 6.509405402474748
C 2.194448027860319 3.220630281583739 7.846169127462748
H 1.556390268521059 -2.363147701668672 0.113889136627451
H 0.408194186947791 -1.041354240409651 -0.028855916406572
H 2.141233864424101 -0.674977775700198 0.051169807395243
H 2.257282031911083 -1.616002657933812 2.367779823663434
H 0.608403465147237 -1.967355030047322 2.367541379600897
H 1.744880948979815 0.920063609000354 2.226619697759482
H 0.025181517089167 0.518113782043863 2.248901927830170
H 0.146691341441779 -0.551498067550281 4.459154032858063
H 1.830692992566565 -0.243223241791729 4.607180992364910
H 1.362466010494194 2.401264566264553 4.233428618342695
H -0.321937893502716 1.901326716453339 4.601777658907322
H 2.648230867228203 4.214905295272661 7.915133195314912
H 2.641283807018111 2.485013693538243 8.595427203854058
H 1.148198963581176 3.408487191186627 8.279683743086247
23
maple-route1-mmgb-reference-mlip-reweighting-v1 phase=gas replicate=repeat-0 sample=14
C 1.361958090566579 -1.394385320343037 0.556464919909923
C 1.463495995825816 -1.208527005421627 2.092214571316025
C 1.064833221309762 0.177893891216909 2.637938790236095
C 0.994343143407933 0.265507943065150 4.150021382594638
C 0.627665999299123 1.679196907910593 4.712202088246056
C 1.004096715304070 1.813920702026368 6.209332820212961
O 0.345104568591542 1.342616941154025 7.095643971045024
O 1.920315208253909 2.828780906673025 6.456661481720054
C 2.048907014303933 3.200910162139121 7.826346670617309
H 1.451301974047412 -2.437541352148008 0.259785931072568
H 0.391185015391829 -1.116210510767832 0.195875293430557
H 2.132626195483515 -0.806832402185293 -0.002304375161305
H 2.418396645116172 -1.549426208035005 2.475228588315748
H 0.771757713265235 -1.949678794488739 2.469427764883356
H 1.837230449114704 0.824024289335642 2.301528138246782
H 0.098620165892567 0.495212416393892 2.130171463045814
H 0.205052778281414 -0.453085762425661 4.477337451536857
H 1.904508250973477 -0.109674609756398 4.688677851408015
H 1.297974721006068 2.432818578043161 4.263497602486100
H -0.422668932674697 1.923626524377476 4.540891451401555
H 2.576391964109506 4.195656814745777 7.977250665803846
H 2.406119415152121 2.416195121120169 8.480480334147115
H 0.985922232972999 3.427001259766708 8.159500785201187
23
maple-route1-mmgb-reference-mlip-reweighting-v1 phase=gas replicate=repeat-0 sample=15
C 1.357832528178601 -1.410948228348296 0.680129542235098
C 1.536916512728313 -1.237778739888235 2.195945443772477
C 1.126340694534583 0.129400891493833 2.641801300872978
C 1.081187537657423 0.345117121366758 4.184063166160946
C 0.651373196729297 1.696930336635665 4.661966897565886
C 0.891967128190526 1.878659717408270 6.152270169966343
O 0.339173167933291 1.175878762271726 7.014665515108954
O 1.774405633578452 2.888044749669163 6.425672364327588
C 2.015990062855494 3.258757760767616 7.785379096733609
H 1.577568794328444 -2.386490565495928 0.313672095351774
H 0.364435313087609 -1.138783956036615 0.329817107200137
H 2.112169294587773 -0.738151597773620 0.251052848490683
H 2.566528347287203 -1.433161280635436 2.436710829167227
H 0.981852697049722 -2.109089882000443 2.690055313363904
H 1.900599859652894 0.797931319150244 2.201693025727472
H 0.160698582482113 0.378094802321319 2.128699254612770
H 0.453806248259329 -0.378385862156309 4.697627838097963
H 2.080740388931549 0.185744311421646 4.641834331276613
H 1.220416347694994 2.504286277713241 4.184011719114856
H -0.426497644846285 1.772504620928146 4.543258151815730
H 2.907911270066657 3.932448161720433 7.799243362927237
H 2.253337234993406 2.379319568345584 8.352789759591188
H 1.153420719214948 3.738001054903055 8.234224140601844
23
maple-route1-mmgb-reference-mlip-reweighting-v1 phase=gas replicate=repeat-0 sample=16
C 1.400913896606220 -1.453912576799094 0.749420959319168
C 1.573561696144549 -1.244141861167090 2.271101432121305
C 1.157518905383271 0.167383080827913 2.730490991400557
C 1.265797970094948 0.324690074402297 4.222852968747420
C 0.645914874504472 1.699505419193088 4.589011096555872
C 0.735052540416091 1.945459049725152 6.101850246367157
O 0.372978392763029 1.104315011747122 6.935317915696867
O 1.638338493674114 2.949581138561228 6.383656711878444
C 1.999937644545722 3.274253204506963 7.760530870850108
H 1.725644772477958 -2.431654752750887 0.382625567561545
H 0.315865955640919 -1.374953894684274 0.499760033457821
H 1.975598048192431 -0.705094082286462 0.255357113828240
H 2.608989909892579 -1.531018112292849 2.568908966674719
H 0.992999359659669 -2.056866765370659 2.715080600577186
H 1.630397926913090 1.046516394024911 2.161532185247572
H 0.117098899957457 0.172645866838885 2.565255278340030
H 0.751926838294269 -0.490825010721032 4.770010253128931
H 2.306399413102951 0.313554352485372 4.473882236363361
H 1.092977827250874 2.566875307668756 4.096674711029051
H -0.462783101270447 1.686877988721517 4.499972266575477
H 2.959300797676973 3.685639428456120 7.681864496526743
H 2.217872389145796 2.302229373227257 8.246028556780598
H 1.314047510786254 3.853888122041079 8.328989813237323
23
maple-route1-mmgb-reference-mlip-reweighting-v1 phase=gas replicate=repeat-0 sample=17
C 1.454000887204074 -1.505466756978465 0.774623875279889
C 1.593714343189808 -1.283522927610692 2.309163863276186
C 1.113840452189605 0.100504607556238 2.747447314276647
C 1.429854037523651 0.440505677339299 4.233459906811964
C 0.598445477002885 1.708075397947309 4.633560319201017
C 0.708962992137905 1.953120439918395 6.099243311687548
O 0.363308310513616 1.141892500662465 6.938515993643033
O 1.541712227076051 3.034831579315004 6.332052138605190
C 1.961929229656951 3.169623747348008 7.683440158934846
H 1.832106538014566 -2.532236113102754 0.543315812999578
H 0.371411651979224 -1.573686428781312 0.571942192026576
H 1.955884565207971 -0.765209339962672 0.139453862077803
H 2.680560220683947 -1.335278477291635 2.543095178640685
H 1.212363008846876 -2.108854058332323 2.809704720565219
H 1.748799916363892 0.776264104844224 2.208062122526431
H 0.069536312643320 0.231042693929496 2.460445997497740
H 1.096651463748239 -0.371126107891771 4.928418247253413
H 2.517502904236604 0.624913113810214 4.319834760592426
H 0.956944946753436 2.617489224920423 4.138612447007054
H -0.488511547106744 1.598664865310373 4.572701609340730
H 2.857723329424482 3.729424426553779 7.699018781019914
H 2.290740005403931 2.184748324109804 8.047549116035665
H 1.166788555361795 3.541985407224917 8.370052108739772
23
maple-route1-mmgb-reference-mlip-reweighting-v1 phase=gas replicate=repeat-0 sample=18
C 1.464210540193439 -1.632612382659087 0.823026987945924
C 1.719362131151238 -1.329080041642740 2.330224255044024
C 1.151010325699194 0.072739130592237 2.675286958547880
C 1.488241809375084 0.588043879319840 4.134792624991372
C 0.527943293494171 1.676635441499208 4.591013175934854
C 0.683558332863202 1.953233235416171 6.102942534120209
O 0.288192429594879 1.224217267402299 6.993739205149025
O 1.497928670041252 3.037731513668886 6.382363263649943
C 1.996828416675203 3.157731807457519 7.692239577077228
H 1.902446026987129 -2.610862575731766 0.546823290055369
H 0.391969783429796 -1.712665405518357 0.622899367683626
H 1.963759762017605 -0.856214134260892 0.168506352251896
H 2.754193800616927 -1.427948622846717 2.584830567965502
H 1.218006801955118 -2.096494027904462 2.939222781523409
H 1.407471559654497 0.789917137529421 1.937660149622047
H 0.050697482635091 -0.171012192154361 2.595345079849523
H 1.215420510591738 -0.186206292122612 4.859143298440793
H 2.581750218461992 0.915863706146861 4.219449802819922
H 0.831495410106080 2.607914824312745 4.095154554419087
H -0.523563715237708 1.460629022839202 4.468902670938552
H 2.495415153218443 4.172253128347983 7.815392734156824
H 2.730616955100178 2.406056821381798 8.006448341487744
H 1.104472713596994 3.124692761147236 8.379939094937633
23
maple-route1-mmgb-reference-mlip-reweighting-v1 phase=gas replicate=repeat-0 sample=19
C 1.484230174114813 -1.833703635451936 0.902371894231866
C 1.804104236631320 -1.309894042730198 2.296420588115010
C 1.110451865490893 0.066813923153718 2.657421735565642
C 1.486963927998471 0.616024077346645 4.031333303023309
C 0.497578857752337 1.670868577801903 4.623384693981054
C 0.681196285865768 1.956348508663092 6.113955459180959
O 0.155160689499280 1.251485072207059 6.987517454021353
O 1.528820798419475 3.039231661344388 6.405189618091662
C 2.049423040266730 3.258156014655120 7.712160651383126
H 1.941267620164037 -2.783882283014761 0.675228590796741
H 0.392758622174920 -1.901399240072702 0.660833367517623
H 1.993944777696226 -1.106894759731857 0.259935056034642
H 2.876642834342140 -1.219288466587443 2.370456908310298
H 1.561335672548799 -2.105637699353021 3.093438408890699
H 1.459444506008631 0.851656802507655 1.932886437961705
H 0.044165153251322 -0.092671313002485 2.485168298608464
H 1.592465132588202 -0.153327693748038 4.802984998245047
H 2.430370479809791 1.126903473496847 3.779905359303970
H 0.603265278851640 2.628867584793114 4.105425186688108
H -0.544594455619825 1.367024111700000 4.604142136345733
H 2.142532748479012 4.370883156971280 7.940044777533505
H 3.011095106689555 2.788659664907760 8.014071769092990
H 1.246082559819516 2.927295192198748 8.383837631544095
23
maple-route1-mmgb-reference-mlip-reweighting-v1 phase=gas replicate=repeat-0 sample=20
C 1.501931131595120 -1.974710013448046 0.978607511088321
C 1.920723470970824 -1.216624594568244 2.266118495522627
C 1.093070406612717 0.050051548305486 2.638407960541299
C 1.515001735086235 0.663621627754544 4.022932931162508
C 0.480467874093695 1.711254356422013 4.610268799001875
C 0.708161249201459 1.906699460859241 6.108216142109151
O 0.122945918963395 1.340134559935302 7.028770478227184
O 1.546356628846593 2.966776521342401 6.350354956968403
C 1.951411181092682 3.306945975577873 7.695166988628551
H 1.987537109196925 -2.952328102609518 0.891025980899230
H 0.414554345607346 -2.148231439811841 1.017615340651795
H 1.754241278957833 -1.417583000112550 0.097333324318386
H 3.040390340926743 -1.006389662201068 2.313858561710704
H 1.743873408174928 -1.897008054062867 3.100260169972088
H 1.231778870630180 0.843523208934907 1.827264570396983
H 0.094559738090133 -0.291182075555017 2.616558107090386
H 1.459970762550254 -0.119081872129217 4.776994945750477
H 2.500075562234287 1.028392229796204 3.906213419516819
H 0.478956902577957 2.667491570936495 4.094468689189247
H -0.567408870388916 1.358926001797446 4.623568300893441
H 2.060411183783483 4.367044518381723 7.887733281629002
H 2.905879658611730 2.822984757731959 7.990320134493825
H 1.198378226701543 2.910837477443111 8.389982163848162
23
maple-route1-mmgb-reference-mlip-reweighting-v1 phase=gas replicate=repeat-0 sample=21
C 1.483250587716593 -2.019073399703563 1.121043212482568
C 2.026674225032971 -1.156339828882910 2.292859939834147
C 1.091054166621665 0.025584796749024 2.661080075454627
C 1.468246747200419 0.631566065077569 4.069870186658266
C 0.507135586397118 1.657109870148096 4.588793887583681
C 0.671862494881228 1.945583943611883 6.071406982596018
O 0.117408641441137 1.340308057198324 6.960046641505460
O 1.612421662449462 2.961271136240345 6.314452615478780
C 1.832685986775813 3.348290947583846 7.657753707228795
H 2.112934202299885 -2.924208973589385 0.997229770892414
H 0.499069949559916 -2.333703834830882 1.399052870155378
H 1.451246758823619 -1.509338341013397 0.159208232287529
H 2.970112461366203 -0.675184150314905 1.943180388657187
H 2.329112222474505 -1.714854585115399 3.140196265250430
H 1.124149827527579 0.743235814435995 1.881637876334718
H 0.087415497242330 -0.423729710434498 2.655518730310607
H 1.464862488370777 -0.160790750428708 4.823161803805159
H 2.450750491511868 1.066440914259048 3.988265344053091
H 0.803748615047476 2.572455929285430 4.064258898070594
H -0.573800876384767 1.569180269971441 4.372094298974619
H 2.212421855283177 4.346743006331227 7.760940407927897
H 2.558214901364154 2.630388008061697 8.049222221466305
H 0.910129592538150 3.230640894396630 8.252317454028359
23
maple-route1-mmgb-reference-mlip-reweighting-v1 phase=gas replicate=repeat-0 sample=22
C 1.500861922250742 -2.038241496247001 1.288853181123730
C 2.107516813986058 -1.078580262969891 2.265884982596654
C 1.083085555903774 -0.032214647059622 2.767068831339081
C 1.455923082433802 0.554587338988885 4.116567270113475
C 0.541204209649819 1.695346045900380 4.518204579356510
C 0.678970519005237 1.980162345947078 5.995567654046909
O 0.122369860179189 1.307453552236843 6.835848064521100
O 1.582188874157755 2.984620602896990 6.296436923089836
C 1.758563324742647 3.386030252533980 7.645032890368702
H 2.271431601430452 -2.755330821373799 1.004617569792616
H 0.685686783371380 -2.546442639526509 1.803081679465926
H 1.146246810640176 -1.512945670450154 0.381810543335333
H 2.949979116386677 -0.616003492524825 1.836459478143880
H 2.520480411349626 -1.657456504655991 3.097063891780673
H 0.937096692599242 0.742651583027932 2.084406071269297
H 0.092457960598892 -0.570720898176870 2.821370925973627
H 1.361189140569782 -0.250775696670880 4.850110420318774
H 2.541610191085119 0.882919478872886 4.053928382853942
H 0.665733526436250 2.579783554988545 3.868044730721185
H -0.495026813514012 1.437988497772805 4.417321136433261
H 2.697826244027568 3.992093440169717 7.658963684232999
H 1.957469646728287 2.474559566016560 8.185254106386283
H 0.932585168163226 3.958518802041764 8.080698726454038
23
maple-route1-mmgb-reference-mlip-reweighting-v1 phase=gas replicate=repeat-0 sample=23
C 1.546336522263792 -2.156942745769150 1.339501211006425
C 2.147690181509532 -1.038068926454830 2.272458013349358
C 1.074072691228584 -0.103548043431731 2.862101675223427
C 1.504683715615407 0.558308840156993 4.156033529601448
C 0.582278618152658 1.758511708125193 4.478887989874961
C 0.633455801668854 2.024300293048671 5.946599798964661
O 0.109704132596789 1.301837161394927 6.822512484662230
O 1.554186270115024 3.014918323957038 6.222397596002036
C 1.679507046650362 3.392437286234927 7.626222133624328
H 2.355081202502478 -2.629492761206332 0.802566700739722
H 0.917167321515752 -2.914158943816889 1.913276652586363
H 0.919776134968988 -1.645421069168536 0.588887489049051
H 2.920046939211065 -0.474056668730887 1.797131982001164
H 2.649985946326586 -1.554409437110608 3.127108063169032
H 0.804479228488071 0.744221501135421 2.142466475707959
H 0.163173390516152 -0.687407680542527 2.971570946254924
H 1.450332207798815 -0.233103128067522 4.939652136931384
H 2.588021934034813 0.858195237643156 4.056941936997315
H 0.815847072114516 2.636056109054421 3.893634567990133
H -0.463956737014090 1.529699592218241 4.308978831541481
H 2.752609994438155 3.641628452030768 7.808377367818014
H 1.374652568887269 2.559300783937577 8.291105215736499
H 1.171609601175586 4.332019297565936 7.879250820088934
23
maple-route1-mmgb-reference-mlip-reweighting-v1 phase=gas replicate=repeat-0 sample=24
C 1.613467856874084 -2.215086794936543 1.366966668781106
C 2.171451165138091 -1.110141961455158 2.304080839645648
C 1.087945580466479 -0.223497455984484 2.880482451288191
C 1.552197763613132 0.618465999016549 4.124365644269456
C 0.589924677281556 1.760215901031665 4.479785158043776
C 0.584345813113207 2.048347894429201 5.939769423170507
O 0.032778504927112 1.346173708737162 6.765570023471089
O 1.529692745417123 3.016487193597481 6.266041971620570
C 1.666878399746849 3.471820106319578 7.623382811920379
H 2.426885994100865 -2.590486425345933 0.703560702462726
H 1.165295837241045 -3.053229028914723 1.954856332249899
H 0.837012788102272 -1.760797017587311 0.732619602079915
H 2.849775491245115 -0.408559754673757 1.699200866030717
H 2.778236272292057 -1.538785823839628 3.111478350848986
H 0.723656350335969 0.490573574391142 2.056509160709248
H 0.240108130658193 -0.852229747866744 3.062055322086927
H 1.679192999467156 -0.098837651833325 4.957539523519307
H 2.526481189403925 1.050167569432058 3.951836944036179
H 1.001242822293889 2.632591225242400 3.987931277091491
H -0.454203515416898 1.544347237074370 4.138135353367359
H 2.688313574874002 3.776822917148100 7.841461271225889
H 1.212224997405710 2.780518607778247 8.408018298597014
H 1.183995150414677 4.464374473053519 7.689661883872555
23
maple-route1-mmgb-reference-mlip-reweighting-v1 phase=gas replicate=repeat-0 sample=25
C 1.718779628796312 -2.267974703824209 1.377884415121793
C 2.215035044757359 -1.216024883685443 2.333745969379890
C 1.088573746888990 -0.299462299576751 2.942136062154670
C 1.621499728867965 0.697378063359069 3.994844016515382
C 0.552165661384191 1.760869075410789 4.433707837757679
C 0.596608776078771 2.056355045773512 5.957465700783330
O -0.069225666576136 1.449282047964568 6.766465041841937
O 1.538011948619534 3.044500728082888 6.305527947701510
C 1.595564370639655 3.506868116925533 7.608042921058474
H 2.563241622925048 -2.767240796501720 0.830691972758127
H 1.314774017525881 -2.997603406341285 2.044582192493677
H 0.912957085924513 -1.917824963810567 0.715857331987220
H 2.957996934953578 -0.562147104802217 1.767272952092589
H 2.760472670927460 -1.709411637751186 3.151179409925908
H 0.561759939324517 0.197338952155992 2.151270504310028
H 0.317293321780072 -0.962124600495994 3.399213370761172
H 1.863765228526190 0.060777212289866 4.837176023283702
H 2.531441285447016 1.171684020190754 3.714209653074792
H 0.803743780431080 2.681985331824110 3.827897060934563
H -0.448009602596720 1.300031927514031 4.195508478038120
H 2.518086631655822 4.045848115548086 7.822929600008575
H 1.325285734210263 2.789333575937547 8.386341291668005
H 0.904714608995520 4.372917501442589 7.649075982171714
23
maple-route1-mmgb-reference-mlip-reweighting-v1 phase=gas replicate=repeat-0 sample=26
C 1.785931288037439 -2.369249378772135 1.399801296412046
C 2.283033430163065 -1.254740013116239 2.411493001623373
C 1.149095743872453 -0.349584378885339 2.999146097141007
C 1.646284875993495 0.738332873049353 3.943836204254587
C 0.545338613840314 1.718726017562406 4.466955444465433
C 0.602550420430323 2.065683445326022 5.928751386997540
O -0.140830899033306 1.613561110558913 6.779920221649633
O 1.526484905838729 3.046274239416685 6.224681137582157
C 1.470055526138541 3.503968368122146 7.595450258960784
H 2.636446407116954 -2.944094819933840 1.070780478457112
H 1.102215254636580 -3.060759840944471 1.888989951725559
H 1.265560984522600 -1.941860800636568 0.541050449086940
H 2.937230760326501 -0.640788830457173 1.860223825480939
H 2.868076685515350 -1.699226466316384 3.248408974348123
H 0.622979050809210 0.073369445036997 2.193402155319370
H 0.388121560400597 -0.962417560356514 3.533665246376679
H 2.294803144589002 0.301351465974760 4.699181610402012
H 2.303188961906966 1.387084420070857 3.327124433211592
H 0.664858568128784 2.640508239655824 3.855249094184422
H -0.389649531994916 1.195791423987057 4.287959717762307
H 2.156516108881496 4.337882415864103 7.777018987852227
H 1.725719793199270 2.700252044038924 8.249592513256889
H 0.496091074371262 3.886766579092518 7.868654355272272
23
maple-route1-mmgb-reference-mlip-reweighting-v1 phase=gas replicate=repeat-0 sample=27
C 1.839226698311547 -2.402999228497094 1.521076080439519
C 2.355987999550249 -1.285492109989624 2.448747354785037
C 1.231360323201472 -0.445073842947657 3.016803960603943
C 1.686182540536514 0.792823905831144 3.902469779613873
C 0.511540933199909 1.710372145938090 4.427888282714135
C 0.537539420983925 2.070662531035226 5.901908991784675
O -0.213475088730267 1.614422872431604 6.748464792462840
O 1.415474950170789 3.086081062185740 6.179858288281967
C 1.498105089594143 3.589925097678583 7.580665766956632
H 2.631947204772180 -3.089649899359372 1.387263266152515
H 0.937282823201583 -2.966942440559651 1.853651580057721
H 1.629233935198011 -1.924905341522541 0.579158110045072
H 3.069554058191949 -0.703415169271427 1.936381469115201
H 2.793673930544176 -1.778652002364176 3.321317489917534
H 0.539478333311909 -0.173290244715120 2.161382647650391
H 0.621317901718651 -1.037149698110964 3.653491264435372
H 2.187177881350577 0.294348305159906 4.762304177282161
H 2.507945848240904 1.406364776817163 3.413416218665711
H 0.630722069034906 2.634384744051180 3.916924072607274
H -0.415260612472182 1.206313515626977 4.206215234726970
H 2.031571441512527 4.542575441680912 7.634786407473451
H 2.163977697912785 2.861878001603797 8.027211981009648
H 0.553868426651873 3.619376592844922 8.109194513336901
23
maple-route1-mmgb-reference-mlip-reweighting-v1 phase=gas replicate=repeat-0 sample=28
C 1.933224183379151 -2.455691570361611 1.643429717952420
C 2.437090232956555 -1.302911458667871 2.533624775529581
C 1.233886060959214 -0.426584635608353 3.122548259331190
C 1.671951988430022 0.771116273943769 4.025466950059748
C 0.488819077018032 1.735465714847504 4.357419454798405
C 0.462388412111705 2.101812757840016 5.876602522640866
O -0.243438952179139 1.486346040096677 6.674845837894312
O 1.300174535164396 3.188195810089380 6.125262105350356
C 1.568377934843820 3.624207669309109 7.427289674612791
H 2.645008089240137 -3.295908598865069 1.562288101139427
H 0.983242670740523 -2.853691450115734 2.026696065395596
H 1.715082182723532 -2.028749629811398 0.662626315371853
H 3.182892205634689 -0.676196638417798 1.949947735348432
H 2.895425975882153 -1.772866188855872 3.377787670793985
H 0.792504979430018 0.027267915464831 2.176271404698467
H 0.396953565554382 -0.927396605107783 3.602294435591531
H 2.205183597010147 0.343091507290172 4.921904625201764
H 2.455848712953341 1.296016782637387 3.455720331605754
H 0.693097077963915 2.620002275651573 3.793855597113120
H -0.451154343900419 1.259787703503087 4.026226294261950
H 2.160305387824310 4.546986514955356 7.389980860131872
H 2.267215933040235 2.842122897100345 7.773325525229168
H 0.625701939516683 3.710510887832434 8.053601078433010
23
maple-route1-mmgb-reference-mlip-reweighting-v1 phase=gas replicate=repeat-0 sample=29
C 2.026755060844616 -2.459985252759056 1.790406795060821
C 2.426149002659447 -1.307653261498231 2.747774888556154
C 1.274666484281657 -0.356853894689267 3.093349480752103
C 1.650201827982723 0.738433120983226 4.124537707835575
C 0.475822366333495 1.739166494132244 4.318895632735704
C 0.404350067655019 2.153176125158748 5.768703570646156
O -0.099244744878724 1.467798439917099 6.623123497647276
O 1.161585700302979 3.237286909289368 5.975756015057820
C 1.522979035658214 3.549463489108922 7.309089734830682
H 2.898996171042234 -3.180714575623989 1.666240101598953
H 1.235563638487052 -3.073217805889237 2.182755174705675
H 1.681407956786045 -2.104929145076994 0.793201695809750
H 3.187447869491085 -0.649004793278705 2.197557147947130
H 2.840820554251527 -1.700003492812013 3.707771421233185
H 0.776504629351984 -0.054551799233392 2.214210515566979
H 0.509300212986645 -0.937993689490743 3.719989433345470
H 1.880159492233229 0.177974892239741 5.040355920397205
H 2.576967397585517 1.195113342892490 3.809443123799156
H 0.671597033932008 2.621365960637705 3.645401878779753
H -0.450869312941341 1.201115033417443 4.027718599915921
H 2.246491969499409 4.395210746906415 7.302088518067826
H 2.008938719890428 2.708508033390866 7.844315571141266
H 0.587087855830853 3.900964322413068 7.842756515534818
23
maple-route1-mmgb-reference-mlip-reweighting-v1 phase=gas replicate=repeat-0 sample=30
C 2.128046672606883 -2.431511814580137 1.963214778151546
C 2.496358531510516 -1.334809940792462 2.940228959812146
C 1.321003199700888 -0.392548735198135 3.077022606647557
C 1.559213628238973 0.664800838908254 4.171753803657482
C 0.408605887760622 1.711009803030130 4.257229172588258
C 0.334423036072984 2.201623513848179 5.664921164628085
O 0.022534445755977 1.448718612378072 6.582092074625272
O 1.095179408844383 3.318928486923510 5.826932670141113
C 1.452451488569107 3.556010038390374 7.279481228793225
H 3.047419522856189 -2.979878448910116 1.731318452869275
H 1.499699046509424 -3.196079623303547 2.443156977088409
H 1.613251363576071 -2.097873422859405 1.035482908589647
H 3.270492932019602 -0.718746948862451 2.521104868520383
H 2.791542757693859 -1.769022436587382 3.940978796291256
H 1.197970675657711 0.034342008927402 2.098916277831400
H 0.396078122574791 -0.924211121835435 3.330444491181658
H 1.804699549864035 0.189932415142525 5.089179289661346
H 2.448412803659021 1.169619989698119 3.850928293048220
H 0.619670546152184 2.544164458026615 3.521436845606721
H -0.494141711350203 1.173869324045517 3.960210568770710
H 2.181084576317406 4.398937656162453 7.452642038858839
H 1.797442785810337 2.715781635531868 7.909520379917838
H 0.558608618680238 3.943290661760889 7.734839551126535
23
maple-route1-mmgb-reference-mlip-reweighting-v1 phase=gas replicate=repeat-0 sample=31
C 2.305817216654017 -2.551005694201046 2.062534663568583
C 2.590328301539116 -1.411122793952652 3.051884355931743
C 1.367898519909906 -0.358545473931526 3.055709218720983
C 1.486712986057185 0.697537429501399 4.132111071047751
C 0.311182083648117 1.725725444846050 4.209756668623833
C 0.310382868456072 2.200334360787549 5.674953680967789
O -0.005421638715778 1.419730582760121 6.546871273018343
O 1.072507848526340 3.319934148088742 5.847804282156850
C 1.394509932389695 3.717520211043986 7.172664038409435
H 3.169884457118269 -3.068363181273105 1.758375429494277
H 1.621848469279165 -3.317401820178178 2.499715923758870
H 1.790973979346506 -2.165708166013204 1.191871013162076
H 3.503786400163882 -0.903287098044033 2.913905842557112
H 2.587354917359568 -1.909066995369157 4.011330598361169
H 1.387730705406655 0.147320843319704 2.047223833862955
H 0.442086808999289 -0.826148120310201 3.145951532176717
H 1.482434578905266 0.085939949701754 5.016718403584624
H 2.496124157707600 1.135468216787046 4.106432152570086
H 0.449271621706345 2.481333865997209 3.455630065647912
H -0.550435282321231 1.080186594541414 3.997553813258650
H 1.931722871891058 4.666218037196729 7.168607983450138
H 1.942658251654127 2.992951513101907 7.788321616988929
H 0.486563918993357 3.972088984759985 7.684079849020515
23
maple-route1-mmgb-reference-mlip-reweighting-v1 phase=gas replicate=repeat-0 sample=32
C 2.461087884616152 -2.677240459936689 2.156169604823672
C 2.509477189807431 -1.452777176889708 3.117134700084047
C 1.457655102994747 -0.366138899050324 2.934087852201396
C 1.512980357227420 0.670034748970236 4.085551963329353
C 0.311515992987857 1.660097667232446 4.255054528420407
C 0.330059655260635 2.172034833850752 5.708938351035542
O -0.101102449818198 1.520111715502198 6.612177630991615
O 1.028217563937531 3.320675619396882 5.829752442788088
C 1.285436132260732 3.854755747268923 7.076225310035710
H 3.425634889471302 -3.166137259654286 2.201305981837721
H 1.689490047295920 -3.414736711972724 2.257799546453034
H 2.401120011794408 -2.263075253804562 1.162361104652842
H 3.474430821368552 -0.889985193100825 2.987033480364043
H 2.475126152712181 -1.817896390116819 4.099480958288220
H 1.626078161425769 0.117928771331862 1.951747780630484
H 0.458790373978172 -0.824469855590264 2.902182062858689
H 1.645514940825879 0.096910787624794 5.046455672375756
H 2.463346179549094 1.241528662387501 3.973976198380177
H 0.571890075853968 2.445982259049924 3.588453238197109
H -0.609777475543496 1.152366944965815 3.935835066745132
H 1.657270114453768 4.846487272130695 6.945645136245975
H 2.050511016828714 3.251519328088870 7.529238237329094
H 0.417959708664343 3.897407892289457 7.761917915827140
23
maple-route1-mmgb-reference-mlip-reweighting-v1 phase=gas replicate=repeat-0 sample=33
C 2.602204214545787 -2.695189568264011 2.197193833177142
C 2.514769801653300 -1.506447931976408 3.169476242656831
C 1.490840737751335 -0.397547555549812 2.865693911572427
C 1.607195879832178 0.626648658252298 4.034351491677593
C 0.343681160589542 1.520836096691360 4.306715965792113
C 0.347329292851662 2.145019704725047 5.703042072727678
O -0.203320734830706 1.645533176925215 6.695531664083834
O 0.991132557888202 3.369443583714133 5.699350759603345
C 1.157484783216621 3.991848058320548 7.063313105883609
H 3.256783487850011 -3.498470214638077 2.615069736807352
H 1.626425211330689 -3.090576549630481 2.063807917514513
H 2.965516481880523 -2.419496415559753 1.180151682628070
H 3.520336820918469 -0.990964887814776 3.331675540814007
H 2.266844346505690 -1.974710139938180 4.150163449260918
H 1.632501913029006 0.070169316350004 1.910348134230183
H 0.432472282067519 -0.868473503528441 2.878836689434429
H 1.794271132345267 0.055080328451601 4.997530977060057
H 2.513127147360553 1.241994430750631 3.904867749340633
H 0.422994949402585 2.284481456281790 3.512042484288209
H -0.505790077897796 0.876784203985836 4.164019460689937
H 1.526228885945872 5.030394372202683 7.022497641126449
H 1.897734561944106 3.340385276199928 7.521351061300773
H 0.288136393482912 3.946580179634475 7.749831566698022
23
maple-route1-mmgb-reference-mlip-reweighting-v1 phase=gas replicate=repeat-0 sample=34
C 2.695303479660040 -2.677498356247265 2.142280819715426
C 2.580864710954246 -1.648442982609313 3.266215267989968
C 1.573466643318207 -0.458947236620905 2.978720467891559
C 1.620567137681145 0.632934987310159 4.082311037320884
C 0.339971766285680 1.483088916532201 4.329168721122460
C 0.334156860945664 2.169324624809885 5.677194282547593
O -0.232243987829978 1.716484596366980 6.651421960567020
O 0.942288383857233 3.359579740234913 5.695002149364864
C 1.019639524638219 4.094899742170854 6.956684271028481
H 2.981554535890174 -3.649681168768236 2.571802898984124
H 1.652206148094026 -2.772412151225496 1.725942199184647
H 3.361019439923114 -2.391930498158865 1.302670114734348
H 3.561840839333389 -1.220149872480155 3.424275229901146
H 2.355199122395671 -2.233492209415778 4.251301425434935
H 1.827440686323311 0.060850471013625 2.047405807476205
H 0.540422527199963 -0.833586198105140 2.846400452539338
H 1.909698789560069 0.175720909741620 5.000366615752378
H 2.427337732777133 1.318920724530426 3.823799656066606
H 0.233831793186916 2.155242202038117 3.446772678216232
H -0.435483874955397 0.717721335693695 4.368393409402561
H 1.548990869707667 5.092600196648958 6.758383924241803
H 1.636392009160229 3.431946918351730 7.617802007559114
H 0.067376153609822 4.252910336491492 7.479292693186620
23
maple-route1-mmgb-reference-mlip-reweighting-v1 phase=gas replicate=repeat-0 sample=35
C 2.715976798830129 -2.615899339059927 2.050793547280976
C 2.600898752011678 -1.710456744591602 3.334045793723031
C 1.731027056617307 -0.492367225483719 3.146885706332443
C 1.668558432769356 0.618278756405408 4.239572497685842
C 0.324842809734328 1.445405688424472 4.311145405742954
C 0.213681572239732 2.190890613398528 5.666662039695316
O -0.247037947221269 1.657255945405966 6.656653831361364
O 0.955296813080190 3.385230415730866 5.640138141888630
C 0.920241808802139 4.174249798551169 6.776678239210772
H 3.062665155129833 -3.608182193397929 2.377075231226559
H 1.767801882269487 -2.667566461389113 1.394707159619298
H 3.513754668915920 -2.215220410020335 1.415898905908007
H 3.567131075481871 -1.406750822074029 3.628748635585341
H 2.214119059330713 -2.284927107625026 4.166163717771750
H 1.841646918904288 -0.019060383780870 2.135919660304074
H 0.778567278274481 -0.918656860439630 3.164682915107929
H 1.847979658973840 0.139025125585721 5.159117795819929
H 2.489107830093467 1.321435961126245 4.091701505173075
H 0.451584363419183 2.159155528747250 3.511071416003209
H -0.562019538124777 0.787892376780573 4.098387167751090
H 1.556353278873945 5.069333224424106 6.608608227003861
H 1.162434907197612 3.572701696121729 7.684770848987683
H -0.123579704132664 4.530124968218280 6.902218743462089
23
maple-route1-mmgb-reference-mlip-reweighting-v1 phase=gas replicate=repeat-0 sample=36
C 2.757683164885062 -2.507232585665220 2.048915708366083
C 2.646278315865264 -1.699256016937405 3.387131473142584
C 1.683600731032882 -0.481422314204471 3.218485516276844
C 1.714715418273189 0.500235876181103 4.438078456286916
C 0.474785144127805 1.391263078148821 4.332095282492085
C 0.216976172496122 2.140938878450157 5.604005509850230
O -0.257558100206083 1.684564728675178 6.609719476658437
O 0.883264450310368 3.329242958647622 5.556561503805750
C 0.791475017580797 4.259023793745501 6.649003309203528
H 3.240966588674052 -3.505411913575692 2.196413739667424
H 1.788528415519148 -2.591563338724469 1.588892469341268
H 3.380343044604126 -1.926252118712799 1.373536983747294
H 3.612511883294785 -1.421088330195831 3.829464721417031
H 2.222909634317518 -2.302697152315500 4.076547472885166
H 2.062145211390287 0.152475943512680 2.422289402568526
H 0.688646579832046 -0.773643175583796 2.893362615409642
H 1.563776493887838 -0.159053943279688 5.328311553681685
H 2.679416931816339 1.023339582805300 4.568582259483101
H 0.628056418336584 2.079167634497515 3.504843895810555
H -0.421019221156576 0.782784056991614 4.126239717331864
H 1.491280567173469 5.037512893615772 6.470007142365258
H 0.832049027765081 3.870585276960388 7.658792876585014
H -0.201730783035737 4.738227889971741 6.568279422133512
23
maple-route1-mmgb-reference-mlip-reweighting-v1 phase=gas replicate=repeat-0 sample=37
C 2.828871398915475 -2.410073371210538 2.076207119484801
C 2.704648807457366 -1.685905430478125 3.354178217112635
C 1.806212027786042 -0.466165387018623 3.246625513820212
C 1.601946385419468 0.234804886428005 4.592402576355381
C 0.522947935724615 1.309771852263439 4.393086413306790
C 0.333434755413414 2.120871790464203 5.607697973911647
O -0.330839119223173 1.736381690702803 6.586477767983734
O 0.853743660067230 3.400013562409994 5.439357448197156
C 0.630528083012446 4.347657683747822 6.553253150320405
H 3.527719071344118 -3.232669304249545 2.194329515069299
H 1.873658352595407 -2.772400980688305 1.818596130214812
H 3.180532102453515 -1.719739150335449 1.310877728686934
H 3.706509044332178 -1.401061908465235 3.738128417545521
H 2.301077055769477 -2.349094184838484 4.121711650174546
H 2.215592327132895 0.247374954952626 2.558832240426926
H 0.810874071973237 -0.765036243354688 2.763554223981008
H 1.317998490759971 -0.514020316027591 5.415973346799984
H 2.566420857923037 0.709620377143801 4.900011391899156
H 0.760943598790920 1.950134178237551 3.519566871130464
H -0.419012765438079 0.852465999922214 4.213289778463086
H 1.307190553210201 5.193752338090459 6.468565898841270
H 0.723790003750894 3.967355336714127 7.558461095253825
H -0.377502363490474 4.713702351165093 6.536311956527974
23
maple-route1-mmgb-reference-mlip-reweighting-v1 phase=gas replicate=repeat-0 sample=38
C 2.965369231601318 -2.472344999578095 1.988839867879282
C 2.835291781349274 -1.721985892550903 3.369393695336378
C 1.972122417773992 -0.496779946884167 3.304906241146480
C 1.444794931599464 0.077910038793485 4.637249238731129
C 0.507687192789451 1.292207382822694 4.412183195959305
C 0.374164507946530 2.165466781193127 5.663601284031193
O -0.394908903118906 1.881035164210294 6.586538962546057
O 0.806106178599010 3.452267940950047 5.474762491812591
C 0.462886473076513 4.393700782674689 6.432716254553808
H 3.778284825421388 -3.157647611468990 2.051737472758284
H 2.051465151262395 -3.075293239361414 1.801336843033374
H 3.104359482113150 -1.776518165677030 1.159142364945056
H 3.830749835500797 -1.357401109340621 3.643237646839230
H 2.515788796981867 -2.345978841284477 4.326387481534793
H 2.352993230118569 0.277810833773797 2.592045571192549
H 1.073815126124856 -0.909661807765486 2.825263939534083
H 0.989189389283985 -0.686542229465452 5.245140656939835
H 2.326942035900029 0.470166435477121 5.190473297551748
H 0.884738772972016 1.907519512542935 3.589412841223374
H -0.511132912968892 1.008617226833876 4.147733374417856
H 0.944865298521869 5.358096810430112 6.163556854563184
H 0.930161682560114 4.150580372764222 7.394839912905652
H -0.581001603200058 4.431230916583954 6.600620980784337
23
maple-route1-mmgb-reference-mlip-reweighting-v1 phase=gas replicate=repeat-0 sample=39
C 3.153877070360329 -2.513589771962146 1.996847901884683
C 2.999402504377072 -1.795643742739258 3.369651597564008
C 1.920267566158336 -0.578273497242190 3.283065377619584
C 1.361213906646630 0.019817788274317 4.641173459830339
C 0.550896508843203 1.282790095516734 4.462837236385518
C 0.281399313180560 2.196115407838467 5.689652700345799
O -0.436640146471293 1.930336834270848 6.616963647200807
O 0.767365312062690 3.477094069547260 5.482264054749252
C 0.366199998642509 4.527364505155091 6.342509842214890
H 3.995584625521650 -3.208618409331989 1.994090012172321
H 2.224423761538769 -3.149011922064720 1.917445372412503
H 3.171287425135264 -1.794867661154266 1.172447419325245
H 3.999054873385670 -1.429249729800494 3.735948705907082
H 2.694125568397612 -2.516912382206650 4.179500873698311
H 2.512246921649145 0.274672171425345 2.854585910721994
H 1.180619267276169 -0.747052533180474 2.544382281913602
H 0.701081663219353 -0.693141868708329 5.042700760885790
H 2.162789037667777 0.186342377843399 5.333777800527320
H 1.030927767594445 1.928499398486873 3.749098359064119
H -0.485137833764363 1.067422924475949 4.088583678704586
H 0.520914081419967 5.507304034571098 5.866788817544267
H 1.084605028322432 4.564374074670205 7.177522076857223
H -0.655449678958124 4.313949995835650 6.753781028714556
23
maple-route1-mmgb-reference-mlip-reweighting-v1 phase=gas replicate=repeat-0 sample=40
C 3.298059255068201 -2.495014329392914 2.095011989383739
C 2.974239454858143 -1.767448818752290 3.399659939368495
C 1.958361237153558 -0.606023650941687 3.295810009228210
C 1.407236645872578 -0.055045008381814 4.644266419431321
C 0.551456053617728 1.276740241261440 4.426343907917908
C 0.303687612732765 2.162776932540679 5.703755887290953
O -0.486286609208757 1.877489294959751 6.587100919902809
O 0.665663311823372 3.513285098569873 5.407057772188576
C 0.310832173817190 4.635581030196802 6.323713240032443
H 4.195597039971425 -3.125330325420195 2.378461065037923
H 2.512576185031892 -3.170706742648159 1.781461824156719
H 3.569682576594790 -1.723180289661787 1.341000938148395
H 3.904074688145648 -1.450355603657548 3.909324727651144
H 2.554237256347676 -2.447869583780061 4.043208642983799
H 2.395050464186567 0.187240453606775 2.728798768393454
H 1.130188841651033 -0.964634859372062 2.685381284916959
H 0.710159315662567 -0.821357711170490 5.011970973717311
H 2.199332901903596 0.092076109940384 5.354671196082171
H 1.088599358084485 1.965890431189802 3.773803014022592
H -0.463914116852508 1.164539268725540 4.049258316142801
H 0.419734749630195 5.627292768843500 5.874743442319701
H 1.017059289808426 4.681788219386624 7.182049788114048
H -0.719041275731393 4.392139850528270 6.728347997321988
23
maple-route1-mmgb-reference-mlip-reweighting-v1 phase=gas replicate=repeat-0 sample=41
C 3.474123422290416 -2.425689165231821 2.191688132486165
C 2.893028157234017 -1.776021917497078 3.550412279631677
C 1.921743006024301 -0.614260210132798 3.301634026547817
C 1.464316813940181 0.040204216228199 4.654909643258222
C 0.579954555513274 1.317974163360284 4.411793859427402
C 0.297035879595908 2.190235072921978 5.615639069670673
O -0.454445497478784 1.842526501403653 6.517270941808329
O 0.513054456164474 3.498186925734383 5.340066342707370
C 0.280677040064722 4.467999541121021 6.303767820341537
H 4.246012989236685 -3.188619158799146 2.456624702865604
H 2.727135913897031 -2.904510591823426 1.544117465305782
H 3.975206420775425 -1.564051151213940 1.696628036803015
H 3.696460172933833 -1.358913864249476 4.061930629440286
H 2.451524406270182 -2.472763269737518 4.229847498292451
H 2.386234897534854 0.095901302949777 2.660413506908970
H 1.040589532139177 -1.041154215921477 2.720063781290619
H 0.960158274415056 -0.706152122812735 5.363510411827139
H 2.377654517751878 0.458373359423779 5.115529247085719
H 1.026194257315387 1.995561929075400 3.656510775166764
H -0.422447405010505 1.062755623293315 4.180635762665887
H 0.609436751445959 5.442123519537687 5.910501825708488
H 0.850810940464876 4.341956761634705 7.235466567514507
H -0.776191752026344 4.454314673989249 6.492647862575084
23
maple-route1-mmgb-reference-mlip-reweighting-v1 phase=gas replicate=repeat-0 sample=42
C 3.596193450009231 -2.278259570824454 2.402062220110600
C 2.883412794105453 -1.795646196557781 3.667534587520465
C 1.872491974461604 -0.625282574099508 3.398111221298778
C 1.574348303327437 0.245544924742671 4.619138191872779
C 0.536289876972426 1.253627522357971 4.251964559581133
C 0.187731820644454 2.154111982379237 5.461522746236551
O -0.388873589380207 1.775033676163488 6.512447609833446
O 0.498939550109539 3.489861741025788 5.236295336574024
C 0.228306225329713 4.354739767371548 6.320548086715762
H 4.122138163329581 -3.196182899681304 2.551125390421193
H 2.709518506216136 -2.504646885891449 1.753942938889605
H 4.194405151630243 -1.485290668274956 1.963470754063407
H 3.586674923616155 -1.566355335143459 4.452748958927953
H 2.268294410816750 -2.685542086577430 4.032526880753805
H 2.273481090373267 0.023407124007926 2.558767188463620
H 0.935781246583421 -1.049106282085438 3.005727419830016
H 1.121894789102472 -0.399838090842514 5.405130898616274
H 2.470888461230215 0.828430337484291 5.002230107357411
H 0.931336341649854 1.900998833556983 3.471263060193233
H -0.409248923358488 0.762016734837388 3.988221355377690
H 0.699991569783824 5.331273521755282 6.140192062332398
H 0.624972348626147 4.046869961378920 7.263538345001141
H -0.818050831378370 4.515252604544748 6.384060886350388
23
maple-route1-mmgb-reference-mlip-reweighting-v1 phase=gas replicate=repeat-0 sample=43
C 3.707691722667407 -2.165638739568049 2.590295196057125
C 2.861724764939707 -1.790813452972244 3.791890134669391
C 1.919469369816469 -0.667602834421692 3.473666673708530
C 1.662345335339409 0.379175781234533 4.560598344781454
C 0.368437283485723 1.265947885289746 4.204389242875843
C -0.005775254906608 2.142180332342667 5.318780851320683
O -0.298604386980778 1.650752297294532 6.386866322467222
O 0.514457662239768 3.428922885006315 5.215170683714341
C 0.175704930661540 4.332920280132800 6.307852963100553
H 4.193349258220816 -3.122503372457851 2.767386533628373
H 3.033757743230836 -2.350090838850750 1.747859190912545
H 4.424105566509370 -1.400349143018249 2.323056635016582
H 3.605036146080046 -1.353413430335285 4.566864991897805
H 2.346246119574358 -2.669025688158744 4.277974580089584
H 2.438373123614449 -0.083346397379055 2.640173831581446
H 0.998053446431772 -1.034640845426813 3.080042304381557
H 1.434136103848973 -0.173006675996184 5.438868279075201
H 2.542446362281990 1.030903122734701 4.753400833012770
H 0.548086771399643 1.906665851863367 3.357395648479513
H -0.551169758574869 0.652026268084415 4.065069373013684
H 0.605237656138903 5.307349400854886 6.121961523685968
H 0.593810475667438 4.008054837292011 7.254681164458817
H -0.914332058710533 4.524506328853646 6.397301164147461
23
maple-route1-mmgb-reference-mlip-reweighting-v1 phase=gas replicate=repeat-0 sample=44
C 3.869096085997474 -2.191407589504980 2.765826539266916
C 2.938689615007129 -1.668807952931755 3.941340972082887
C 1.960454530721551 -0.587228955816377 3.419531043515935
C 1.609043426767928 0.489479745602727 4.443396130419781
C 0.338860749416877 1.265982446078018 4.099248005981526
C 0.008017736633832 2.050174071161979 5.344765799204616
O -0.415707851668637 1.591037046149948 6.396124323738918
O 0.414729283246946 3.366832407533269 5.183208313578456
C 0.192695795405132 4.288151315789175 6.244112493423772
H 4.479494766555590 -3.092197127760870 3.087690748193182
H 3.400417335296133 -2.502760811634627 1.848490792516189
H 4.625840408518433 -1.410580581899210 2.525926557382978
H 3.536074277202856 -1.338834707189764 4.859446564605013
H 2.328295913278168 -2.480832167629722 4.320624872081883
H 2.255172422222374 -0.163650777309757 2.487832979677908
H 0.997075401092214 -1.106621309107474 3.224204395759005
H 1.531586939720785 0.079038031501957 5.454761758020002
H 2.383534614236430 1.202610776251466 4.433930469290449
H 0.508262837747747 1.908864498955556 3.215424493433556
H -0.481679964899332 0.584071134520197 4.004411353941869
H 0.632773504662250 5.262474070820112 5.964801056537644
H 0.724473786821890 3.921448942373614 7.173487045642895
H -0.901514458408220 4.532790839872254 6.426135172641740
23
maple-route1-mmgb-reference-mlip-reweighting-v1 phase=gas replicate=repeat-0 sample=45
C 4.003837618098834 -2.217582435041633 3.015707625265658
C 3.063315867892152 -1.542160686858503 3.947499916303952
C 1.976097871189211 -0.613056753741215 3.260264475757318
C 1.621097989578090 0.501166212775026 4.330041715485719
C 0.337076740599225 1.243352091124953 4.121172791349750
C -0.013009053567258 2.035007588408011 5.369543279927691
O -0.570882493099518 1.614898592685582 6.378405190279214
O 0.295735728557588 3.366728456537329 5.156490589658222
C 0.203987154122744 4.220858057228318 6.247090359834226
H 4.674815767675103 -2.960231458221567 3.513289671444455
H 3.556576969945915 -2.743563929933964 2.148612990402060
H 4.699605172034294 -1.403796342987578 2.632847552608192
H 3.670022329007370 -1.058505171643803 4.652732793283744
H 2.573940100555450 -2.325656582069737 4.506402560605755
H 2.351515139747220 -0.125553106595800 2.408501099182735
H 1.039870703896631 -1.150368519246781 2.931409676882587
H 1.570502624737541 0.069419936086894 5.369918140626292
H 2.423957675130648 1.224051764155980 4.357475250326316
H 0.436654514574346 1.865979668177276 3.218386169764016
H -0.427462515165110 0.486547807607367 4.008929149453327
H 0.492462047436337 5.283192164833713 5.951891559099520
H 0.890511517154363 3.791115462357719 7.045024227209384
H -0.857777815555343 4.297256674342593 6.595735816341901
23
maple-route1-mmgb-reference-mlip-reweighting-v1 phase=gas replicate=repeat-0 sample=46
C 4.139515974057363 -2.255060146899858 3.109940905750462
C 3.158059389857037 -1.443055857465458 3.933196155857401
C 2.116655876518161 -0.605895278860738 3.270934042670355
C 1.644504314664462 0.467682566210502 4.297938631893309
C 0.212853856667372 1.162232132799256 4.092351220032231
C -0.146874836942115 2.047058390390976 5.269494522597248
O -0.660172647354030 1.645914631472790 6.280439105143918
O 0.264547253721185 3.366246286475971 5.189267539487536
C 0.183778936774183 4.236518509793033 6.351064641948296
H 4.816816424680607 -2.814245990898108 3.733354989774000
H 3.575280655749886 -3.045177424580958 2.514227637120943
H 4.754156386536771 -1.656613803247806 2.406255272356948
H 3.815734393477803 -0.873347734859235 4.513517059559927
H 2.669681146472053 -2.153667748411397 4.616228152413995
H 2.628178716222372 -0.055477684348055 2.429688523491472
H 1.260022833640957 -1.142298724275323 2.887443760401975
H 1.521310439201295 -0.064358227177188 5.259660499511591
H 2.515279323497043 1.210356758575677 4.505722738026340
H 0.264735983063909 1.831703322072479 3.227068469261175
H -0.579317747424785 0.397403165472027 3.892512766612684
H 0.225787778286794 5.327455473907889 6.118715491087888
H 0.945081013368435 3.914073720453945 7.064880380478101
H -0.792715743657691 4.103032913977557 6.815859886970791
23
maple-route1-mmgb-reference-mlip-reweighting-v1 phase=gas replicate=repeat-0 sample=47
C 4.209408057996800 -2.324900288442341 3.064665773607425
C 3.334133971940278 -1.353096388335844 4.049550458776382
C 2.243406451110052 -0.489528270289199 3.375572376915130
C 1.518983356924972 0.463182098917561 4.356582736426565
C 0.200221469720190 1.194712385565783 4.021890290615088
C -0.253054198905222 2.060533017081849 5.217134021646864
O -0.807204778120612 1.597255401879557 6.205942497205815
O 0.307273427421070 3.331136814573954 5.184731741440736
C 0.156930687395271 4.172030347107793 6.344570949238479
H 5.068592253375980 -2.839212387822495 3.496835231447653
H 3.547519523814922 -3.123300511112805 2.725328798164401
H 4.573035561363396 -1.875012584862693 2.159332687832162
H 4.121625032489896 -0.727375676606062 4.558396399226262
H 2.863862740460196 -1.985280431736517 4.817618838766533
H 2.672611406925940 0.108597371579097 2.485990808224280
H 1.472643780072159 -1.140947088003598 3.013857919358731
H 1.380386725532366 -0.035386342464473 5.314259093498798
H 2.299702068637204 1.243589589173276 4.547433019560457
H 0.390210252979208 1.806728597454459 3.119040711747434
H -0.542147193177125 0.399700304222053 3.779157627214036
H 0.239685099573924 5.204418883977410 6.130574054352227
H 0.824525840083782 3.867847369209090 7.101060184865386
H -0.839912517174740 4.053298216969169 6.734995196834874
23
maple-route1-mmgb-reference-mlip-reweighting-v1 phase=gas replicate=repeat-0 sample=48
C 4.031725903132489 -2.240738626801058 3.071423652609772
C 3.522882358716655 -1.242569146529031 4.045666127382496
C 2.290032046857322 -0.465336667906813 3.480420684037676
C 1.519926588155409 0.462599719741673 4.559700447877758
C 0.306355824579450 1.241754453163990 3.999301502020734
C -0.264751599725981 2.027354671646813 5.168814325775307
O -0.955252713578113 1.553653789233364 6.057110957113007
O 0.319243165912801 3.241043916938692 5.169226594607968
C 0.144592674625417 4.080255833002673 6.288934851650510
H 5.034227677957912 -2.591835661499694 3.379132990454515
H 3.443626413178179 -3.074003451859590 2.913263185824629
H 4.206188194982311 -1.773091571826401 2.133004577274329
H 4.434699730110810 -0.547508230811612 4.151337758587189
H 3.344125903014389 -1.754862173354130 5.003477770293375
H 2.579984648084952 0.116432887054566 2.620875838506019
H 1.541754641579814 -1.213878396983016 3.119053020635592
H 1.190993287668374 -0.137529139424165 5.423824131863094
H 2.196505682574522 1.127957376952334 4.996616446413179
H 0.627571359774538 1.830261351537510 3.122258082452433
H -0.370958462738693 0.454715044469450 3.741961015859838
H 0.648217278688967 4.974560852648290 6.119077031918426
H 0.537610093897555 3.658353680731268 7.191353000429216
H -0.879972424832364 4.326884558890715 6.476490206683478
23
maple-route1-mmgb-reference-mlip-reweighting-v1 phase=gas replicate=repeat-0 sample=49
C 3.927603038976617 -2.158449554853725 3.059335290746490
C 3.602377299507840 -0.998800172195980 4.029080033683822
C 2.229065046590896 -0.470350812249632 3.633704988677272
C 1.618209412919053 0.325117477796391 4.715626447274919
C 0.417796325680899 1.116684471577360 4.047218622957029
C -0.261806526703725 2.014529047752784 5.054296971641223
O -1.057356341334776 1.564994873513215 5.850966076672800
O 0.390909463482161 3.229154104739079 5.146938878792913
C 0.076072669108266 4.041747288600909 6.311291534256942
H 4.872788623572219 -2.607133608379827 3.264242918294014
H 3.232467246735516 -2.991413757974810 3.099875476128458
H 3.964017794804535 -1.890820989374649 1.995814614365917
H 4.356509948255592 -0.220825828052234 4.082817249698466
H 3.486355959590108 -1.527988958384257 5.014983593928952
H 2.419903349998297 0.152730937526351 2.798837878187193
H 1.534457025881310 -1.291697072817304 3.318425505753653
H 1.344151995722850 -0.328472390721703 5.553890579130254
H 2.338967847836495 0.939914387224706 5.203459080919622
H 0.918562500446631 1.794642064012535 3.346433081308294
H -0.262099733408523 0.422562605536181 3.531734145354776
H 0.868521611757177 4.807696730362395 6.407249947928576
H 0.123141360589003 3.495070345521430 7.272792111195240
H -0.882659876109745 4.567983083028050 6.298412458433354
23
maple-route1-mmgb-reference-mlip-reweighting-v1 phase=gas replicate=repeat-0 sample=50
C 4.013809347615328 -2.193932817067250 3.052936801046592
C 3.684493468648337 -0.959540163884754 3.967626804904215
C 2.221432893375544 -0.508477066130017 3.732753120141024
C 1.591621616032425 0.365701063550858 4.760497489338527
C 0.475057316987772 1.119192549402084 4.120194325174999
C -0.239934985503846 2.042048603412529 5.033357365311916
O -1.190115310332805 1.644512443045446 5.685691935282302
O 0.459029941461511 3.179899399229382 5.234931573935868
C -0.033978894165691 3.983575568615435 6.293293944425676
H 4.983327924190445 -2.643641604967477 3.166318955522820
H 3.313128746166761 -3.088613878613585 3.156749294525873
H 3.921269698203433 -1.963751289226754 1.954603291853905
H 4.284815276295893 -0.138875303729538 3.676519190676904
H 3.866108970809084 -1.234750808948153 5.021895070609718
H 2.325917464830383 0.010671621504736 2.745868891928996
H 1.597608215841380 -1.360806652091548 3.554933027318654
H 1.164460902034402 -0.274557578070802 5.535228140725309
H 2.308546132793349 0.955274019940080 5.408354284181031
H 0.960681314468048 1.748655378529256 3.379358343588339
H -0.206498350637742 0.351417973480069 3.694102553966978
H 0.790224338973076 4.767539522436630 6.521511031727806
H -0.217635005356791 3.427682438576669 7.262935793818651
H -0.970716802762113 4.547398370588802 6.020609404603057
23
maple-route1-mmgb-reference-mlip-reweighting-v1 phase=gas replicate=repeat-0 sample=51
C 4.176394496062954 -2.191204051033477 3.069465106094430
C 3.773504291432661 -1.067683482815003 3.901542183859036
C 2.284765660304824 -0.666647603574076 3.728462413895004
C 1.602880200292154 0.371745341137573 4.721657970594154
C 0.459720167503532 1.170264634568095 4.044641144164975
C -0.295378349929388 2.054925494221429 5.081450564642850
O -1.348608203708533 1.762865927912384 5.622808320359963
O 0.455851318089252 3.122037450095977 5.408958712010298
C -0.128603078229203 4.089284868032455 6.298647786425792
H 5.287336343454715 -2.437256384899367 3.206051531358487
H 3.653755656153539 -3.120398808844044 3.348968648738161
H 3.974325044009120 -2.032187489941375 1.995006640015103
H 4.410511580990590 -0.226683187113573 3.566225373198677
H 3.987394652104490 -1.403786121175112 4.887735541932603
H 2.160420587761274 -0.387738134419005 2.643296495301040
H 1.738118460923171 -1.590051178453273 3.851505475072608
H 1.353991780471396 0.003846852051226 5.721064978261344
H 2.421709616105926 1.071592136571080 5.024315897807226
H 0.937312828434988 1.804313578919798 3.280497516063924
H -0.259333697051581 0.461373406970224 3.634686918939369
H 0.601160912664519 4.936193686904596 6.484244474139357
H -0.424846295463871 3.615302741251702 7.279404387082893
H -1.084156200791897 4.489825896769128 5.786279694869377
23
maple-route1-mmgb-reference-mlip-reweighting-v1 phase=gas replicate=repeat-0 sample=52
C 4.385799063446455 -2.248176580931179 3.051096540095254
C 3.738420376490319 -1.054650491407449 3.959417379684825
C 2.235561516054605 -0.833102282701384 3.706395019827414
C 1.737009475951074 0.373803459987164 4.548538445850477
C 0.424804448542866 1.146067583160931 4.072345925724626
C -0.308686719762947 2.052647010098524 5.151593645605343
O -1.447669504906950 1.826847925127532 5.497680786062533
O 0.441537706489975 3.133161100977734 5.569777309735651
C -0.207902147999814 4.225487626724394 6.322107636303889
H 5.518196765834984 -2.329724191068702 3.126256161355009
H 4.047696441710308 -3.223208533385013 3.356030733553035
H 4.123375872788860 -2.165577576674015 1.995875373392926
H 4.263554304680498 -0.083739045568452 3.670409310760581
H 3.931139732089335 -1.350380684380878 4.991226221843846
H 2.053044605892792 -0.660760928586828 2.653319284853132
H 1.629740983201494 -1.742307474181877 4.036346822825144
H 1.671071392062337 0.051367664953440 5.593157355786654
H 2.585012848735718 1.001141536899936 4.654136993471671
H 0.749770379747762 1.832045375847915 3.272679836324552
H -0.336435217268008 0.458591239444426 3.699388951353517
H 0.412773761246901 5.106132684064057 6.422161637225282
H -0.518215267545342 3.823104251155836 7.301579019737632
H -1.142422492328136 4.440262706457935 5.780320670219674
23
maple-route1-mmgb-reference-mlip-reweighting-v1 phase=gas replicate=repeat-0 sample=53
C 4.458715907935108 -2.215546160764701 3.115115910244008
C 3.708070232333560 -1.108818485439266 3.925495770941656
C 2.182419463940494 -0.851222593098205 3.704072475637852
C 1.769704395897199 0.455823708132904 4.537629896182419
C 0.448451257674215 1.130248723270536 4.149090479847041
C -0.270332959411844 2.035152547013241 5.160003949131938
O -1.423850876294666 1.871545448948457 5.435682526528366
O 0.409660036799032 3.133444105036957 5.550432521459980
C -0.275017059600028 4.157667758060752 6.303398928201945
H 5.481870665336545 -2.109379097162985 3.297866005849344
H 4.217249258899328 -3.234428771389878 3.438639070064274
H 4.211552299437201 -2.117746588203124 2.044987371398898
H 4.237281308466278 -0.190838704515653 3.688140002659355
H 3.933090155578998 -1.492260691473826 4.965283620062671
H 2.035542495143187 -0.635060205369782 2.659105679562392
H 1.531844564970599 -1.721898676143787 3.961227210236845
H 1.658171451165493 0.115734251928715 5.562585190949044
H 2.616072865141040 1.085335030190965 4.610906933595884
H 0.781213456959566 1.842271517392766 3.385872874794782
H -0.300551054893672 0.419777695626231 3.752355895052044
H 0.316458132382834 5.017640313964547 6.498246401197253
H -0.642079136618162 3.749551168570023 7.197035874228025
H -1.136105830504969 4.420370923190500 5.782451282964657
23
maple-route1-mmgb-reference-mlip-reweighting-v1 phase=gas replicate=repeat-0 sample=54
C 4.322565346660460 -2.193119399881116 3.146653046027037
C 3.768340256254499 -1.094636971476971 3.992730324249782
C 2.272159148121783 -0.706259326331094 3.730190065760230
C 1.705025864735388 0.412488369215300 4.699718435770344
C 0.506532246616882 1.134716271569163 4.070905169213300
C -0.277766694246779 2.046788168422895 5.057963114069493
O -1.421684266551540 1.783937819501180 5.469132445469613
O 0.423709500650230 3.180153075378640 5.433324150249068
C -0.286305048146935 4.060907141653129 6.277515294240271
H 5.362870606780148 -2.195465822808435 3.359158439299566
H 3.922565152894513 -3.183747656481636 3.426568746385365
H 4.062283676802269 -1.943648430037610 2.126069686578006
H 4.354838712295495 -0.235182142947098 3.761794907661023
H 3.938081241457938 -1.519828721040273 5.006445241952248
H 2.130587752751889 -0.403252905110524 2.659827769877321
H 1.716378222009777 -1.588687045242581 3.834927251451565
H 1.497455135265086 0.100039510589025 5.727651980271387
H 2.563292434777740 1.129856637160072 4.767037777279416
H 0.984350412519444 1.729804669100198 3.283989166332256
H -0.189015974617890 0.369061637700335 3.651628825236165
H 0.316197935179958 4.865905554590132 6.663452552529344
H -0.683753173928057 3.531704774706057 7.105128531791356
H -1.164346821499485 4.431588570848970 5.819198760114088
23
maple-route1-mmgb-reference-mlip-reweighting-v1 phase=gas replicate=repeat-0 sample=55
C 4.142781372223039 -2.205990974322368 3.116280939500055
C 3.796495376567822 -1.003678366643815 4.192697194987256
C 2.369738907910660 -0.523774576692916 3.822110597987433
C 1.664829708355439 0.373693976294176 4.774186737107565
C 0.539935676865973 1.182395564077629 3.999634535061619
C -0.312873429640263 2.030299683258463 4.908043554719744
O -1.289767743632866 1.605556243891304 5.503149492533048
O 0.350972281460840 3.167735977325465 5.291539368809333
C -0.241059155018939 4.039235759772892 6.269123566406015
H 5.177628202233717 -2.607711724047505 3.292783712527536
H 3.484778539198133 -3.065028972380405 3.249369964461051
H 3.960491436694266 -1.858787850470232 2.109984100410866
H 4.426796594537274 -0.111454320706231 3.929879295697032
H 3.873304604182568 -1.334843112103790 5.190185106446093
H 2.416735833346857 -0.106626152614658 2.773467980572781
H 1.848050234950195 -1.456363560774741 3.689309475894308
H 1.173377479845322 -0.222259731005502 5.582985193124631
H 2.411491444765535 1.049722059687823 5.303537989400954
H 1.014814990152818 1.774767716132630 3.204789672530314
H -0.132112992738190 0.401936126519329 3.598230964924622
H 0.532063220319267 4.762945983357699 6.588351665843236
H -0.597035935738264 3.524169019551537 7.193534890191982
H -1.126542491722902 4.622395638141407 5.922498370606133
23
maple-route1-mmgb-reference-mlip-reweighting-v1 phase=gas replicate=repeat-0 sample=56
C 4.091667900632999 -2.135016238373177 3.229623267905424
C 3.743869202728316 -1.059285074508212 4.237882274852939
C 2.395096154247073 -0.416824643372846 3.814057115925176
C 1.640567045739192 0.450171633873128 4.800093790852242
C 0.542210167767544 1.207408872166331 4.001485391496288
C -0.316005850441572 1.959872723021238 4.897210893515892
O -1.217423209050604 1.468320204004818 5.527652373507922
O 0.312062134603283 3.193984558975416 5.146525143239371
C -0.200658210059635 3.988183247182551 6.228635000059684
H 5.010579255826761 -2.672456034982833 3.585074559572532
H 3.296592506065471 -2.877639243327055 3.283854482176947
H 4.101546319438300 -1.742323569296689 2.185427182598679
H 4.609747827064873 -0.340871111647776 4.219731035493389
H 3.630223344547004 -1.589250809360595 5.172292226314953
H 2.660542754379577 0.185624014749581 2.979539493286238
H 1.782244277063727 -1.238215526016904 3.340520471440565
H 1.151387111823050 -0.220998555011762 5.559856427727475
H 2.266316694345194 1.168856344709962 5.350778125489681
H 1.117448473312337 1.939543324278514 3.414093216180619
H -0.004070580196102 0.543885164536005 3.331525862716348
H 0.595879672770773 4.767198349050314 6.403714866589998
H -0.372440673064264 3.421262883439764 7.218714458677125
H -1.161629437918902 4.557507201949504 5.986264560666257
23
maple-route1-mmgb-reference-mlip-reweighting-v1 phase=gas replicate=repeat-0 sample=57
C 4.135159763129479 -2.196832733104375 3.382469507858915
C 3.551961514265913 -1.160213964038518 4.348480309397361
C 2.493282240364483 -0.316769230989193 3.686616288407087
C 1.711631904479441 0.524530711311801 4.684063113993012
C 0.564954271355150 1.183185812877876 3.951549200484282
C -0.277655857999647 1.972020609002860 4.913962066814353
O -1.168073062565812 1.481685375798418 5.599455839995081
O 0.241424247322221 3.243733920862908 5.101815795322556
C -0.249729133988034 3.937558588134216 6.211483383247175
H 5.013463958251757 -2.670104610392907 3.820314276712456
H 3.404395017913245 -2.972753200264470 3.061156743532495
H 4.397695230173256 -1.622327540474914 2.455691330057655
H 4.446849040690176 -0.617047499774048 4.629402001506707
H 3.115042162845118 -1.707138790901368 5.259436245802308
H 2.896427047744106 0.303074226932319 2.941584192998743
H 1.842630083068835 -1.022698987667053 3.143282408495423
H 1.301930322625333 -0.194131635118697 5.382040655805785
H 2.286924262950705 1.268345849295728 5.226515330508692
H 1.031486138779794 1.862993412553527 3.230758153062495
H -0.024679743554506 0.446719237817153 3.409168119266815
H 0.341537411500224 4.890469390244733 6.199022098595903
H -0.087148572656284 3.337024862594801 7.163362774955159
H -1.337623974602770 4.197909071021496 6.051588290648533
23
maple-route1-mmgb-reference-mlip-reweighting-v1 phase=gas replicate=repeat-0 sample=58
C 4.302480271958210 -2.307522541443038 3.531494572035175
C 3.406748148898158 -1.292741056365493 4.426522985290283
C 2.631027557819036 -0.317425045525889 3.579075326085881
C 1.764959581671654 0.573813932573141 4.522988660743548
C 0.483997437418481 1.237403358735800 3.870154058188193
C -0.300927579976855 2.005174511580623 4.910648376823713
O -1.127337020872192 1.489081254849756 5.665005537503686
O 0.182543549317752 3.257693062383550 5.114599537789434
C -0.351036613753999 4.017689380565489 6.226893427342322
H 5.063930018028398 -2.880086023274319 4.075750051476811
H 3.710945015781735 -3.013732316403359 2.915321570817464
H 4.850549961088085 -1.711897210991257 2.805357052512033
H 4.108159610727662 -0.847745189050871 5.152211740827754
H 2.660895734764189 -1.884593791315227 5.038135393935178
H 3.301985507941305 0.382201597717481 2.992495396296420
H 2.048645496877173 -0.851692129033424 2.854648281439645
H 1.597624132938737 0.002037733630713 5.393789465793576
H 2.430718548474388 1.409667853810355 4.796617367282998
H 0.738954117986644 1.834438912655568 2.988523711496468
H -0.193479953085702 0.407880567347629 3.602064062709057
H -0.105657781077553 5.062571763027579 6.078332015161259
H 0.049774171345185 3.616350348909182 7.148979746884575
H -1.436016602302325 3.956678915585736 6.202231197058302
23
maple-route1-mmgb-reference-mlip-reweighting-v1 phase=gas replicate=repeat-0 sample=59
C 4.439631140400797 -2.348114520254717 3.707934703767573
C 3.380751887148195 -1.507758879324141 4.362860831645706
C 2.679589672754323 -0.352196057896496 3.557343089235254
C 1.807647878334582 0.717014718567465 4.384287927876028
C 0.465762392181432 1.272375890078074 3.816194854303526
C -0.300479680508177 1.977865921871375 4.960990123617918
O -1.137365431455790 1.445432213460154 5.698047599403820
O 0.113147309426326 3.306224181962479 5.124506422990520
C -0.440882554415122 4.163770827673011 6.201213947631672
H 4.798186397636655 -3.135545707751395 4.392441450410880
H 3.994453446378956 -2.898933180572594 2.910818675461030
H 5.347661774990891 -1.875673114233918 3.344686600259095
H 3.887783784488951 -1.197950644752652 5.333753449777894
H 2.642946530757073 -2.188254952627253 4.683033214434856
H 3.480526205927276 0.235201326283135 3.014497351130249
H 2.055835006093658 -0.792034019055906 2.756517294147906
H 1.650099260522258 0.079823798490354 5.264461949513391
H 2.437888615187096 1.556601599097078 4.738157271215644
H 0.688249376210967 2.036237219860882 3.047467315691171
H -0.168293089251487 0.466235975245442 3.397740407219031
H -0.318584418867236 5.214723016407779 6.066667481486818
H -0.046265389943857 3.811183680378267 7.108869998495940
H -1.483081050679601 4.011592201456847 6.219537355433978
23
maple-route1-mmgb-reference-mlip-reweighting-v1 phase=gas replicate=repeat-0 sample=60
C 4.459766059850979 -2.308076018276216 3.833425432394795
C 3.251471302083722 -1.553936743383698 4.360285650572378
C 2.650345367950195 -0.374438935135083 3.498936524473191
C 1.869598789808719 0.666636478853770 4.407377469233175
C 0.600219847763264 1.321065033929071 3.901196502233653
C -0.276381227359781 2.002177911087380 4.960325989111235
O -1.066693296872085 1.448756086317566 5.665372813154841
O 0.032316895765865 3.333446841977251 5.104689760978021
C -0.520512942893112 4.115411742324121 6.082237161074726
H 4.633569164319297 -3.282252524522437 4.305657492142031
H 4.411938604381278 -2.584627682900354 2.795970231303679
H 5.446641578649891 -1.824505964565335 3.974369458091976
H 3.608986714139484 -1.143018907936646 5.308613832980319
H 2.440681140819435 -2.194896767096365 4.711869461314776
H 3.474631627548423 0.080690684691163 2.984814647828812
H 1.969762210340675 -0.815535257727148 2.695341319958927
H 1.721035401805200 0.088850984286609 5.349117989015305
H 2.534883765051636 1.497612094330601 4.694767776759845
H 0.968137542664896 2.113605098982127 3.210366506140449
H -0.029537679563440 0.604001948574242 3.385057652081906
H -0.244648297577330 5.160711009711020 6.054322670350178
H -0.239473195093405 3.646744514305440 7.021440354510963
H -1.592240842315717 4.128549376493172 5.976980123281994
23
maple-route1-mmgb-reference-mlip-reweighting-v1 phase=gas replicate=repeat-0 sample=61
C 4.391744365425479 -2.197334083723387 3.847159507544788
C 3.162159492564593 -1.506191330134057 4.451719632837880
C 2.582518964983401 -0.382723193784585 3.596651404803757
C 1.907346743454263 0.552135141378320 4.550160385435079
C 0.737305881898417 1.320674505366314 3.849995031188675
C -0.153857037756039 1.999890858191491 4.926489711046910
O -0.989038986140847 1.439623348004524 5.621396659612083
O 0.070170847305387 3.376932240111446 4.998233210599603
C -0.655067597384783 4.059391417756358 5.994030718222883
H 4.625179409970230 -3.199553712704258 4.145588303630418
H 4.472752255792235 -2.268667581859846 2.738735364127436
H 5.296779282650240 -1.698186012641748 4.184415410045079
H 3.294359937861518 -1.266023836389918 5.495618765367151
H 2.276345405746614 -2.215557462628058 4.507748749840284
H 3.377010646562354 0.048988222348178 3.001786325493163
H 1.828969634396001 -0.882953482614012 2.955255498631484
H 1.571572293966072 0.011430113169318 5.441090112092369
H 2.613410739710354 1.301979114554233 4.939057899258110
H 1.168944338578073 1.981119862468424 3.094575353073359
H 0.059885566816852 0.583040740780943 3.415576065469811
H -0.333408186093018 5.116857500795787 6.147416010101084
H -0.494826283377055 3.492413682848773 6.973707215784351
H -1.741648631966337 4.206207479728273 5.762457597745750
23
maple-route1-mmgb-reference-mlip-reweighting-v1 phase=gas replicate=repeat-0 sample=62
C 4.388457970485472 -2.132331923045840 3.802011574049579
C 3.188859373946626 -1.645893555475224 4.519913071141668
C 2.538297852030431 -0.419408181051034 3.781545026677997
C 1.802037212480086 0.571974040302228 4.699418266710122
C 0.761106442351797 1.426408635771365 3.867412967866141
C -0.085126729316501 2.015571956567119 4.848365985487108
O -0.903824625763788 1.369675479932156 5.516052757095479
O 0.132548764165556 3.369028556888936 4.940781460317492
C -0.785344507775771 4.074828064653866 5.885450917600659
H 4.790189835268271 -3.102993212696002 4.076206807151658
H 4.234201219745247 -2.216996034215066 2.715292649924410
H 5.233971209334380 -1.476087705955917 4.015264717261009
H 3.510015057621780 -1.335614415641418 5.519782918989266
H 2.486844836524175 -2.455138813456740 4.735666025530149
H 3.444453903719733 0.109515918677926 3.414196897873545
H 1.946565671984795 -0.756746956873281 2.988258802408777
H 1.260928393135424 -0.000899450976484 5.474168477587719
H 2.437962169155498 1.243447976571414 5.287642122152452
H 1.277970613437536 2.127521379496955 3.217200294843221
H 0.105947093962917 0.752691211201196 3.287252841378612
H -0.556321609758128 5.170702434218763 5.928099257452089
H -0.679807730404500 3.678158482104597 6.943495336034930
H -1.877472212917805 4.155750515539289 5.552605620164824
23
maple-route1-mmgb-reference-mlip-reweighting-v1 phase=gas replicate=repeat-0 sample=63
C 4.428593768803686 -2.149687127888909 3.725240922888567
C 3.263546892151516 -1.648198234164350 4.612178156569360
C 2.627983890013055 -0.452990416179662 3.918901278567337
C 1.717483854283692 0.441030387310682 4.715057162278065
C 0.913435649758513 1.423042972892041 3.917020992573202
C -0.153271848457708 2.074955635507036 4.775167766262508
O -0.965140381840301 1.419489652935188 5.438244241234054
O 0.089796302870416 3.396539078620213 5.011562775802011
C -0.869247593669193 4.133247970590002 5.787856945416905
H 4.946864103588335 -2.989484091972825 4.235348035070213
H 3.954966293071746 -2.590850328144874 2.861592852415500
H 5.216302577812284 -1.415501106520214 3.491668224273203
H 3.560139599118022 -1.448273789462147 5.682772614988318
H 2.599363757245819 -2.456009351847605 4.692259581019076
H 3.425989083052432 0.152008456340803 3.462148459134215
H 1.989768600474217 -0.880535351761958 3.161809214998694
H 1.030958853486616 -0.191100506055513 5.308883683037291
H 2.253971476025531 1.051554653276772 5.447353391701206
H 1.660316923366668 2.160175986408142 3.575059547100726
H 0.488371536549328 0.937044833073709 3.019936059330567
H -0.645480240440730 5.187542389107296 5.545686642666659
H -0.753338532560102 3.957612275563445 6.862549730817752
H -1.887656660734074 4.019654949578779 5.358006076127802
23
maple-route1-mmgb-reference-mlip-reweighting-v1 phase=gas replicate=repeat-0 sample=64
C 4.481438189836732 -2.325137897553391 3.743102813321201
C 3.372458518346275 -1.582273502171613 4.609246785738485
C 2.685754633748636 -0.468634555034552 3.880949352856631
C 1.665887774570787 0.220508869461089 4.811411429572380
C 1.006519828408571 1.440197888937390 4.080170911501461
C -0.167032340697361 2.153306820670183 4.817368227225630
O -1.084791434677781 1.496865765327695 5.294325089681609
O 0.017669304101046 3.509142802942125 4.960902731372205
C -0.918619329211510 4.186554917025733 5.723625071534565
H 5.159089945889058 -2.904546360078841 4.432659650244791
H 3.983204577378681 -3.014999599640485 3.020196116120661
H 5.133556579116672 -1.550817896919663 3.265231194313117
H 3.959184322609396 -1.096098357679945 5.394251733243600
H 2.758613554273290 -2.322517599310171 5.154224628097629
H 3.391331456509343 0.275152358635576 3.571182869981701
H 2.063123728723113 -0.871191828816314 2.989370890163079
H 0.919974225975552 -0.492921924597538 5.125679385777492
H 2.160541773695500 0.561593098479005 5.757758837069567
H 1.771423700944224 2.159298507674988 3.733577452890715
H 0.557678563703126 0.999599813546183 3.189969757240150
H -0.720632490493510 5.230764292128617 5.538880560430547
H -0.735994364514941 3.936460910936632 6.743830506069911
H -1.876759159714314 3.923331768885754 5.323478806375842
23
maple-route1-mmgb-reference-mlip-reweighting-v1 phase=gas replicate=repeat-0 sample=65
C 4.489690028783203 -2.507171451606145 3.769832898683407
C 3.631690731644257 -1.539901118496457 4.653429646441095
C 2.714218817744945 -0.505867825653108 3.883802226568030
C 1.542142366365511 0.140415239626627 4.804676628551661
C 1.027964588636207 1.500161553481369 4.164717968748722
C -0.097274121376640 2.122544478929396 5.003901086868861
O -1.186739015282173 1.642901120989909 5.140345136589374
O -0.007338445291418 3.469512233781936 4.860301728263649
C -0.991027160140115 4.296003593631047 5.686443528131349
H 5.192011293372808 -3.074233982909568 4.390599497352550
H 3.775232941364175 -3.183944848934583 3.202717827455496
H 5.048910758827780 -1.824234156182788 3.102358144760864
H 4.213236249370723 -1.135879704654406 5.448723955429513
H 2.989166557833935 -2.323956246548530 5.162112596175862
H 3.323880330629813 0.363179349168782 3.544902960750081
H 2.218612695860569 -0.971005333929233 3.000481001325303
H 0.700465105231073 -0.543423019161356 4.955107357450673
H 1.949712426607293 0.278760441173018 5.811582442372643
H 1.821234856175817 2.242835504327934 4.144738375562572
H 0.674362522887292 1.318906247721783 3.157972043117415
H -0.753639610853942 5.347713511019495 5.736653489261098
H -0.940195899170316 3.952997088514006 6.728899912183936
H -1.961896783949860 4.097209065978379 5.316014172648403
23
maple-route1-mmgb-reference-mlip-reweighting-v1 phase=gas replicate=repeat-0 sample=66
C 4.429710407815655 -2.545871624325038 3.789694333768568
C 3.669008904259564 -1.529096815329598 4.734146646680792
C 2.750562628996283 -0.566603423289375 3.954497869763572
C 1.563027537687604 0.097679793826217 4.723096820306915
C 1.027254805174587 1.482863184816110 4.200635865136611
C -0.162967567710918 2.142078716154787 4.944256777816537
O -1.260576652388255 1.617721753156182 5.055207588937561
O 0.075956636683989 3.527818300662862 5.023367695633700
C -0.985471744401103 4.375430558138812 5.545931586483378
H 5.099200084459467 -3.149675853380120 4.394529921609840
H 3.708031008963216 -3.176561625412543 3.262565461061255
H 5.021044562119150 -1.975203939108625 3.070226093112211
H 4.423800111497514 -0.920753473810998 5.254017579615812
H 3.182058402715404 -2.060789342708305 5.532627759307086
H 3.409585894745645 0.253722283542310 3.564012327151195
H 2.374627758536004 -1.122942742260369 3.165274804885935
H 0.657207316241372 -0.556163652650451 4.670749866067315
H 1.823314855894782 0.135403218510332 5.762279668675187
H 1.803846959540071 2.244695057527242 4.220105644914755
H 0.754217721565285 1.302294614540168 3.155778042853534
H -0.748745992082471 5.441909091267042 5.630328547913942
H -1.159020765668777 4.103132454090018 6.629879581938619
H -1.930093980327299 4.086713257721587 5.041922232303434
23
maple-route1-mmgb-reference-mlip-reweighting-v1 phase=gas replicate=repeat-0 sample=67
C 4.353563484237338 -2.488937340173358 3.905048000092815
C 3.607760379230065 -1.481083018952128 4.774857940614734
C 2.715546122615513 -0.498561936659629 3.962433652880304
C 1.548613540457234 0.070202500870614 4.734430498468321
C 1.049153337973437 1.394491294339474 4.128148967439452
C -0.133515721025839 2.171573392666813 4.812470244889390
O -1.200446162936422 1.652586248566150 4.997451459173746
O 0.078455132557848 3.458394642091813 5.180136770332387
C -0.924564172435209 4.322342766996872 5.450830217681561
H 4.971750589786980 -3.121968496347095 4.549106434401305
H 3.605359657456018 -3.101666013081815 3.446956750762015
H 4.945334193976564 -2.055793356608891 3.105389866926257
H 4.334219605731493 -0.855205786355881 5.366793322477243
H 3.042913922222621 -1.997403319015094 5.527444304429934
H 3.380886679593294 0.267348835759999 3.588321319397312
H 2.387486368316186 -1.119336276409133 3.143555323571693
H 0.685991562002234 -0.581857152951514 4.901691608257119
H 1.924614743557803 0.308110690936483 5.741223225421155
H 1.851342114210271 2.129536305570729 4.118068763117952
H 0.820181381742637 1.114628252574504 3.084884564172667
H -0.489043019373255 5.360203475752570 5.549698273273568
H -1.374431417701114 4.207542863130645 6.474144825725422
H -1.765098459873593 4.192064062812657 4.670209850560794
23
maple-route1-mmgb-reference-mlip-reweighting-v1 phase=gas replicate=repeat-0 sample=68
C 4.332319762857658 -2.458496463592271 4.045837215952289
C 3.486229919461333 -1.494763112859773 4.823076868826950
C 2.630945050847555 -0.439969193087225 3.971037028070656
C 1.551797579704791 0.227637581238940 4.813136464344395
C 1.017181636559078 1.458014868362685 4.035825687243589
C -0.088873259281651 2.079410510478162 4.861970809346188
O -1.239481587910681 1.601183148333019 4.875425387074887
O 0.288488828172678 3.395601249349464 5.165048551363995
C -0.867980893864729 4.251980451543255 5.396997609573003
H 4.955423052956615 -3.085167088508942 4.695264757205683
H 3.674991160267436 -3.078168526555053 3.419740695760577
H 4.946020808019870 -1.922507984882783 3.314214702815390
H 4.131563540116528 -0.958341576135048 5.537558641535949
H 2.767754741350563 -2.084569240849070 5.468065352150294
H 3.346083856561901 0.211857946440447 3.535033096463772
H 2.215855649124888 -1.084952853274935 3.125463401609683
H 0.712236072684408 -0.404561700362772 5.016920962071305
H 1.915432701621724 0.509876902654521 5.824274749499493
H 1.783125407577339 2.241354617099464 3.882218550529761
H 0.616881649541742 1.113253061134510 3.072249413847925
H -0.566459874687089 5.259018735642377 5.793412490724022
H -1.596586610837919 3.958588713097373 6.167008696366363
H -1.461021397468836 4.305624682596394 4.446652307126781
23
maple-route1-mmgb-reference-mlip-reweighting-v1 phase=gas replicate=repeat-0 sample=69
C 4.322620532703006 -2.414393126804178 4.123808065855887
C 3.302721094071686 -1.538465921890404 4.922961466863409
C 2.619912341704928 -0.510799412735192 4.018201823799901
C 1.682075434665563 0.351989045965056 4.825470707946705
C 1.015232443001749 1.462881590499593 3.980028488639328
C -0.094008323605089 2.041320996209917 4.794523545546539
O -1.218705194674509 1.643191488161831 4.776953638873587
O 0.261520169663634 3.281366962774417 5.124585997585260
C -0.816167154926789 4.279198963211321 5.422670265124085
H 4.891729180125466 -3.048665896253966 4.811474676583217
H 3.917373169185620 -3.024468539578593 3.264144284393831
H 5.035572513249729 -1.736977824184438 3.623087158769045
H 3.852265711803420 -1.019669188536986 5.693338367413714
H 2.508952287176020 -2.140387725752232 5.452876449344789
H 3.468191188010150 0.060253106881978 3.595017032052171
H 2.173268137970695 -1.059492073643532 3.177884443561766
H 0.885989624586237 -0.281833102579554 5.243710489080615
H 2.196835074698149 0.765623579000937 5.697263068911036
H 1.694216049692913 2.273473158787449 3.672064305356006
H 0.495781129670616 1.053625239746226 3.109365788112081
H -0.297971825273301 5.088740561652703 5.899262717938316
H -1.648144535257567 4.003169383626595 6.065637925668921
H -1.259664540306258 4.614369365785445 4.530969057532507
23
maple-route1-mmgb-reference-mlip-reweighting-v1 phase=gas replicate=repeat-0 sample=70
C 4.346679727717834 -2.399542078886729 4.235371279488291
C 3.248740371275966 -1.640462990151950 4.966439157669106
C 2.674507779193820 -0.551553941904894 4.089583390602717
C 1.775302186829694 0.412727614761812 4.812179474649579
C 1.023721032761828 1.344541641249177 3.923439812659677
C -0.190641980865079 2.162852181197470 4.591558745984142
O -1.300055276598085 1.640238147588993 4.713219221216455
O 0.237975964781845 3.368192164091378 5.152867122994714
C -0.753500785982567 4.295940552264324 5.485190531471202
H 4.657480816845571 -3.204812691863161 4.910267491253830
H 3.970124900263744 -2.792000823483460 3.282434374784815
H 5.215087067738001 -1.763900930963282 3.934782249081032
H 3.615315859214025 -1.366698292665540 5.966601250969403
H 2.468878809750110 -2.361313412226826 5.075535083460153
H 3.507170673259273 -0.045831068783409 3.485072510937357
H 2.098502600283385 -1.027135655704357 3.345176685923906
H 1.087427118343866 -0.179554701785200 5.461409550352656
H 2.415849182209294 1.004901951626725 5.473047860655256
H 1.764107484340893 2.070899247552664 3.615805147284500
H 0.620951435652944 0.863804786543111 3.019813678109913
H -0.233802244724234 5.081839421993362 5.945589475385597
H -1.505460181971638 3.835153107161390 6.108110815122004
H -1.216138404618523 4.653899478689373 4.598377753938268
23
maple-route1-mmgb-reference-mlip-reweighting-v1 phase=gas replicate=repeat-0 sample=71
C 4.451332425387818 -2.520379930814727 4.377159773467727
C 3.198905505553110 -1.770952120801650 4.990299292057242
C 2.668398043567097 -0.550528749688016 4.135434779610200
C 1.733032107124991 0.535353662583898 4.889120265248475
C 0.975093199442453 1.377241644316102 3.855099465354007
C -0.164116960443851 2.184296698407279 4.505929074199528
O -1.311607283171423 1.754361854900905 4.599525290547343
O 0.238691134185847 3.360242047777827 5.026772661802924
C -0.745649384126196 4.247648176279766 5.575680544086204
H 4.651357680805473 -3.447817993102547 4.942016544381246
H 4.290506271562153 -2.689976132799873 3.338758573257302
H 5.337814661321891 -1.875296506412697 4.382341395327496
H 3.719612627149401 -1.385761778390765 5.884036122415891
H 2.466970185869347 -2.506421037334525 5.291237767710260
H 3.554900935021545 -0.005704154743340 3.778546819380883
H 2.167933460286372 -0.820376809990311 3.168163261437063
H 1.040149099302310 -0.079107184462907 5.478038470127929
H 2.298899431114664 1.189886481140450 5.614941645627444
H 1.685040057550216 2.044166723117473 3.362164943400833
H 0.486327957779101 0.777322765482378 3.084316912888687
H -0.216068888764556 5.139238468045098 5.990435265384900
H -1.303229459082101 3.620025434868351 6.254943635740107
H -1.471115124655229 4.588073437430216 4.785079708914582
23
maple-route1-mmgb-reference-mlip-reweighting-v1 phase=gas replicate=repeat-0 sample=72
C 4.420253006868510 -2.540483092752325 4.518029022050705
C 3.175889300533108 -1.706871100759016 5.098467091385808
C 2.774073677891544 -0.539064339186073 4.233078829989612
C 1.676203475984199 0.404277451781977 4.862764097597471
C 0.957829825492500 1.402903986976803 3.825267000629560
C -0.144129308321917 2.191250938023260 4.436166550261505
O -1.322989305612399 1.851738200878408 4.458733038211601
O 0.273453049730176 3.380152798741481 4.880190354197423
C -0.709722156802365 4.194476204046536 5.667910219032662
H 4.528789816226843 -3.469246195452413 5.066751715501355
H 4.233069041990432 -2.746183100700572 3.456991995394042
H 5.339587998107975 -2.008335675624203 4.478579299062004
H 3.332477086407652 -1.504311588127817 6.143725393339018
H 2.334100351331863 -2.441651545078648 4.973056453870534
H 3.618729092768206 -0.018090031839945 3.872261288749741
H 2.296453663729500 -0.932391533965264 3.267127308824560
H 0.986490486370654 -0.240664429484366 5.405130227564943
H 2.155284357696938 1.070997846476304 5.608169819944501
H 1.713744594550561 2.094416179840876 3.395400848321967
H 0.489620962511574 0.921591069746092 2.966075864062835
H -0.352777383212772 5.254659622897107 5.991467014584504
H -1.049137904819200 3.490453439035053 6.449138584808516
H -1.694269850869540 4.372282903813477 5.114602781596943
23
maple-route1-mmgb-reference-mlip-reweighting-v1 phase=gas replicate=repeat-0 sample=73
C 4.264522221281356 -2.493145608586072 4.671585627646155
C 3.105504337950276 -1.659115972344150 5.188188342487548
C 2.794850433522353 -0.482835500447552 4.269527968996422
C 1.600980146887351 0.282598823079950 4.774835749702030
C 1.075873870540962 1.341687103596726 3.826388440459476
C -0.150788619356980 2.201530135565930 4.342478436333423
O -1.312452442666378 1.817603134925617 4.338860907198258
O 0.280002403833153 3.424955647440395 4.861960447611179
C -0.603680495051517 4.186817423406233 5.657360902502996
H 4.430774190381342 -3.308474206170878 5.343713147892062
H 4.238714516485814 -2.826073103172629 3.622114008745550
H 5.161383895645363 -1.858766768691751 4.694606879561725
H 3.450695430150090 -1.311142310269107 6.150910501152929
H 2.219678143152346 -2.329654328276130 5.308617455445182
H 3.711502216563537 0.160223576832634 4.249407326591655
H 2.717774047869119 -0.787266072109366 3.250266549385987
H 0.783124194860942 -0.424559577167620 4.987704015926376
H 1.812464286075657 0.864307007037604 5.647530281234623
H 1.933342751260050 1.949348882530132 3.507027726219915
H 0.704779599778969 0.813603778881088 2.933202401651793
H -0.314432204820251 5.262779083701972 5.789979649768268
H -0.807968354860995 3.562132502321128 6.585171116646677
H -1.633057097138126 4.271266692043634 5.243829308962273
23
maple-route1-mmgb-reference-mlip-reweighting-v1 phase=gas replicate=repeat-0 sample=74
C 4.220996944384786 -2.533033469899091 4.838241037680626
C 3.090011263696024 -1.646505159750295 5.297183137757973
C 2.747447323223685 -0.376141167302493 4.357608841666637
C 1.428623658287984 0.280042587078893 4.738469461857457
C 1.067343740728916 1.415428516221537 3.734782628263452
C -0.090843340000498 2.189126789591154 4.289620958398964
O -1.203896848886514 1.781099394092273 4.246108915315566
O 0.319231945665558 3.367757417388707 4.853206740274297
C -0.536025669596848 4.154066754754172 5.590726408924665
H 4.440543898297548 -3.373654238702670 5.541848332475868
H 4.016169764983380 -2.951518553788758 3.862483697392305
H 5.170292065272585 -1.973663888806551 4.646329085291016
H 3.318065709039144 -1.303474455728453 6.346697737096766
H 2.228567327173315 -2.292335501021333 5.332783450293206
H 3.646532695194058 0.337486936490521 4.384422647283234
H 2.807920796252607 -0.686617701647016 3.351164809363259
H 0.628267203218118 -0.471656899146919 4.599983429532433
H 1.332889555258579 0.725474885398216 5.732885666177268
H 1.927032907622739 2.045054173104913 3.680332497379342
H 0.844303666765370 1.025186897165098 2.725947562311973
H -0.129762830167940 5.132143735129000 5.632954759926585
H -0.787783799471969 3.709691341144135 6.580385976416220
H -1.474193011948383 4.350960822076036 5.108684220227422
23
maple-route1-mmgb-reference-mlip-reweighting-v1 phase=gas replicate=repeat-0 sample=75
C 4.202305573276585 -2.506949927997090 4.938666740537468
C 3.014631407183094 -1.603795418916865 5.402624458248924
C 2.740049753772503 -0.422024143022788 4.484187780750873
C 1.373788048405775 0.198962067436366 4.659690873166188
C 1.132770305284603 1.444012402226327 3.654594872785297
C -0.045282825561819 2.214907464623983 4.207580561309420
O -1.219702568102884 1.820816359999027 4.214458393177678
O 0.442604024481308 3.333979594206636 4.856493696122738
C -0.598949330681588 4.147948424556660 5.513297361472210
H 4.442455816157745 -3.312782719334022 5.701831807645533
H 3.936381024426719 -3.082549461571688 4.017221079800002
H 5.142807196556841 -2.014150173001292 4.651835418795775
H 3.208739894742118 -1.194154225373385 6.409074150855325
H 2.106691922571766 -2.201865837989116 5.453356188896711
H 3.496514179649439 0.282705888464749 4.678231740459397
H 3.012966568481807 -0.775570017547229 3.462533781349974
H 0.567331694496944 -0.534973195364525 4.512640480211085
H 1.260313521595548 0.647829264264629 5.667943476140264
H 1.989170625453868 2.126797373595518 3.728899972906758
H 0.929395845836128 1.152823342217881 2.633379321853659
H -0.162628708380811 5.084966395703009 5.782069232847441
H -1.052197999238527 3.695895915466604 6.333141653311957
H -1.319149496568412 4.441302404110122 4.776115377910485
23
maple-route1-mmgb-reference-mlip-reweighting-v1 phase=gas replicate=repeat-0 sample=76
C 4.176039152653551 -2.459681976382929 5.085791435352883
C 2.965013427318857 -1.633451153529685 5.506243914398157
C 2.774829757540155 -0.466799146895997 4.499400194186407
C 1.378558587058046 0.135467042818989 4.599457024819017
C 1.158970338711605 1.330087158017305 3.699190013215325
C 0.012795152624298 2.268414002014978 4.162460165514489
O -1.170211371143755 1.929149449305449 4.102231396055664
O 0.420916740415493 3.331561941419030 4.868830048735660
C -0.660239926099760 4.197286378462924 5.421322325637270
H 4.431258878044869 -3.225398364488252 5.826758220525956
H 4.030516811979975 -2.995416809507148 4.102159489565763
H 5.042745593798641 -1.796836810189206 4.972279285947193
H 3.246885339278184 -1.247812519976592 6.443396175434052
H 2.063701164644502 -2.298868937220028 5.610837808193770
H 3.507556300989183 0.284269453293299 4.542984278527142
H 2.938190042357404 -0.903445706494455 3.508038889443041
H 0.624918288262126 -0.626063626504851 4.308769899044219
H 1.191821402815211 0.445973312731574 5.636373027755072
H 2.067816260222761 1.961827706927297 3.536328455440023
H 0.723205015674126 0.870401516672072 2.822820153335880
H -0.139689567633653 4.941534296931555 6.044071877048367
H -1.315418624559750 3.684698182149893 6.081016919244494
H -1.142903756358167 4.758643308745753 4.602999230363587
23
maple-route1-mmgb-reference-mlip-reweighting-v1 phase=gas replicate=repeat-0 sample=77
C 4.247360104857706 -2.485142760041579 5.301646198357196
C 2.993458871041725 -1.640989869990661 5.526942541742070
C 2.731728444972731 -0.552465008435356 4.465191288840979
C 1.322231013644620 0.150644910543574 4.616555567155450
C 1.155475983641961 1.345523895623076 3.691515544381913
C -0.030300657444405 2.227233689069235 4.219279263453712
O -1.182323708133033 1.985183416036795 3.879698920863738
O 0.402236106929690 3.346513393482411 4.905736354625841
C -0.595199058507829 4.229829304641644 5.339670328623498
H 4.346963628930204 -3.293926416090486 5.982870782538361
H 4.178927103505035 -2.936599039130574 4.311446323315161
H 5.147268976468395 -1.847918956756864 5.364230607617923
H 3.066485942896474 -1.297589379405692 6.578571455689701
H 2.229137527652326 -2.415642499692060 5.417867050083065
H 3.487312814253728 0.301929124163862 4.444131066649573
H 2.803204518613947 -0.973408013749816 3.492301654959062
H 0.460409609836395 -0.585038889745022 4.513436715445975
H 1.355984087983075 0.491771024262854 5.654479521482133
H 1.979488528424318 2.040490338673762 3.837908848783120
H 0.979991667479934 1.037809231385332 2.630406976682866
H -0.155528687144878 4.826030724169061 6.174120485095224
H -1.425666868570699 3.657155965810750 5.896541115768491
H -0.925936277237242 4.872827384236389 4.476291421340949
23
maple-route1-mmgb-reference-mlip-reweighting-v1 phase=gas replicate=repeat-0 sample=78
C 4.332117582119343 -2.485534419816152 5.486063846534130
C 2.912590097286026 -1.695302516249441 5.491759612147666
C 2.696838454474099 -0.665320224771131 4.447095145979271
C 1.403325240639488 0.187108303394468 4.729139676880358
C 1.171316849055776 1.394392758607145 3.742004314292190
C -0.063121176788837 2.227254616514566 4.126704972901987
O -1.184025269204670 2.077040273096550 3.701200451990367
O 0.342908878754666 3.254232065257455 4.939375658684252
C -0.564230719067563 4.293176066597812 5.265471245567946
H 4.364556625079501 -3.293964378819956 6.229199414798105
H 4.529989224169481 -2.964958186915492 4.563939717814346
H 5.137797539627309 -1.799607953554847 5.787833695399796
H 2.921286750683163 -1.136390685679316 6.473723618022343
H 2.122583783255084 -2.423237534832757 5.491935256285863
H 3.530759299746207 0.092022077506905 4.502594228922971
H 2.700850144721503 -1.074819834827152 3.410536923726664
H 0.556920421490191 -0.477744960721909 4.495852334309204
H 1.364204951390285 0.364405525978097 5.818265081374449
H 1.941320838005938 2.121055587856553 3.876525916852112
H 1.104718112577520 1.081650963844676 2.694010735746040
H -0.166844633535500 4.999078812771798 6.032776020404745
H -1.429005964725287 3.804720392665235 5.846216759318933
H -0.941976518953804 4.822137365795705 4.340902562517581
23
maple-route1-mmgb-reference-mlip-reweighting-v1 phase=gas replicate=repeat-0 sample=79
C 4.295025992282814 -2.397172370333347 5.600098098087298
C 2.883609299423780 -1.785444938631507 5.604315576040034
C 2.722592213469532 -0.672769424991353 4.503430923775234
C 1.425431500719567 0.173369506762691 4.731118922344989
C 1.189429495230097 1.337326516384734 3.758341534758433
C 0.002028527552190 2.243462073730528 4.051021033920570
O -1.097995111704500 2.123623091301273 3.569984258969053
O 0.290170185714961 3.234671789183257 4.963487261880289
C -0.640187330876973 4.339648315850736 5.180582432880766
H 4.419990980771725 -3.224931558106623 6.338477821760449
H 4.497582735782339 -2.886637852732337 4.642393607354797
H 5.012271763306827 -1.644165424610405 5.893618712627581
H 2.662466634393414 -1.414669306683532 6.607956800155909
H 2.222092317820146 -2.626165332960877 5.334603808524277
H 3.574841309101076 -0.043172424845034 4.407352450969729
H 2.571997861829717 -1.197456256552553 3.507934692621916
H 0.503712513770638 -0.360085802913490 4.802991714345720
H 1.615038939929366 0.546585231687193 5.739211448008979
H 2.072633915052319 1.971091125018197 3.752579329024181
H 1.048117053378973 0.901602520342517 2.798625613667480
H -0.305386279230423 5.182700794829730 5.798901536225980
H -1.477923815218174 3.985534681597637 5.747894136827431
H -1.089602993605778 4.710458909092468 4.219372761569025
23
maple-route1-mmgb-reference-mlip-reweighting-v1 phase=gas replicate=repeat-0 sample=80
C 4.254414308888665 -2.336568133597268 5.649481640643685
C 2.846363526215254 -1.851696497272282 5.634527874943604
C 2.667175111841292 -0.655293488171558 4.619796346755541
C 1.407973930769009 0.214245469623270 4.828087971237361
C 1.245275179656710 1.321522601057098 3.752182583306686
C 0.045574720852226 2.241086644609035 4.031738156230348
O -1.026482666449323 2.113177639490677 3.460434632506028
O 0.323775088585565 3.299962993509396 4.909976433672125
C -0.703489368696781 4.241309271675053 5.100417161831218
H 4.374735126219073 -3.108893119772613 6.403928167441900
H 4.530029450588787 -2.875692936675239 4.704938066586787
H 4.934964184738856 -1.544447665357943 5.965468271710538
H 2.653435971604456 -1.396604288008787 6.581413235679195
H 2.142198433685721 -2.713533871944855 5.421124262438949
H 3.561048414070749 -0.058457798376388 4.669923025944626
H 2.597480471734384 -1.084838243286079 3.623812096163715
H 0.413865966200488 -0.242263430124298 4.921713222522234
H 1.563454940628991 0.710848520916568 5.775178126827610
H 2.233764439006895 1.841429424224222 3.692092229981963
H 1.105797485877080 0.787134176780155 2.808757803378037
H -0.447657936883810 5.082798594554870 5.707873710003085
H -1.573886032415857 3.831669326674256 5.535279374806025
H -1.065279314211287 4.567374470133459 4.134717380313925
23
maple-route1-mmgb-reference-mlip-reweighting-v1 phase=gas replicate=repeat-0 sample=81
C 4.255043925539094 -2.352929792741016 5.712842000095874
C 2.759455145178654 -1.790400008389299 5.678604424646930
C 2.602551806905515 -0.601817066762741 4.698354355765520
C 1.380964536639014 0.237037524826634 4.935367892608559
C 1.274014138541261 1.361432157680171 3.806782712660465
C 0.100292372499022 2.239753649179958 3.944325436572118
O -0.964946498181225 2.057981312382209 3.423551542593946
O 0.353914859222602 3.301472583762413 4.750588194037441
C -0.711063661055356 4.159146100402180 5.060273557296782
H 4.395316893933115 -3.177122911096230 6.420582137780130
H 4.479882640112760 -2.825299004168695 4.757031241064217
H 5.033992754687503 -1.613469730372678 6.016369828243484
H 2.380582683365627 -1.359246802453804 6.622800216340944
H 2.066052611948703 -2.563877881441989 5.319156998450824
H 3.550291460998296 -0.031524215172284 4.901606928501849
H 2.569185711011730 -0.965880562443532 3.690735045636175
H 0.466501786754880 -0.337502556236904 4.685653210029832
H 1.278923662784022 0.591881524695671 5.991862877555069
H 2.211278918366424 1.908624620757668 3.924323123350180
H 1.341267162581858 0.899819128608491 2.769272909324009
H -0.356426270601332 4.847860945708832 5.790580012111217
H -1.651380399627538 3.688665376923985 5.371563823037507
H -0.965525781892000 4.659709521697113 4.181955113156286
23
maple-route1-mmgb-reference-mlip-reweighting-v1 phase=gas replicate=repeat-0 sample=82
C 4.123978813609062 -2.354181199297543 5.739965086433218
C 2.771733128674754 -1.757507358225683 5.792142847058789
C 2.647748210687435 -0.578312142331439 4.778579962810553
C 1.319399831300283 0.198657069700058 4.853484900953214
C 1.351966146305032 1.358434481760879 3.814351699052969
C 0.130254881910323 2.241797722082903 3.868658400406763
O -0.943173956640948 1.926670942497982 3.371890897452967
O 0.389635288276268 3.344165781233174 4.695856425876866
C -0.748415352009044 4.216594880843517 5.058940485835475
H 4.220846278488856 -3.256729851868016 6.372264409580461
H 4.353960165517564 -2.640525621951880 4.728491245759683
H 4.822438647730710 -1.616076156432904 6.149807938791652
H 2.495822930727000 -1.380979213612606 6.797706562595950
H 2.126166253726625 -2.524522047125420 5.477824893951134
H 3.479457987497915 0.095269900804435 5.060838022364451
H 2.739652330784692 -0.954938248813939 3.748283936090142
H 0.434116830060566 -0.411839442104891 4.698620473543166
H 1.270983034779597 0.699320397826434 5.867241335692105
H 2.190107669987948 1.922717244119173 4.179459968627298
H 1.590748505416993 1.017627722726163 2.804253884697812
H -0.353734698399797 4.840691151805371 5.872138014377747
H -1.684610428627620 3.661531597835398 5.343358325681833
H -1.028403205216269 4.810339484753237 4.185186524193347
23
maple-route1-mmgb-reference-mlip-reweighting-v1 phase=gas replicate=repeat-0 sample=83
C 4.082421312816157 -2.420889952244332 5.819285811524065
C 2.717762181605750 -1.706388451205313 5.881707756183462
C 2.715614478590227 -0.533140894421173 4.879914880849129
C 1.341365338644955 0.201260057443056 4.733165813333622
C 1.441235990740621 1.392415413459735 3.792908311741539
C 0.146044533656388 2.261808583160452 3.867905567134089
O -0.917857607898900 1.899534059860965 3.368997415713169
O 0.337585351965830 3.322788245638111 4.682673003146554
C -0.782450352267304 4.215504346182753 4.966808164776497
H 4.083400573654367 -3.290626091067435 6.467142381654712
H 4.394942261966492 -2.696595426274815 4.796900970252667
H 4.752411988746621 -1.724671043221782 6.297101407004754
H 2.618013463705941 -1.302105534298712 6.870109050991906
H 1.910637684354553 -2.444281265062578 5.715626880113565
H 3.475940646482110 0.166706754655425 5.144420963403254
H 2.858431178284252 -0.951198428801418 3.836959603905847
H 0.627583391755150 -0.539494022835549 4.349543872531894
H 1.011885366980483 0.543915622743571 5.731941430416292
H 2.389613176040005 1.946848827127016 3.916091357311696
H 1.316309994549185 0.936152719029971 2.859051057124904
H -0.295734568522943 4.917400263591140 5.704177068604080
H -1.652212674502430 3.660207724038624 5.402178913217580
H -1.174097605486671 4.763247752431229 4.031184600427800
23
maple-route1-mmgb-reference-mlip-reweighting-v1 phase=gas replicate=repeat-0 sample=84
C 4.063589889868224 -2.536717903818142 5.985498820021332
C 2.701340215809486 -1.635577371840774 5.919844964399502
C 2.770295681446857 -0.490278433584838 4.908489345292747
C 1.370770730510839 0.174265791476600 4.642303910765309
C 1.435436579929867 1.423821935617146 3.714581378226860
C 0.156433837559678 2.259833270140637 3.899158974781546
O -0.918830658841274 1.965689479044945 3.377914482533885
O 0.340393748822661 3.314301859623238 4.712657213595543
C -0.807819549563685 4.155805510887605 4.826070045193150
H 3.871838287498925 -3.337244827212602 6.694140161920775
H 4.147475577087462 -2.994898833440151 4.968842867190149
H 4.972436092969662 -2.020536681120326 6.294905385136781
H 2.435285699267314 -1.297025824041521 6.913263270524460
H 1.857218607686382 -2.326758821895583 5.608920848317248
H 3.383306272764453 0.320173029582490 5.312292129370571
H 3.106017902125107 -0.804438295585447 3.927533273584202
H 0.696737171464442 -0.679629185018955 4.366530940227761
H 1.041518889974738 0.520347897122589 5.631551388453748
H 2.249688255743724 2.089365972072212 4.070592931031376
H 1.563559032307533 1.202987276176437 2.633592966396861
H -0.472611492602318 5.047855831765723 5.404558823251095
H -1.574947636023710 3.600098142683911 5.387768489793922
H -1.319816980292448 4.456176401694502 3.851034056723983
23
maple-route1-mmgb-reference-mlip-reweighting-v1 phase=gas replicate=repeat-0 sample=85
C 3.918076547135015 -2.523831071930771 6.125370469031899
C 2.705179582500834 -1.656423088772300 5.899086489391070
C 2.875783762152609 -0.482948371210645 4.899241836733962
C 1.442045527288716 0.177497715446693 4.625244419382995
C 1.427179204112941 1.400158063996535 3.726725330464928
C 0.155021304840168 2.212037407293010 3.918936079908141
O -0.870647417243934 1.940756483981685 3.312513327874287
O 0.306638198443217 3.337470400432336 4.678554233156854
C -0.831451637409708 4.204714782680740 4.804901220957769
H 3.714731097622301 -3.173007710124454 6.995545177201534
H 4.021230893069137 -3.091998072738654 5.215224537855239
H 4.825815679552049 -1.913529600872348 6.335784806707087
H 2.536352993898681 -1.246363366238784 6.929674985978052
H 1.824484817530870 -2.257553862427536 5.665798505621065
H 3.489838379281414 0.319590918295298 5.356495852952116
H 3.297311954271208 -0.771503125379330 3.981005184816975
H 0.949157074650674 -0.656983365256568 4.135984101204994
H 0.839746344723842 0.368336140751582 5.533483149387342
H 2.206902973697619 2.079162730804529 4.084142705278699
H 1.609752381707315 1.093746856130335 2.635798991031452
H -0.613557914951311 5.154762325877105 5.281383610717293
H -1.611027147679071 3.685187129526297 5.374329926628000
H -1.374968741449362 4.453857351145890 3.893637302321285
23
maple-route1-mmgb-reference-mlip-reweighting-v1 phase=gas replicate=repeat-0 sample=86
C 3.866983075485341 -2.520261123858174 6.213579496954416
C 2.647699830770601 -1.624984331578068 5.969892997038579
C 2.864436148541532 -0.522120234813790 4.898433114567167
C 1.502270724887661 0.144520202256384 4.591830077350053
C 1.514984161087676 1.459131164217351 3.800563835499022
C 0.142760778781946 2.201367116010621 3.857649021127681
O -0.834691032449441 1.849461085190916 3.237012912883501
O 0.249353554811213 3.372330616731192 4.584026282143311
C -0.826488718306720 4.248332343916256 4.856499558049730
H 3.724304920016257 -3.179110370512952 7.103677886074729
H 4.112397015903352 -3.081366724651637 5.320389426476781
H 4.726071786639541 -1.843740215894986 6.427145940467588
H 2.290702226743981 -1.248487841457617 6.950582735443225
H 1.843776991537299 -2.187771390520278 5.566124550320214
H 3.554676092369564 0.272249609134226 5.182545857585852
H 3.280193409474223 -1.028697021423055 4.004183953950977
H 0.819259916428507 -0.579895344377854 4.194067843453936
H 1.010600058767715 0.477509430593588 5.510622354904745
H 2.348835780692570 2.111344815293669 4.133221387739717
H 1.633980829185514 1.095051488024133 2.787314350037719
H -0.639725825258330 5.107061036493646 5.487261294375655
H -1.704998696927190 3.675250255601095 5.195864260840331
H -1.199691072456211 4.698792302284415 3.982213199044063
23
maple-route1-mmgb-reference-mlip-reweighting-v1 phase=gas replicate=repeat-0 sample=87
C 3.884945580079963 -2.495102963000846 6.293580653209912
C 2.617003123449660 -1.654710637187938 5.992780015316706
C 2.720218411629116 -0.572700612858045 4.893313390578349
C 1.443413445530009 0.183658258224743 4.670395592916905
C 1.556558212359431 1.544801380585915 3.803987742915218
C 0.221662441301916 2.263494959896033 3.745506347002253
O -0.789643594671719 1.844291888605097 3.245050578555985
O 0.309919596800461 3.362638733159756 4.563603018180928
C -0.850341705503716 4.134794373282201 4.780944052989842
H 3.664777041780247 -3.179154335829168 7.121337378642654
H 4.314344155015900 -3.054017492709900 5.406211439403066
H 4.682747162293666 -1.843007362565285 6.645123798159861
H 2.293867801447842 -1.182081929425345 6.906078383152011
H 1.708930277829411 -2.211187567404964 5.655036742163585
H 3.462879141439128 0.170210875734090 5.195107784917480
H 3.151158863404578 -1.089916355362326 3.947073753735074
H 0.654605709976548 -0.513422610402674 4.297896175122840
H 0.962132593481221 0.559799232550146 5.556932103854193
H 2.310038449622536 2.216455525125541 4.263996067382711
H 1.853031658039475 1.287236154909136 2.832936584041057
H -0.788961587873034 4.909177683669508 5.532642694399190
H -1.716539900472383 3.499850724142521 4.892869402376613
H -1.031465745804172 4.733602537113765 3.882718199529902
23
maple-route1-mmgb-reference-mlip-reweighting-v1 phase=gas replicate=repeat-0 sample=88
C 3.880787080760970 -2.398382216577133 6.315817221890434
C 2.545399452757327 -1.742255565633546 6.038255027647272
C 2.645488065604402 -0.587419102262840 4.926236512929551
C 1.383657222343800 0.286662217364646 4.783847015867789
C 1.591363486655188 1.440893861501372 3.749452654215291
C 0.354362326222986 2.318396176943860 3.706898171039776
O -0.678899690647126 1.908658875327337 3.218505838961224
O 0.338617556140328 3.342597824446162 4.598047302598082
C -0.943858587685037 4.074608830664859 4.691703867001541
H 3.727815958298407 -3.244645255010082 6.990460738343946
H 4.271841439123106 -2.765274823053292 5.336742807167193
H 4.672053091304363 -1.778369760296583 6.734122979588120
H 2.148890881141206 -1.316738849288364 6.953194390454161
H 1.716424574365705 -2.421570989543473 5.691896502753236
H 3.520418082740861 0.079281062219070 5.168348494798252
H 2.920496299537643 -1.034212367581103 3.960496247188718
H 0.623713279130888 -0.394316068501855 4.309858955457756
H 0.859166711281256 0.715509339315184 5.624152159213535
H 2.424292414344144 2.008576306665919 4.080574621008007
H 1.801062517325384 0.961858684308443 2.765779063142689
H -0.884255388717909 4.895437603339295 5.415560441745239
H -1.769807319896532 3.375552735489187 4.891902431096420
H -1.092082542853971 4.653251917934254 3.715873748802343
23
maple-route1-mmgb-reference-mlip-reweighting-v1 phase=gas replicate=repeat-0 sample=89
C 3.835118911233889 -2.336666768554706 6.290362649364019
C 2.453221641873414 -1.745679282329979 6.049174158147483
C 2.621071241954595 -0.612399122660346 5.001828264205157
C 1.400641548956866 0.305583333134240 4.854655132035833
C 1.602294948780235 1.405963351809433 3.805748259386925
C 0.342994022725647 2.281343905288220 3.727411631216367
O -0.590476009485083 1.916171235858894 2.993072127758866
O 0.338699008353564 3.338557444270762 4.599627263674564
C -0.926493168768820 4.043332209862694 4.687861603656245
H 3.749373926043075 -3.234130360780101 6.912978548342767
H 4.276258786414209 -2.569313168010136 5.354642693525594
H 4.550956682040260 -1.666842116388425 6.799696918062034
H 1.985138014284570 -1.377544798491562 6.996747507385574
H 1.756336320402735 -2.418826751963298 5.649094996518972
H 3.448566620697924 0.066124516168401 5.288812775859371
H 2.903058044035953 -0.952731878552104 4.052740365624546
H 0.457706801962546 -0.212406880840834 4.786088224712343
H 1.336501808055583 0.946486572992697 5.756042621728835
H 2.452843096675822 1.988757302468992 4.156755403964534
H 1.774989778953587 0.935818278041227 2.789598830018313
H -0.741767972415627 4.931802314772948 5.354097347661659
H -1.675117349195643 3.333805604766473 5.164387474887196
H -1.205142196375781 4.509196908151369 3.688675974403121
23
maple-route1-mmgb-reference-mlip-reweighting-v1 phase=gas replicate=repeat-0 sample=90
C 3.803183975773738 -2.388137915029273 6.318816081457932
C 2.458573554692401 -1.703686240311820 6.014019562376083
C 2.614622068195862 -0.579667248764318 5.077632463922919
C 1.404122313556488 0.358957130870302 5.025187317870003
C 1.606755896343605 1.427793030707765 3.903626984313522
C 0.316143594313912 2.238561834179854 3.659699549764369
O -0.548364514721709 1.987231513072568 2.825958413880180
O 0.314576996991187 3.237813135794442 4.532944558338258
C -0.879976611072787 4.024907459504731 4.670530292566787
H 3.622576728228769 -3.191599140544991 7.028512082632999
H 4.393753703506707 -2.664236678272285 5.472124721381211
H 4.399208807554121 -1.668908457324212 6.892887128412437
H 2.043372234011379 -1.311487590722165 6.941968953906702
H 1.726650695015215 -2.358117956175180 5.621319207622655
H 3.504966747248861 0.025633023923558 5.175398342353104
H 2.629615086136119 -0.909984559966642 4.036443882033317
H 0.537765060054765 -0.272498689371017 4.748599580448657
H 1.148149775641903 0.781097829078073 6.023424501928737
H 2.461572301721518 2.123390612112592 4.225659148466509
H 1.785989919662593 0.974059872190434 2.937356228320546
H -0.557695642215013 4.898528990913110 5.297921884261850
H -1.578586332438081 3.446350157039143 5.303077428660554
H -1.270587625588562 4.436092044513381 3.747798460751148
23
maple-route1-mmgb-reference-mlip-reweighting-v1 phase=gas replicate=repeat-0 sample=91
C 3.807344208824519 -2.502596785853415 6.408034716166307
C 2.489596138406893 -1.702282154527581 6.134926942759794
C 2.654240216759325 -0.558070554655068 5.095090649271116
C 1.359405165610125 0.381736171562752 4.983181470292996
C 1.534516628913872 1.365590070123631 3.862512728650405
C 0.343562442557254 2.254366314357335 3.617528381817993
O -0.485065455709893 1.995865086445956 2.768960186251999
O 0.295526163864887 3.266612019000513 4.566920216585531
C -0.902564859219880 4.091838667328187 4.600927006326917
H 3.650319801232907 -3.345319458287652 7.079659958049524
H 4.233240172917157 -2.794445039352135 5.418340461446322
H 4.525426639513604 -1.851635709715437 6.864549461007302
H 2.030331540997057 -1.312344751318738 7.021055749098716
H 1.774881920740770 -2.474792254026007 5.703765944584807
H 3.382201395485511 0.182031370201871 5.441531754973576
H 2.989961054214454 -0.714673494361902 4.033783431994986
H 0.411012106666685 -0.206488973365285 4.769350582010903
H 1.172698888943553 0.840653979028896 5.961703628165983
H 2.312597102181173 2.055074310170117 4.241986541072761
H 1.823095915941455 0.950529762696825 2.909769406094175
H -0.805480399097096 4.943843706955841 5.245929843998915
H -1.690688218423328 3.539479962091988 5.082812378384539
H -1.220481447903954 4.486083828471747 3.644774879842952
23
maple-route1-mmgb-reference-mlip-reweighting-v1 phase=gas replicate=repeat-0 sample=92
C 3.776937204081904 -2.541618010717298 6.398274625340425
C 2.500149028989159 -1.713558721096353 6.240917269532821
C 2.703752987134221 -0.538709417791018 5.298055839532100
C 1.424223609573662 0.282601030878025 4.898486630586999
C 1.613443384098032 1.345689026618215 3.778032043443314
C 0.345352860373493 2.275151277943594 3.636300856896697
O -0.526464383890025 2.071989785519610 2.820212106286506
O 0.207277387401429 3.304395273950607 4.549530220582558
C -0.909749980038411 4.122297917761956 4.458348923389186
H 3.587199903311801 -3.341748275363305 7.135802232042661
H 4.044636522499426 -2.974151889182575 5.406384049945129
H 4.613461716967993 -1.954364110760750 6.774386422774926
H 2.130956539271672 -1.234870742683476 7.176934983212843
H 1.693380894328058 -2.421988376758033 5.878760197038716
H 3.479467018908720 0.163434925562879 5.597479033904834
H 3.040888983555853 -0.825781677911116 4.340454655402938
H 0.595529651058331 -0.326096963252640 4.520493779011257
H 1.037743133593276 0.725673469308440 5.822108808136433
H 2.406985048784567 1.957423868364385 4.064252457974716
H 1.840495173362149 0.890660443840115 2.786058484994533
H -1.036885024977054 4.859778147102983 5.221625253243964
H -1.832474351097267 3.561241484169409 4.602548705675210
H -0.977083493881974 4.603899997759812 3.466679904590140
23
maple-route1-mmgb-reference-mlip-reweighting-v1 phase=gas replicate=repeat-0 sample=93
C 3.727341430890895 -2.605232955275957 6.390156317635475
C 2.500096327546151 -1.666814560239070 6.305560034804004
C 2.739779419467394 -0.467909344835253 5.351321841254403
C 1.445112693785803 0.180756975494211 4.824352872007265
C 1.594474161401370 1.449333938117005 3.857121515635317
C 0.327182518084654 2.270102931732083 3.626373111600103
O -0.565758917740509 2.014018695160192 2.816505574341830
O 0.214235312626505 3.276935337790313 4.516062205524366
C -0.874848738067160 4.143935437135909 4.384849286123422
H 3.547857508809260 -3.314417258140387 7.215242048392504
H 3.921461483803444 -3.146079920155149 5.478052162690201
H 4.642610129059495 -2.029482566638800 6.675456476530469
H 2.328908786401795 -1.059091615103718 7.269257020646562
H 1.602223098716891 -2.217160845728246 6.061934309089901
H 3.444163587839359 0.273094015763307 5.720629317022060
H 3.242121151089847 -0.784931052252102 4.479118839266004
H 0.728123839395331 -0.413762920092951 4.300072499705051
H 0.934942144735487 0.512445768976557 5.741764868172913
H 2.380387596660436 2.115176904615345 4.232739517682155
H 1.879747962214576 1.054802233279988 2.885937461454099
H -1.120313046453375 4.770026475098524 5.272520718811641
H -1.827772234627945 3.653752482770152 4.173684846255737
H -0.637597832928776 4.766429274809725 3.498126744011535
23
maple-route1-mmgb-reference-mlip-reweighting-v1 phase=gas replicate=repeat-0 sample=94
C 3.654175475639458 -2.599954019659550 6.411339570564341
C 2.545122368382295 -1.573235858311922 6.342224537416698
C 2.724503989780055 -0.394122026580674 5.265240818703608
C 1.386140829322385 0.186386026566029 4.784645674861486
C 1.612459126087731 1.452300840817453 3.931015000142137
C 0.316340307615840 2.149550009134857 3.652062284138675
O -0.488992515223885 1.864256600786959 2.782012410817775
O 0.235792333648230 3.258266161292543 4.518936214953665
C -0.892618675764716 4.245552714587428 4.401055174337377
H 3.479712383779306 -3.348360253218801 7.185174647737433
H 3.656865789229742 -3.112464185540947 5.454669131214647
H 4.641500785893036 -2.153533632555528 6.541344592836628
H 2.297828425707996 -1.044707941256528 7.266535004638514
H 1.675791996454535 -2.112326731150668 5.985403465485419
H 3.358163113875539 0.400638737454399 5.674475438740493
H 3.383581701322234 -0.681919217530178 4.385352127011322
H 0.743784771699174 -0.391086912954033 4.089883860273904
H 0.740216558249024 0.461522503611687 5.651904333812181
H 2.231125083812616 2.182261161820127 4.579854851718789
H 2.151564918853018 1.178741613243367 3.034154723402408
H -1.011893846297554 4.865538290210375 5.335918135933367
H -1.895553038423245 3.786634976484140 4.236778067315134
H -0.607124723226309 4.871508430429346 3.521501324417705
23
maple-route1-mmgb-reference-mlip-reweighting-v1 phase=gas replicate=repeat-0 sample=95
C 3.634269731375904 -2.509364333141569 6.359591295845638
C 2.472920414506695 -1.535462711040802 6.315745917034300
C 2.704160913041553 -0.455444699205241 5.279656448174387
C 1.423320812511803 0.184302588837165 4.807974805236642
C 1.620261034726460 1.477910328293214 3.932657433223077
C 0.327615005403330 2.178298484654199 3.701530754652205
O -0.407053577527973 1.846122155557288 2.833408693709117
O 0.184102528988180 3.264362776100194 4.529004335935439
C -0.885460467637348 4.159746325543795 4.329573703872930
H 3.427447586426960 -3.215242385845162 7.163713383235754
H 3.822587321179980 -3.079640343569348 5.432884910958128
H 4.521490220787480 -1.965750527647688 6.589496776061629
H 2.417228300425071 -0.986532210151201 7.184245247819112
H 1.481781639704341 -1.988755178450309 6.127424228589033
H 3.434034706653617 0.315692210406532 5.631334717582015
H 3.269403905994046 -0.845173121202930 4.386205982765389
H 0.917905488680408 -0.457379614586644 4.062355981463703
H 0.720038557409503 0.375632438834207 5.635381232012495
H 2.228293670771293 2.196075477386099 4.489244933836273
H 2.096505296615288 1.171720730645705 2.956675853427964
H -0.739997780166425 4.866494550252165 5.157600006103903
H -1.882181607651215 3.678027558972233 4.539177099804425
H -0.754676080692701 4.606932796211406 3.331961702553452
23
maple-route1-mmgb-reference-mlip-reweighting-v1 phase=gas replicate=repeat-0 sample=96
C 3.684856181515632 -2.506630507865623 6.431110790347693
C 2.440687476449876 -1.572453791329200 6.304156726082949
C 2.691503497667734 -0.506373181839433 5.237897854650519
C 1.424627325400253 0.233177699244168 4.797307853483562
C 1.734799968954570 1.474158902655548 3.960531586554361
C 0.378002591884360 2.242041245060273 3.704632137696903
O -0.447620836097344 1.927453706592892 2.829298693254316
O 0.191043778031418 3.299275707811722 4.563867080908086
C -0.987207578673790 4.030432562065291 4.251178365888213
H 3.421160105356137 -3.282135040985348 7.158980785457248
H 3.944317827714790 -3.045655109449052 5.502033019363911
H 4.585988258603652 -1.944760410473491 6.740467178464820
H 2.109261644731871 -1.113770649771277 7.246100410264706
H 1.589619182395061 -2.113199866589457 5.918517314518171
H 3.411312289170271 0.286659325781478 5.521518587055205
H 3.143464565638145 -0.906350048947928 4.350258938511042
H 0.697609872506195 -0.399390064909816 4.319341108197278
H 1.062867473295879 0.700654478173173 5.745523450034531
H 2.331544291896178 2.140944748284932 4.510970969734755
H 2.209639342197540 1.145768803519171 2.999591181216029
H -0.926057033429235 4.898979790072628 4.849823002408406
H -1.865143885385095 3.489137573422990 4.628597050170796
H -1.058083135968943 4.232728438956889 3.191504926410796
23
maple-route1-mmgb-reference-mlip-reweighting-v1 phase=gas replicate=repeat-0 sample=97
C 3.696467244912183 -2.510358485292027 6.585536765118640
C 2.455368658463644 -1.717296096305987 6.216128005649407
C 2.723116123939594 -0.558723382217810 5.192677421437941
C 1.421649391321653 0.371775507323587 4.954981412780947
C 1.682830555483566 1.523551936918714 3.982234512390147
C 0.428987305147446 2.283643445126673 3.641560976455776
O -0.348239498873556 1.856579479348303 2.787986555574113
O 0.206163148249769 3.358753599742550 4.432347778273739
C -1.120638688546325 4.033370098818922 4.293436751432573
H 3.444273597836308 -3.331909363404190 7.286355910713170
H 4.077765802758623 -2.979795502232916 5.677892399649396
H 4.503036731775873 -1.808236774522085 6.985341855625977
H 2.044068511377253 -1.321011276052067 7.236693867165854
H 1.644772750818723 -2.316726353439317 5.821347108099737
H 3.493358537171963 0.147600775343592 5.475435529408038
H 2.989127699645031 -0.855907282785592 4.176213018812781
H 0.744091003297748 -0.346876408104021 4.481921234268972
H 1.015185849518042 0.738462690513018 5.929976338770214
H 2.408067285453287 2.292146194356336 4.314080324243873
H 1.945313492955377 1.083303333422752 3.070944775349318
H -1.209333036937810 4.833279259590112 4.988711414604642
H -1.938137129754088 3.399882155476319 4.555201152048632
H -1.371182444749538 4.358261342174043 3.276553245746952
23
maple-route1-mmgb-reference-mlip-reweighting-v1 phase=gas replicate=repeat-0 sample=98
C 3.724062290895420 -2.477270431987823 6.690360080775255
C 2.443741285934862 -1.759276418032585 6.149141387990397
C 2.693922387873698 -0.609838071042561 5.221266405836977
C 1.498567959789757 0.460587523672428 5.098236311776231
C 1.741014142211279 1.562228735522401 4.012655157425501
C 0.397128719142903 2.256598722708225 3.555269400510378
O -0.353560937775026 1.805389531432457 2.697749904344229
O 0.154124338612475 3.385086527410280 4.300346820116903
C -1.152698500169768 4.001644427119242 4.343636833584220
H 3.419864439780722 -3.315328172738086 7.358901712234319
H 4.278387575068426 -2.916951648224573 5.835269661558188
H 4.381954849734571 -1.769671637912680 7.227192372237438
H 1.862536520637689 -1.425449857565275 7.038913673215610
H 1.699625683123048 -2.378577830105152 5.564727876451743
H 3.483260557183950 -0.012350972402143 5.600739996036444
H 2.916645175102508 -0.874854628793821 4.166580232867044
H 0.626013460303421 -0.211206856092303 4.914531902603229
H 1.389968421401040 0.973692729051411 6.044327997486484
H 2.347862078082704 2.403759724824436 4.476790864086762
H 2.246756207119040 1.196293338584564 3.136912934786188
H -1.286697396514005 4.702865021765134 5.208574285834937
H -1.948373721949661 3.283891753866511 4.394515136475148
H -1.422945425150432 4.509256417316616 3.408040428665649
23
maple-route1-mmgb-reference-mlip-reweighting-v1 phase=gas replicate=repeat-0 sample=99
C 3.686785589947731 -2.401820590939840 6.709938858489313
C 2.402095646391648 -1.771612761799750 6.157446373384766
C 2.717897305767091 -0.543599384469846 5.231161865443336
C 1.556593941025841 0.523942885898304 5.147943783385883
C 1.723887054371873 1.578784679338366 4.028951657243224
C 0.386917672080532 2.260115969820676 3.569688273647965
O -0.319315316813786 1.794999925648039 2.697524570903013
O 0.104656607255138 3.343181094403043 4.325693352932548
C -1.132496716594059 3.880044547528274 4.246019397417524
H 3.417120443372906 -3.274994573660097 7.314390833454675
H 4.339308958526324 -2.752307452282326 5.877244318491447
H 4.174357918692543 -1.677672459315894 7.316260170063450
H 1.718467120182245 -1.540922483324858 6.923261323956638
H 1.869075872372536 -2.433013931267988 5.406613574388502
H 3.617844238397921 -0.009143788905818 5.608564421673662
H 2.877068954283255 -0.888666488040249 4.212321814834200
H 0.700100696462050 -0.134456490328715 4.975562118994405
H 1.440958738494204 1.125418659495306 6.057214464419602
H 2.406513234727324 2.314655558433341 4.432957979005193
H 2.210888778325165 1.097314267688006 3.110500231889600
H -1.291779501422650 4.667165643480366 5.030589182105095
H -1.926726325945640 3.102627202376948 4.215024786519252
H -1.261885548442707 4.305083872609492 3.250861048312746
