23
maple-route1-mmgb-reference-mlip-reweighting-v1 phase=gas replicate=repeat-1 sample=0
C 0.909318513059541 0.220769567331582 0.165622660665749
C 1.110684228014159 -0.053048898305315 1.656960388093346
C 1.289696589864793 1.238441099610634 2.590278632554766
C 1.544815052801822 0.878106075115571 4.094356843059066
C 1.407530232618826 2.153146080480088 5.001654490200541
C 0.995537292810783 1.692346545343173 6.387923828915140
O -0.153944870234091 1.579503327997063 6.766467155723317
O 2.042445832808726 1.112837975675916 6.996499016541384
C 1.758292787816964 0.222619029278521 8.102816482338632
H 0.647644215717619 -0.677267132926562 -0.378044557366360
H 0.111382547695940 0.963775866448425 -0.067541082335615
H 1.869593698409338 0.532887089192790 -0.243638508418514
H 1.938521649259036 -0.698939034858776 1.846610688199569
H 0.248764769234099 -0.640670335510225 1.942291430366302
H 2.076359853086958 1.839795668476722 2.155359484657023
H 0.403116802132402 1.865261033257052 2.556451403470148
H 0.796099733544162 0.120517955637919 4.427957240531064
H 2.536825968250604 0.443034753248845 4.205489241275686
H 2.405600329519041 2.661631185094520 5.011538914808405
H 0.563302088455740 2.832201015344551 4.633243853776513
H 2.670944666484422 -0.206440506636539 8.524584637903674
H 1.194762966000685 -0.650703605148562 7.742189483055110
H 1.221191920116462 0.717371485427594 8.905908853594617
23
maple-route1-mmgb-reference-mlip-reweighting-v1 phase=gas replicate=repeat-1 sample=1
C 1.050727766872747 0.195315013735506 0.247123190940445
C 1.221862890895511 -0.128693300349569 1.747784014400741
C 1.268242145994719 1.139304240404647 2.550467279278714
C 1.558723945811389 0.967673975307241 4.070458176176157
C 1.403422294323889 2.191786869949152 5.013917370375021
C 0.931409114637850 1.753295838617278 6.408497551893760
O -0.252228667907300 1.511272511286101 6.629671060274650
O 1.990136942922871 1.122358161017725 6.989529316068253
C 1.730199788140044 0.288129785808498 8.125119096732540
H 0.721643590065131 -0.683285585180917 -0.298512546742852
H 0.221793385393538 0.861194410719558 0.103000976301863
H 1.986287199532694 0.633223315897426 -0.245949678946323
H 2.116289590355532 -0.660917478687057 2.001816325846214
H 0.378708952341911 -0.759506622440720 2.039250554678932
H 1.926162351074282 1.815440963852239 1.981483719682819
H 0.306401569944416 1.598925356713365 2.508045923275815
H 0.882770706212998 0.192612356537366 4.444215927273380
H 2.590237463284848 0.577444103362445 4.164006920498057
H 2.404219738039713 2.675578157902841 5.092047272096806
H 0.684298860152508 2.974654792250986 4.553296506243342
H 2.689235998859203 -0.109693020606000 8.550043886331789
H 1.136904266927210 -0.589918343690599 7.809214815403341
H 1.252841091844904 0.846408903404998 8.888210887646933
23
maple-route1-mmgb-reference-mlip-reweighting-v1 phase=gas replicate=repeat-1 sample=2
C 1.184591910023143 0.089826911759459 0.306046029840498
C 1.346905140800564 -0.142692783505551 1.813475628196808
C 1.237009657007917 1.172004081602777 2.627498063500973
C 1.551534504207074 0.989246574949830 4.070999835098860
C 1.330802361217885 2.211101333072024 4.919395291709797
C 0.909483523223034 1.666617447093944 6.283842757298844
O -0.262976077375192 1.497182614324081 6.511947391952063
O 1.938008682389560 1.167341221332090 7.031680106848680
C 1.646139692381822 0.358393892931814 8.197826913124707
H 1.064043347638501 -0.846095499029159 -0.306209852971745
H 0.244567598362052 0.612243627828531 0.115897102678009
H 2.024465821247503 0.734785828120621 -0.028332336255658
H 2.392095261249963 -0.514743628067618 2.003833118463338
H 0.658258453041365 -0.949566707353413 2.131237064395190
H 1.958762638352900 1.860584953673561 2.137281951654902
H 0.275567581470666 1.721023959047115 2.579331704423530
H 0.906296631283849 0.167595035568847 4.406181431935233
H 2.619510448853052 0.647645562899905 4.109189785072049
H 2.256352562921148 2.827049632203302 4.973070778810926
H 0.569802386474834 2.863910495530702 4.481110370495882
H 2.594103511075527 -0.071467790429861 8.562414328747041
H 0.954779846017699 -0.446946375018294 7.953468043220974
H 1.275377165903785 1.006839062641457 9.008625639302272
23
maple-route1-mmgb-reference-mlip-reweighting-v1 phase=gas replicate=repeat-1 sample=3
C 1.248968654175063 -0.018721993903333 0.299256508429159
C 1.520162039076603 -0.095932798796497 1.773533793340461
C 1.274999403301973 1.197764007097373 2.569240322418046
C 1.581405889544796 0.908427481225598 4.071106969163946
C 1.329251454822394 2.157950610405637 4.968348921728086
C 0.844464731554291 1.728572769170862 6.326336813148092
O -0.329311342090637 1.458765017197538 6.535619091902384
O 1.906594253889460 1.183646098504071 6.994025298610821
C 1.564362215332376 0.512755100741375 8.221164341554285
H 1.484041318182103 -0.986745960018612 -0.189897864394680
H 0.165193120043167 0.128231923413526 0.017242452567378
H 1.848337832706565 0.782760839916091 -0.065092560196109
H 2.544713559074514 -0.530302902134828 1.949993579200314
H 0.773894908391878 -0.812824703739675 2.142363565352172
H 1.784773638678121 2.062946044229292 2.111969940884858
H 0.192248990865802 1.474174504768292 2.526428857579941
H 0.899339237194181 0.085986103876157 4.401494419526564
H 2.597644345011322 0.558280270364365 4.097445820752988
H 2.171163129414304 2.812349963355468 5.064709842034867
H 0.607372926691332 2.751089730857825 4.512276912827446
H 2.443284543691041 0.097283526350185 8.677028134599658
H 0.806286996027377 -0.273048683668049 8.044213216644255
H 1.154587055742822 1.261677294865365 8.951609780537964
23
maple-route1-mmgb-reference-mlip-reweighting-v1 phase=gas replicate=repeat-1 sample=4
C 1.285169303401619 -0.074091281015400 0.184393595707827
C 1.699789180401811 -0.145978182381834 1.724029128540487
C 1.314570543788952 1.106300009502344 2.536134041403735
C 1.544398318350314 0.912259266105803 4.075457871566458
C 1.255433222327411 2.160580249824562 4.929012693928882
C 0.778308565013021 1.723891515159292 6.321547413706812
O -0.369480998489602 1.499740159742831 6.631112624004585
O 1.825637731447288 1.199306905066570 7.028319845637458
C 1.547467276694911 0.625333064229828 8.318883167256701
H 1.739370457642766 -0.905360641190161 -0.303105966192373
H 0.241050528744257 -0.275496227746407 -0.079779689063076
H 1.611557098881135 0.878218996111832 -0.254554081858546
H 2.784429767638930 -0.199425784788354 1.733293470507677
H 1.334848260213488 -1.042471062576790 2.206546730526844
H 1.960687002963853 1.892999255663381 2.161425348182288
H 0.329131603477763 1.465361424763165 2.287468152308972
H 0.938059469699312 0.074375120395491 4.471426368477972
H 2.586162081650124 0.689882218648615 4.122163535799199
H 2.115559089258975 2.737324791693299 5.072368243811090
H 0.576771788340799 2.808690307935687 4.411854479888289
H 2.508945061406588 0.364048788898510 8.806833846212047
H 0.909017773028426 -0.284906438197045 8.206147557894512
H 1.022206033420748 1.310864274288653 9.005827496518924
23
maple-route1-mmgb-reference-mlip-reweighting-v1 phase=gas replicate=repeat-1 sample=5
C 1.374264815317520 -0.106606027245589 0.178666453202055
C 1.902081402417418 -0.190795060488056 1.626211381150583
C 1.372415332873225 1.043603857497275 2.489725510533995
C 1.510554807513975 0.877910268705600 4.008316022178588
C 1.104621916153959 2.072132538996028 4.903003267280948
C 0.731883131882353 1.644884020421396 6.332098533069360
O -0.422820544893324 1.625418384397203 6.670778546489698
O 1.820970571685801 1.263500168807917 7.111233208143161
C 1.555791965935822 0.740557080597318 8.399213717024228
H 1.790613263831172 -0.873985589746752 -0.439170447213489
H 0.365707783261576 -0.432088111552322 0.209651691347524
H 1.431640423790692 0.927495932473437 -0.245800374113889
H 2.954939518920856 -0.266862721405998 1.584435669001183
H 1.498412042267407 -1.105132393166680 2.073720682039176
H 1.755655033685527 1.986176230239398 2.121929951218215
H 0.321109583486361 1.134404851440478 2.280728598112053
H 0.739160142906587 0.175690401757760 4.245041247746624
H 2.528450895872282 0.477851866195330 4.231430890945721
H 1.914383439061482 2.804736985002327 4.953820941952827
H 0.259952684531291 2.635557673559232 4.444632996048633
H 2.550405896232009 0.562932709330387 8.914472364083361
H 0.999153850308239 -0.198183265515728 8.299474035103252
H 0.950597915774285 1.364492406892267 9.048306444375857
23
maple-route1-mmgb-reference-mlip-reweighting-v1 phase=gas replicate=repeat-1 sample=6
C 1.473702220548439 -0.145349136774761 0.184985633904437
C 1.989528539437631 -0.123645197628232 1.612575911406995
C 1.359286879126745 0.966793499374682 2.472378653902080
C 1.453909912773333 0.674225488427215 3.989284295137969
C 1.049651234309932 1.952652584238376 4.832006590619970
C 0.686079264845699 1.689236688840686 6.332048447934799
O -0.466439679226800 1.626061945161707 6.764313201031054
O 1.792218507743581 1.379314393836055 7.081631502053285
C 1.548715262763224 0.889275317574178 8.439653884120116
H 1.927847450115644 -0.933650659949708 -0.459594824927447
H 0.425730637335439 -0.389359220546886 0.178604511415873
H 1.588199682872975 0.868507798995352 -0.205884107225746
H 3.056281596148051 0.111049282290680 1.482633760571832
H 1.870744066834513 -1.079877604592061 2.139608294559586
H 1.900534398297606 1.897465478636809 2.266056830232821
H 0.328476713406691 1.182954593388710 2.098446112539634
H 0.855882505443409 -0.197654464982594 4.303811336911104
H 2.551377183952245 0.531882925567591 4.172312095352260
H 1.972344851772623 2.629789470754911 4.795884460879303
H 0.232053739934131 2.566249989303461 4.362663539072506
H 2.476679554431948 0.777599057932291 8.980985447062496
H 0.988772955928474 -0.039626555943529 8.411205653848725
H 0.914152352629976 1.544173374364361 9.054280811341513
23
maple-route1-mmgb-reference-mlip-reweighting-v1 phase=gas replicate=repeat-1 sample=7
C 1.558422972481416 -0.164904867923047 0.122053320964689
C 2.101854830306974 -0.083485615664258 1.621115407114694
C 1.387941672047749 0.919506251539673 2.521142855441471
C 1.386489931076974 0.612217441151125 4.074543776255482
C 0.999788669942580 1.867212332091646 4.883070665418082
C 0.675294063158957 1.660024086637529 6.320418904952909
O -0.480450280325938 1.575645615288198 6.721966586893013
O 1.755799059375179 1.442315053564087 7.040472326468362
C 1.555537667314868 1.091112033216386 8.430253856714931
H 2.062230073551242 -0.992027492895886 -0.435992207232444
H 0.469721040128487 -0.448340217726698 0.030836740343207
H 1.699784129904909 0.775411707936257 -0.374416519242197
H 3.231442316569420 0.099517966342774 1.560008575394814
H 1.932712634010818 -1.048951412405858 2.119240486772735
H 1.648977653026297 1.968899455921776 2.298981632755767
H 0.352863366756117 0.844712678871713 2.130014890643900
H 0.569390472328052 -0.140307348717297 4.251203415028682
H 2.335899515661616 0.233587960794908 4.441310476839422
H 1.844234261693663 2.580697037376543 4.747133477736319
H 0.088855127502515 2.316559563693655 4.474551780103998
H 2.508711355785512 1.040235323776830 8.880318441999348
H 0.944767409605118 0.192657525037502 8.527923847310925
H 0.965029489145288 1.866375212738903 8.943327389609687
23
maple-route1-mmgb-reference-mlip-reweighting-v1 phase=gas replicate=repeat-1 sample=8
C 1.699693654493325 -0.139305589857938 0.192177409194897
C 2.146002786411146 -0.173056588908966 1.644382023350799
C 1.291140063635185 0.828030032435227 2.531054323725002
C 1.315787290588853 0.623745098841345 4.029268843694292
C 0.947860807673936 1.916090785737632 4.791515630953619
C 0.628189593251987 1.572483853728283 6.285929673882765
O -0.530241907454273 1.457351056133980 6.689377917760956
O 1.755468199009936 1.493065388656160 7.057466344392857
C 1.620037258673102 1.291258593492706 8.487546328691455
H 2.200295134072750 -0.929723421474563 -0.336893646726841
H 0.624379905763323 -0.402436304286262 0.109587492391402
H 1.846264237077943 0.863266855962794 -0.280501007386678
H 3.221368554143406 0.077600446037524 1.633478920874957
H 2.042949564698813 -1.227556567727320 2.006619617023096
H 1.829378612211343 1.780092328483618 2.460621517395029
H 0.334307807470236 1.063583828821918 2.076248555231902
H 0.577336310709615 -0.152746370127675 4.229180579654416
H 2.300296415502566 0.304445439749254 4.402931011630756
H 1.875185536031508 2.437530955972020 4.786673122944572
H 0.135383747437376 2.503293897660792 4.385834857316028
H 2.630106944934851 1.251690821988572 8.937833926943773
H 0.960882453034673 0.432925859704055 8.686635407837588
H 1.060068783890977 2.144689863835062 8.879239864229721
23
maple-route1-mmgb-reference-mlip-reweighting-v1 phase=gas replicate=repeat-1 sample=9
C 1.837455807675716 -0.151552862701112 0.230207881124245
C 2.064379210632344 -0.288064040458689 1.754059768337715
C 1.330645051991464 0.881642243708680 2.465611903207955
C 1.292062433221209 0.603624600612951 3.975105352030550
C 0.952965824047694 1.858558853457754 4.808077997362351
C 0.597178918334982 1.596146646744460 6.302125332061170
O -0.505453886951431 1.310247551171668 6.669596963648571
O 1.715638446747905 1.614890196591685 7.050390315021488
C 1.614555456712023 1.463170279423359 8.458233636157734
H 2.482596606382587 -0.848347884111659 -0.306284892298729
H 0.829045823400410 -0.386809175103011 -0.032259634662216
H 1.993364751281156 0.905783568271546 -0.120886983832246
H 3.102163284489274 -0.253364887140623 1.922280795308739
H 1.686830839727608 -1.264403011026371 2.103280817557488
H 1.633983554642738 1.907047737639471 2.215317775564652
H 0.321232764043919 0.822554168525612 2.057807096806511
H 0.504428369841363 -0.121447675796003 4.067666880876629
H 2.221428478382248 0.161433293421912 4.401151456691429
H 1.863222093497594 2.419538271836576 4.825355944463276
H 0.070083973009727 2.369899676418812 4.441015489503059
H 2.659221551277954 1.455429109623226 8.900210627225537
H 1.020724870808003 0.565332934026645 8.692365127069703
H 1.017298170434890 2.280475581333281 8.860900522260946
23
maple-route1-mmgb-reference-mlip-reweighting-v1 phase=gas replicate=repeat-1 sample=10
C 2.051899975963243 -0.189888908554002 0.174843309937370
C 1.933478125355340 -0.333709230653473 1.748659438755851
C 1.336858145989328 0.821055041978884 2.504305357115255
C 1.223443740872268 0.583544650676662 4.055279896174435
C 0.890720654753951 1.925674811749071 4.770368625698024
C 0.611135385862357 1.565619832313086 6.268449371465914
O -0.464879528500271 1.187257013146389 6.678760669029242
O 1.719207244847090 1.757206674362412 7.035758671544023
C 1.550954240612081 1.565133713840871 8.457587766789960
H 2.760712588442963 -0.951673761465326 -0.226904777735669
H 1.095438920671870 -0.292603974992592 -0.324591136791007
H 2.376829533260894 0.795527701421658 -0.113703977019359
H 2.950965448021268 -0.437732390947982 2.104104354026753
H 1.417034675539996 -1.240707038422642 1.982806618153388
H 1.946326089777902 1.713986092962494 2.363744697740519
H 0.392213395518290 1.102002132343467 1.993947842864202
H 0.543722973851769 -0.271901318613289 4.283805283551449
H 2.201730268390366 0.296740366825081 4.474267518765911
H 1.772740729770788 2.619091348055742 4.694671529681738
H -0.096598152080525 2.264781047943572 4.469107617885177
H 2.521633063532729 1.588704929003951 8.976344539055427
H 1.085986841328829 0.578900899404575 8.668526419444232
H 0.810336779216340 2.255172142175032 8.931384940764278
23
maple-route1-mmgb-reference-mlip-reweighting-v1 phase=gas replicate=repeat-1 sample=11
C 2.213917561972968 -0.174133937634621 0.247623351512407
C 1.890826356802299 -0.431536566254922 1.711533590084714
C 1.336520440439701 0.801288380619042 2.499752239679257
C 1.209800631004018 0.617833203669019 3.989715677067438
C 0.809466726785867 1.876883245747240 4.791731970257518
C 0.596614142362382 1.618363625618721 6.266868686287493
O -0.439399560789604 1.063722861970880 6.695308119482845
O 1.701741296162436 1.890736853964934 7.033072054911114
C 1.541189333837983 1.631097973903807 8.451495433990369
H 2.723535981159104 -1.053956214642837 -0.185621776351472
H 1.275080390585109 0.091831905357280 -0.310977567801635
H 2.837050328155235 0.688777037532890 0.113655576512229
H 2.806568287394739 -0.895571814144943 2.193785921337330
H 1.130477273364896 -1.205204351369736 1.648275346681678
H 1.980715037968595 1.710031082506374 2.354566562319451
H 0.353646821828096 1.103688176284166 2.077799451910419
H 0.471729212997809 -0.219669126603147 4.153016139838881
H 2.121071327179526 0.223379518635800 4.436015700277589
H 1.663819695651615 2.610528858565099 4.758196314735025
H -0.175805429899020 2.231687609509140 4.464152971368314
H 2.454153226898289 1.838774187441390 9.019946582601065
H 1.321726537498824 0.563637795427460 8.654869695395858
H 0.698197981168224 2.134555623086363 8.929518216273182
23
maple-route1-mmgb-reference-mlip-reweighting-v1 phase=gas replicate=repeat-1 sample=12
C 2.329100233604914 -0.150145707534423 0.311426645714036
C 1.798332652423942 -0.479578974851373 1.728394838654136
C 1.359593429854971 0.813664542697569 2.447081130099666
C 1.230257416844893 0.618151852574533 3.960802752651189
C 0.773438688773930 1.847997900723924 4.754119366682507
C 0.568417514604450 1.577607831576857 6.255113407957996
O -0.406834708974785 0.991231507700315 6.704060663800266
O 1.575912400408513 1.980269055447017 7.073373063514815
C 1.582800592467295 1.671329176508090 8.448997602758253
H 2.561066630845538 -1.072892571562545 -0.212203895454852
H 1.663940849016490 0.523193695027565 -0.285270631731112
H 3.297743299136391 0.388158547197914 0.335893892686659
H 2.650147091443696 -0.954497478495064 2.266253373435238
H 0.991718692710109 -1.271752735844903 1.654908283977282
H 2.099528535263717 1.610073177712056 2.231619484178157
H 0.410442490056656 1.195187602696082 2.047907984286980
H 0.497253155735391 -0.159855957993346 4.135523474968849
H 2.123340912914701 0.181831830313964 4.461712737885057
H 1.620932061031282 2.549828280809483 4.721459392140643
H -0.159444383665225 2.265722590406240 4.326929903052100
H 2.493356515849778 2.110292435447454 8.886363019809730
H 1.650754376020699 0.615026759212267 8.650566666897312
H 0.728810933551720 2.046377876422041 8.944339762754144
23
maple-route1-mmgb-reference-mlip-reweighting-v1 phase=gas replicate=repeat-1 sample=13
C 2.437928357470986 -0.171528796810225 0.316345708038890
C 1.772847593330022 -0.428508021867025 1.706985664723968
C 1.405950650148028 0.825458472193993 2.481777028556876
C 1.182712411844860 0.548025090952908 4.020058346038055
C 0.734807598013232 1.844874990654783 4.787274701347945
C 0.546883053607410 1.497163783399380 6.261586678799569
O -0.436053720506162 0.914873983685629 6.699932091657787
O 1.589159011625038 2.086982530896597 7.038292671801754
C 1.591001505675567 1.732595433213393 8.396760190065713
H 2.469196984082867 -1.111109867807045 -0.259268286737851
H 1.943730402655512 0.630065141745493 -0.218131439389330
H 3.514577212557811 0.142074172720550 0.352415909948720
H 2.376784017429565 -1.100297100931686 2.280022400864926
H 0.823374718653241 -0.981240078352995 1.482091249768486
H 2.201145384334435 1.548540585754617 2.296121819133333
H 0.489689891866814 1.254744127726543 2.064274526715317
H 0.539647805188955 -0.286006293719794 4.289601883735951
H 2.129081678680758 0.224629832932773 4.471868292695976
H 1.467663858363668 2.639627679809615 4.668514650247973
H -0.242249278541931 2.200157095325470 4.403897400566670
H 2.381959335653782 2.253470373647217 8.904006822869102
H 1.798836697389965 0.687659352342181 8.507893609080647
H 0.629059698267110 2.034601958539587 8.769807021161363
23
maple-route1-mmgb-reference-mlip-reweighting-v1 phase=gas replicate=repeat-1 sample=14
C 2.481620998444355 -0.175221328161978 0.353880291057614
C 1.749487526410770 -0.426100447057820 1.655915024097143
C 1.492256008992075 0.851695196844837 2.553044056754530
C 1.210212820751600 0.545777217166351 4.013431015701039
C 0.668750377575843 1.789592351214502 4.790475987787609
C 0.489255860138088 1.512423612635475 6.224467915639852
O -0.370156929830939 0.883527475399963 6.763416707152411
O 1.533788629174980 2.058613376545874 6.935817508685965
C 1.572081701999761 1.805849449146724 8.405294870172616
H 2.590265492777621 -1.069425991813607 -0.295326341459165
H 2.033658645924825 0.681139714158242 -0.145001632608125
H 3.499408981573366 0.146320478723221 0.529414306516429
H 2.360871405233058 -1.158864073531436 2.168041684312771
H 0.849116602558230 -0.934490910784125 1.401074488552974
H 2.366386179045991 1.481842365331965 2.452165713567917
H 0.593292087021276 1.414598611575121 2.230173147025014
H 0.437657521566904 -0.235425985318290 4.153632817941403
H 2.060878433302214 0.073135364441105 4.466039092904841
H 1.241249642144268 2.726123835760083 4.630172521673888
H -0.333032440959739 1.962821169803826 4.440077325977009
H 2.297802833118125 2.446088352115980 8.845550650351880
H 1.899417393184659 0.779972784679150 8.654299619951489
H 0.554760275616264 2.106945136745586 8.788773734786783
23
maple-route1-mmgb-reference-mlip-reweighting-v1 phase=gas replicate=repeat-1 sample=15
C 2.511465997381464 -0.141343590272022 0.372158216028929
C 1.764059139743501 -0.431917587584793 1.710018664925692
C 1.610221677312370 0.827598839558989 2.536443792212718
C 1.140604556805106 0.559314790413809 3.943596289445405
C 0.563186733755514 1.710135589500624 4.742557149984204
C 0.471699138802778 1.492375174959224 6.243147725250344
O -0.392326800854130 0.823363771500144 6.798113683860002
O 1.557542968958958 2.064041552061001 6.956489315832416
C 1.551075052745527 1.932300554237766 8.385850758266290
H 2.698463421195552 -1.057631937001462 -0.163166026007898
H 1.962553607463286 0.601886990452410 -0.244413848945804
H 3.464076565560199 0.298020363215174 0.518138503611346
H 2.395091887380906 -1.179299462328525 2.236148484831272
H 0.841477027667856 -0.894669835534982 1.504060566222342
H 2.647722389710751 1.271332001802002 2.520878836483050
H 0.870696577716866 1.498916447571503 2.088990849970020
H 0.496371414030994 -0.307357717182969 4.109950792004247
H 2.041085345053158 0.241844004769557 4.480141501456481
H 1.253877912946973 2.549150032507656 4.622876617547636
H -0.358753919442582 2.038294655271768 4.281465671132301
H 2.401467367242488 2.483659147406100 8.861823113005919
H 1.729626082136758 0.855587960436851 8.634661677453714
H 0.599499486800873 2.357838560341843 8.738732971823174
23
maple-route1-mmgb-reference-mlip-reweighting-v1 phase=gas replicate=repeat-1 sample=16
C 2.494893645983196 -0.163031353698121 0.330379828293308
C 1.888584494570775 -0.437256318241769 1.737485498555496
C 1.681423415917778 0.845058929874972 2.566663114633319
C 1.118372204783136 0.503785601214170 4.008210059043961
C 0.528535512528001 1.716243871163750 4.764160869668544
C 0.518933265144152 1.413712065778475 6.243796074294990
O -0.402283651243297 0.829913374354032 6.794312839800395
O 1.491758831357189 2.080236388148566 6.957634536178611
C 1.533224447621675 2.041951501546632 8.316140397502807
H 2.718831286002223 -1.095785489154779 -0.150517036536117
H 1.827722355185404 0.435946592752791 -0.273560602858871
H 3.447113299473340 0.392906663827009 0.357733618289451
H 2.497193475141341 -1.183659279855292 2.244240384114481
H 0.906117359227774 -0.922015728112656 1.508135165947055
H 2.680526913314772 1.368854449005430 2.567559039938914
H 0.875069832158975 1.437293454387530 2.092941250129570
H 0.254853909624337 -0.145474048894461 3.944318076813690
H 1.805289915674632 -0.158434038349855 4.604201622856055
H 1.078714839116104 2.629775994600707 4.563690063949966
H -0.479151007375000 1.899673267334338 4.348469298974411
H 2.549808684849226 2.387057014043193 8.679261817984532
H 1.518833550919830 0.993494209350605 8.629921319366414
H 0.757700907194481 2.686229989376672 8.738869596559473
23
maple-route1-mmgb-reference-mlip-reweighting-v1 phase=gas replicate=repeat-1 sample=17
C 2.473542562627945 -0.173072919389726 0.305031230000921
C 2.006694704472259 -0.426220691858245 1.746577910014741
C 1.669995650058644 0.850668678172381 2.612830211230728
C 1.031984459728610 0.402352471431083 3.964265044004688
C 0.580077258476367 1.675837189625433 4.768414769808102
C 0.441607013052406 1.450428029755270 6.259349180932022
O -0.427953680076229 0.812688422357267 6.844691098538132
O 1.493342807113511 2.096432558770593 6.870604471077510
C 1.527523907917565 2.138670213765177 8.322439167771767
H 2.714399752553731 -1.129995978476111 -0.200057562984755
H 1.749886845497360 0.380042337946677 -0.272420247360473
H 3.435228992160606 0.415220874614370 0.315311456572609
H 2.805543473593046 -0.980504792398496 2.215756643095217
H 1.161613930544910 -1.167652801576755 1.599693583895394
H 2.633941667170614 1.266101942382256 2.850468339473807
H 0.969376250104306 1.545890630777516 2.102090514895443
H 0.297710144884945 -0.410405007175012 3.925208851120745
H 1.867685368795410 -0.081024956157084 4.477889193748812
H 1.270343103836624 2.516269843416995 4.638209903050575
H -0.379347114916676 2.042316544033487 4.397348032664882
H 2.485605190061304 2.446427534682151 8.738052257850541
H 1.427147951301011 1.123273294632136 8.726621920131150
H 0.762621595383093 2.804521429701753 8.769057123421181
23
maple-route1-mmgb-reference-mlip-reweighting-v1 phase=gas replicate=repeat-1 sample=18
C 2.458785465014750 -0.094333541071669 0.312925495235704
C 2.100231747192870 -0.478336155934019 1.800036603071235
C 1.657846347252962 0.737814813480776 2.590984409935913
C 1.039160265436228 0.416781594744415 3.967692894214169
C 0.568023946776677 1.629120134556830 4.743739266391389
C 0.460958704361882 1.457844244438044 6.256973810097580
O -0.400013349631623 0.834749242259539 6.818806808733900
O 1.511575095688205 2.112591181474754 6.880172764245166
C 1.481397095021765 2.194540185257956 8.350156995624351
H 2.671759130719409 -1.021985086062492 -0.296999799395590
H 1.623091763967925 0.438646550026019 -0.214238018470490
H 3.336726464164062 0.553777850846937 0.242857958548400
H 2.939052539092334 -0.986435557041655 2.332758224341071
H 1.296178509978054 -1.196022030691323 1.702703318742262
H 2.448074698989317 1.437438091750562 2.627541258894510
H 0.791021551272786 1.018906658966763 2.026791141828606
H 0.187855583012043 -0.263162997855723 3.763749218300596
H 1.687887568123502 -0.186771841886399 4.557747839125658
H 1.211940370434133 2.526767843724764 4.570598121749637
H -0.462720734406085 1.842719635310635 4.414706979693505
H 2.296643963726366 2.714385233255498 8.756069440591839
H 1.452275183847498 1.202232435718356 8.828871757332243
H 0.592772723355326 2.766710009368381 8.704795085736944
23
maple-route1-mmgb-reference-mlip-reweighting-v1 phase=gas replicate=repeat-1 sample=19
C 2.469591182784811 -0.090569128415903 0.388091740130981
C 2.141078254252941 -0.532731839772608 1.782416045994142
C 1.528207949672529 0.668500443376842 2.555053325206067
C 1.052683335385125 0.391962858739314 4.024356795838820
C 0.543666605266432 1.645271118568598 4.713612921473896
C 0.559027816103333 1.422466703021669 6.250311520077769
O -0.366570194117078 0.877881792842380 6.778479280236327
O 1.469223209546003 2.180697374901716 6.920554902259244
C 1.429482245319413 2.188180920568032 8.300187056397665
H 2.769943244046327 -0.904621217661846 -0.298452053359311
H 1.567295240550515 0.403533844074859 -0.082246751181079
H 3.263148043471626 0.653429985963373 0.413086319312324
H 3.109978222666721 -0.746573943520909 2.293980781907332
H 1.563014189804160 -1.422104711881756 1.703493589881779
H 2.427410698339102 1.315640051848765 2.624039673197053
H 0.779768122742724 1.132252962741185 1.966459377286506
H 0.340021131807921 -0.439542643061644 4.048803515695687
H 1.899501584644686 0.046839128245529 4.636739460991841
H 1.267315505644952 2.447797224905317 4.481331054672861
H -0.478612305979146 1.902447208319967 4.334950243548261
H 2.188853743885923 2.903683957834997 8.636101337084417
H 1.516968448341356 1.193084119321519 8.752081386147134
H 0.495163951326490 2.650855542481167 8.608682880537842
23
maple-route1-mmgb-reference-mlip-reweighting-v1 phase=gas replicate=repeat-1 sample=20
C 2.531649557910955 -0.164759667074528 0.335370830825861
C 2.142951892428814 -0.501666631611374 1.811577482741737
C 1.435407312384710 0.657050406229101 2.583603845318995
C 1.193855326419813 0.318779220937421 4.054210596563001
C 0.616796874009787 1.632124219173461 4.732034476445079
C 0.517344556913246 1.499447110616765 6.240529907959720
O -0.396447772898501 0.857300800922219 6.818707741205388
O 1.444482207905939 2.276565597574866 6.858921000676842
C 1.393564832254385 2.216743431207147 8.297776689215993
H 2.985775076433192 -0.977609869289293 -0.194742627253310
H 1.660709390121070 0.064177186065753 -0.264097542634603
H 3.238439684140531 0.691863021242143 0.302256556008788
H 2.947973316590418 -0.925487146978776 2.382380000460531
H 1.394616658014846 -1.309138778042554 1.661353880431892
H 2.041855502482681 1.603866026438134 2.430913553517144
H 0.447043505433132 0.789205359223681 2.092730593318714
H 0.457633291971565 -0.490726290094234 4.035677440490078
H 2.108265683893965 -0.073666202759480 4.621525536047229
H 1.323378797427023 2.448207357274935 4.531863041451053
H -0.381747226042539 1.863074281558477 4.312571983274747
H 2.088817875026018 2.996198396411157 8.756975779087492
H 1.578055617447334 1.192433776504093 8.659523992749696
H 0.406488281648047 2.474142074406985 8.642782425779792
23
maple-route1-mmgb-reference-mlip-reweighting-v1 phase=gas replicate=repeat-1 sample=21
C 2.558028769726538 -0.238134305823479 0.355840379019367
C 2.096039168596040 -0.572633289393292 1.811715845892822
C 1.376802646046563 0.579093901110781 2.507910601576119
C 1.261724261051862 0.384686913183638 4.022054520294761
C 0.648447376546001 1.623596670536367 4.744534218210062
C 0.480563111951276 1.533148271911923 6.241382362988864
O -0.366037179978818 0.852220485942470 6.802918927428808
O 1.351245685329012 2.319208102929982 6.863710087711948
C 1.408582622164043 2.318998666918306 8.360328475648300
H 3.188213805218973 -1.032343915594456 0.000340632998748
H 1.820295107910098 -0.177290179443716 -0.403411333144291
H 3.228981011113934 0.627155935497393 0.361286213130865
H 3.001377084462998 -0.754335932779572 2.367645493858072
H 1.531121915347043 -1.552903882125889 1.828911173111966
H 1.993475481797218 1.472471238460990 2.302781188557510
H 0.371142644685374 0.703728030635189 1.983533806439863
H 0.715965264697728 -0.565360599876888 4.210902096476421
H 2.282443077748381 0.297994937516623 4.444289900401209
H 1.298584650846763 2.476436662013565 4.502064251050034
H -0.370659754187237 1.709301563154738 4.391806846409039
H 2.130909049917756 3.075726341473773 8.705254298152498
H 1.685074097323167 1.299221818065206 8.702633697772061
H 0.438657973928247 2.514941350488630 8.895103135688373
23
maple-route1-mmgb-reference-mlip-reweighting-v1 phase=gas replicate=repeat-1 sample=22
C 2.549308837286910 -0.365901678529442 0.391435315264420
C 2.172225676311789 -0.658670089167867 1.812144264536818
C 1.364525114883600 0.512595487554111 2.470056240560084
C 1.324085795965216 0.508735007693332 4.045893254334747
C 0.565341556355160 1.680989888312301 4.690059672212057
C 0.510069407595329 1.497664352848000 6.268065786915384
O -0.342036424545992 0.802981697060410 6.780999358211607
O 1.336652628527749 2.409794190147310 6.919209550612307
C 1.379460656428167 2.413751245353173 8.342114666318976
H 3.165327940231970 -1.151214740436729 -0.089276941001344
H 1.646660172781913 -0.404111118016664 -0.240696872545492
H 3.059236184513773 0.560107805201841 0.303946556351390
H 3.120368701882969 -0.892629733295746 2.361872480581418
H 1.605696088817445 -1.590284591234576 1.813772363317579
H 1.769293391880921 1.460266417730622 2.136078359756851
H 0.348057268882978 0.454325403889462 2.035919366123863
H 0.823720376080350 -0.437410866997625 4.328068953021521
H 2.323715347057824 0.549997541887635 4.439577970250549
H 1.184510634877600 2.537584051210223 4.424950768712478
H -0.461244329912817 1.678777565913448 4.318676913823196
H 2.053560125262500 3.185384388143102 8.665705607542868
H 1.711609086643727 1.412699059801858 8.660943175740529
H 0.395236697013413 2.554488688981454 8.883896732030205
23
maple-route1-mmgb-reference-mlip-reweighting-v1 phase=gas replicate=repeat-1 sample=23
C 2.517149572888397 -0.502087869788932 0.360672503079317
C 2.212116400768894 -0.646370098966060 1.917102161153321
C 1.325703441754039 0.468343597836207 2.508936014539801
C 1.403600843393762 0.531324623583024 4.063303080106254
C 0.529265268928171 1.716009628779622 4.678138592383508
C 0.469692919117143 1.588773314439620 6.234632553325913
O -0.206136687692304 0.772729952675553 6.817300946552196
O 1.311274799877569 2.449486931402195 6.876517440275461
C 1.288499373653663 2.420624216827612 8.265965312079443
H 3.069227970571142 -1.292096074232139 -0.162118864106973
H 1.523785935091742 -0.556546008687765 -0.159458429010716
H 3.044352408419586 0.439821344044963 0.139256413919785
H 3.198573020794592 -0.738589864338032 2.391947187331604
H 1.744252586098215 -1.583683475518777 2.102457850763753
H 1.679117732689320 1.434779183750680 2.153999631905051
H 0.337164043740145 0.378785092916442 2.149663898582180
H 0.979601204158599 -0.432650531824762 4.356625512853485
H 2.457404939585903 0.649043939276059 4.330612191776825
H 1.066472661510024 2.619167640936133 4.433942318957743
H -0.514891466120066 1.706619371597908 4.307873069960893
H 1.887358475614716 3.272534423441302 8.641211367722342
H 1.615013768696515 1.468804247974473 8.651362164601510
H 0.328829055325250 2.536382237345114 8.685258999425800
23
maple-route1-mmgb-reference-mlip-reweighting-v1 phase=gas replicate=repeat-1 sample=24
C 2.371915874031096 -0.590564048154612 0.455190989026068
C 2.276923719307347 -0.590502392695191 1.986122247209713
C 1.373563416673564 0.457046945845592 2.533719264284251
C 1.420976418355308 0.546272442914333 4.098911653487273
C 0.548148110129039 1.666111270094952 4.681969205286053
C 0.496515086709660 1.583250083811441 6.155165003947772
O -0.143032833507478 0.733571117058911 6.775153547759164
O 1.267686960754065 2.510249279798465 6.783943416551891
C 1.245948584026766 2.473363177346559 8.249519279417118
H 2.925675934500438 -1.442533753548367 0.103355533323962
H 1.428421095957606 -0.659922571387262 -0.075598421597787
H 3.029986716301813 0.301860566396169 0.155126212947457
H 3.287573302299299 -0.490339130651559 2.282664971572160
H 1.928396074940486 -1.553975059797894 2.374001575566358
H 1.652338237662090 1.445225873382569 2.140025530582056
H 0.384174852559452 0.311579860983467 2.147354799445732
H 1.043405340992010 -0.416863256974725 4.442321818420905
H 2.506448365585718 0.796419288995129 4.359553666558305
H 0.969450359319557 2.634004198202956 4.370941793350641
H -0.478283529686286 1.514557069526222 4.326761353252267
H 1.864241377078764 3.285235371332129 8.695493277553062
H 1.439431465596786 1.507523973173166 8.681618975361976
H 0.271786829344394 2.685186192653175 8.592294549345862
23
maple-route1-mmgb-reference-mlip-reweighting-v1 phase=gas replicate=repeat-1 sample=25
C 2.259781871145232 -0.677769413568552 0.502225179641259
C 2.392915586903286 -0.601878280798472 2.016050927641455
C 1.453927453462875 0.514201751847731 2.586563243465659
C 1.434817982204202 0.584020631110253 4.113481640870170
C 0.533292044234820 1.671398685588299 4.655864287842337
C 0.533768960585809 1.512644199916857 6.144918959838836
O -0.176830761590371 0.656566094470935 6.726341393575373
O 1.230942955875767 2.541708132257326 6.773696357213581
C 1.256744517620411 2.599266799654122 8.218080254028045
H 2.861365766690369 -1.503912758883566 0.087513337405003
H 1.256845399779178 -0.889769231008157 0.171987781784933
H 2.670516025347627 0.232421752307930 0.072971750192446
H 3.450170033982238 -0.535225572905691 2.206480018558276
H 2.009042396753625 -1.579072513182415 2.439609649302054
H 1.629527547719896 1.527025502061430 2.177055021133877
H 0.412223964078043 0.265515101666631 2.206303872665639
H 1.039060765447448 -0.383753206899185 4.465290900221870
H 2.462805748460676 0.844498336323766 4.414674482224753
H 0.911688380996855 2.681112018701204 4.341882823599754
H -0.479626807375159 1.471204175132687 4.278675209727582
H 1.883693135102761 3.392223635731805 8.549322781864008
H 1.472197801064241 1.615313949785818 8.654557423733793
H 0.219420177824473 2.824684658389637 8.557338454884453
23
maple-route1-mmgb-reference-mlip-reweighting-v1 phase=gas replicate=repeat-1 sample=26
C 2.222033731613890 -0.779165315175478 0.457643145256933
C 2.401045609084761 -0.582785414891944 2.018420191249731
C 1.493060955070625 0.518325450373087 2.568059102637934
C 1.544617356720110 0.555430205197889 4.110231008866446
C 0.540919487061113 1.659465853836193 4.669144219679437
C 0.422251301468126 1.559011975910492 6.176105508713158
O -0.156670731979077 0.703875846882322 6.786671531049740
O 1.205624896781921 2.502290731881494 6.787924725441443
C 1.211352811236933 2.642537942707322 8.165715349241292
H 2.898314077050323 -1.528563364261987 0.008890994024401
H 1.204454424907942 -1.196022394070793 0.278852093627046
H 2.300243796916116 0.117610650387416 -0.079307833870505
H 3.474233091814764 -0.212630307611501 2.139106141137546
H 2.276415674962087 -1.523919390321344 2.583503811258827
H 1.885032741404967 1.486001506375706 2.205291324747186
H 0.447076303678314 0.443510876503272 2.121475504223481
H 1.206490638960089 -0.434257006603696 4.463161101313685
H 2.545512576168302 0.804272089282001 4.392436280059432
H 0.902516301014484 2.667682841416075 4.411410308130860
H -0.470835306622439 1.555029613474563 4.241446874982137
H 1.796988122100645 3.528904086707090 8.368002366659351
H 1.629344543830286 1.719297161676968 8.595533108022105
H 0.132290394741134 2.759668630421137 8.552394141466985
23
maple-route1-mmgb-reference-mlip-reweighting-v1 phase=gas replicate=repeat-1 sample=27
C 2.223277727788635 -0.863531932444642 0.428498732718903
C 2.438688059152684 -0.560125672149179 1.917138102497479
C 1.556422101657297 0.517621156132426 2.530154619393520
C 1.590264803653915 0.564794186110059 4.108626338952453
C 0.514768600064492 1.559945703959289 4.670045436031195
C 0.413773711883428 1.569822232510392 6.192159305842737
O -0.185624222867313 0.762769506021939 6.861590762334508
O 1.187782792465437 2.603307980391321 6.775141255068226
C 1.168574842580536 2.654421206170124 8.233947754273325
H 2.990640763384813 -1.524322294640834 0.057424690485213
H 1.293294941150840 -1.450616442637054 0.324393011850108
H 2.072633680963722 0.030955531384801 -0.222155929336444
H 3.509145654145730 -0.246234798907711 2.066356653096480
H 2.238800603989033 -1.486607596397633 2.456151049910470
H 1.725836167484674 1.480591819271510 2.029293065431101
H 0.570536425282379 0.195145668942876 2.228716902629022
H 1.267532076531746 -0.413834957417244 4.426995230209309
H 2.573312192146241 0.807377787165313 4.515906001068505
H 0.793276001537577 2.549788794042798 4.369618837403174
H -0.481732486955428 1.339570698862636 4.260259038439409
H 1.755108866525443 3.566077706004245 8.601062002483740
H 1.684567812704821 1.735072064031089 8.571848078750099
H 0.151848449185158 2.614684618037098 8.624089020083851
23
maple-route1-mmgb-reference-mlip-reweighting-v1 phase=gas replicate=repeat-1 sample=28
C 2.185462923212662 -0.905279044560035 0.414209494027623
C 2.564425220123095 -0.578696907015644 1.851446825187242
C 1.505906901530718 0.465074830515910 2.524949780169816
C 1.523384891700904 0.580396130207343 4.052461122381803
C 0.536524476148612 1.523934783855920 4.707640255479519
C 0.516319775247093 1.523612313553783 6.226992339764666
O -0.212509154291798 0.802830977747803 6.887312191115686
O 1.107670644945166 2.632226784383024 6.803041061326121
C 1.168230096884147 2.699119564089379 8.248439691788565
H 2.976038505609096 -1.513382287996129 -0.054085591204277
H 1.253420788961792 -1.408956869227751 0.244129316266027
H 2.088750300998428 0.116225893541839 -0.130274386397526
H 3.507629491856238 -0.109607578456615 1.859636794075427
H 2.602794150699867 -1.543498556020567 2.405178851399738
H 1.844959767108726 1.436503224940300 2.163998625001074
H 0.529031533143988 0.303713110232644 2.143116654816148
H 1.453245320702309 -0.422546514654916 4.508427140930983
H 2.514271422615779 1.046789830743456 4.293638258144007
H 0.683532983161560 2.537673244838540 4.326439796527341
H -0.467391893085793 1.182665109315094 4.441551409031554
H 1.761234408161810 3.599206762736468 8.552272813938330
H 1.740868586102303 1.832279389896998 8.615912600430566
H 0.228855944715807 2.659986382914044 8.727112896918696
23
maple-route1-mmgb-reference-mlip-reweighting-v1 phase=gas replicate=repeat-1 sample=29
C 2.169771544231144 -0.916371105225508 0.408149165858668
C 2.554508164372364 -0.481883497929471 1.864995593846811
C 1.494034636217081 0.446526326882350 2.514529483203201
C 1.599015484847893 0.536854397330061 4.061730897258793
C 0.549053759861594 1.568039339875706 4.691225843651868
C 0.477979696566472 1.534510445122426 6.238608897010677
O -0.194948359867964 0.724491693262618 6.917707953550208
O 1.120651464795917 2.621954501978009 6.809015171228451
C 1.159645167730977 2.761474006215438 8.194507591972048
H 2.937483810935336 -1.668466472144296 0.055426865209530
H 1.181014013876236 -1.389028619263815 0.244995491448611
H 2.129077488157399 -0.052694340103769 -0.245053168071654
H 3.500217695207782 0.004904261951809 1.978299471192455
H 2.523331374278309 -1.423268316286869 2.434957719019917
H 1.483374707825907 1.397884299519106 1.985350709833225
H 0.534420781728508 -0.086846283226701 2.321848327098718
H 1.331337977216780 -0.497792685337128 4.421869924612244
H 2.644542279381139 0.742393428703379 4.402530168341817
H 0.822756938840046 2.605831219194945 4.367782303216041
H -0.476966795821293 1.403696483423050 4.343810860419985
H 1.652996797502317 3.647298513410375 8.468703180751438
H 1.751044480611615 1.994611460325855 8.698324910974490
H 0.167154743809959 2.760348593076936 8.668306058706159
23
maple-route1-mmgb-reference-mlip-reweighting-v1 phase=gas replicate=repeat-1 sample=30
C 2.212394311714906 -0.832405349424208 0.442973216640044
C 2.482436090019379 -0.452067794336337 1.902775708254685
C 1.366447696183724 0.402489931225572 2.567175320132937
C 1.556786747521450 0.499828534128535 4.139584125741718
C 0.574749508442231 1.521059304321436 4.693283129320748
C 0.521322154131703 1.527093712205535 6.200617940489618
O -0.099989937646248 0.687910759403599 6.839655906487594
O 1.194633056023019 2.590898672180594 6.755093971126747
C 1.091845032239717 2.787660191475772 8.163791355286707
H 2.887242599225564 -1.645491251269291 0.145643709053318
H 1.179875705893211 -1.239035842304425 0.377603702479530
H 2.171436425211902 -0.011462492137828 -0.205624641013849
H 3.363340566169889 0.259422551332293 1.958561188597651
H 2.701778901264747 -1.359063480204558 2.439755488253152
H 1.546093359845825 1.405970610908317 2.142674377773443
H 0.303168532450832 0.067790686054022 2.277016680958876
H 1.450929687372511 -0.498166857034681 4.627622040403708
H 2.569737549062125 0.829081545095487 4.376157638476029
H 0.984229703123095 2.501460499459140 4.406172239361873
H -0.479304739753213 1.456193183649301 4.362469636868766
H 1.538400995130695 3.715032045606029 8.448637355214675
H 1.629529316804278 2.119145552648960 8.801018905228627
H 0.017548690885232 2.848770576856403 8.460334634923328
23
maple-route1-mmgb-reference-mlip-reweighting-v1 phase=gas replicate=repeat-1 sample=31
C 2.215022605532140 -0.730641508764012 0.465299681476555
C 2.471941998616927 -0.453433044360787 1.950783589447717
C 1.337301916439214 0.396858521414022 2.605588612497405
C 1.467139467374185 0.534245449085321 4.098156676865205
C 0.573222422528318 1.526991404287481 4.669118386898804
C 0.632777411124988 1.480591393509533 6.198200083755657
O -0.021976472989125 0.674763235506651 6.833731149613661
O 1.235074664560488 2.571994889201736 6.729560516503071
C 1.019897193032724 2.777223862997143 8.148397590815220
H 2.974651376104318 -1.374733493778613 0.095733807535408
H 1.254904375671345 -1.215561089487665 0.375818225170478
H 2.073575651363732 0.208988934705181 -0.070142990727189
H 3.443339413139244 0.070871120038053 2.075802821229435
H 2.578788356084055 -1.467607820957070 2.390699885423991
H 1.198233692621036 1.403745504422008 2.099325357569623
H 0.422309199480529 -0.183431450597893 2.511691337773734
H 1.251631769054392 -0.432962453109364 4.522328501120933
H 2.506099192937356 0.688070401977219 4.396780380509133
H 0.796991570982454 2.518451112638012 4.283594521777193
H -0.464960638385102 1.179091521663625 4.506866334662144
H 1.581466060256412 3.689593058226526 8.528324200579652
H 1.469511201139720 2.014685733498908 8.801396118482874
H -0.050451581011194 2.929789558823516 8.298460168845006
23
maple-route1-mmgb-reference-mlip-reweighting-v1 phase=gas replicate=repeat-1 sample=32
C 2.212969084190465 -0.651053608888988 0.426771271810097
C 2.432294957277251 -0.470752262968509 1.952401652594089
C 1.338424443756353 0.312800508980874 2.554349056845703
C 1.462893987636688 0.497010909581370 4.048730211140871
C 0.528664122211054 1.600267146534654 4.678987429676230
C 0.573930317377451 1.497313797212163 6.233246778524434
O 0.056482814815715 0.605394525760182 6.898623626455331
O 1.196830433947126 2.589652969224688 6.743932150214976
C 1.053873621114153 2.767248393787589 8.164822055621375
H 3.133856900822956 -1.077414703949302 0.076869405818417
H 1.355479886357799 -1.224164943665462 0.154496113296113
H 2.062272658980150 0.385875515487066 0.023468350265447
H 3.368785634199493 0.005398632914240 2.145242703780202
H 2.488047586607115 -1.508221329121875 2.421285324475269
H 1.374666867197706 1.321101300018525 2.113490196365897
H 0.410716538838552 -0.113665645006088 2.318942977676051
H 1.532048749191322 -0.429085532307093 4.579884054288502
H 2.506609567381743 0.829361553827732 4.200923202886702
H 0.880748297735485 2.614271897170472 4.392171248444426
H -0.520037056835144 1.436444780388495 4.436697683363268
H 1.697923852712104 3.575962592039243 8.602678096193223
H 1.486289722599322 1.857470243656164 8.679554454997175
H -0.011516502667012 2.930319604866860 8.315761516544081
23
maple-route1-mmgb-reference-mlip-reweighting-v1 phase=gas replicate=repeat-1 sample=33
C 2.286188121083041 -0.615726473555007 0.297583448344349
C 2.418646407894411 -0.531484668311714 1.871766188526544
C 1.279701072156020 0.324248655557364 2.532767498020367
C 1.526926751804814 0.560919546597358 4.088769614645951
C 0.494924931484907 1.535722194056961 4.723264654565899
C 0.533713588530245 1.510452081740038 6.244888174875767
O 0.112517788749655 0.587815103381696 6.875485352825262
O 1.085911662999812 2.614387094505883 6.805498353144298
C 1.140104426188872 2.801454345741161 8.262658669967021
H 3.235346704589829 -1.060021354104457 -0.125982793708580
H 1.379928845708190 -1.200727566453159 0.003916670291369
H 2.111176144532465 0.394773621008221 -0.079629223357319
H 3.412648030444579 -0.169276047991839 2.153240081728297
H 2.388945992951558 -1.537388562178487 2.303081504445567
H 1.201745686339827 1.254480406364685 2.035045599404163
H 0.275937945496478 -0.091959177847059 2.354350631004456
H 1.420534259855032 -0.422742373100501 4.618586128058918
H 2.564170021418998 0.706502645090099 4.408401464976970
H 0.760863106460479 2.566364223462535 4.428265829535403
H -0.500825553961744 1.212012394061168 4.396818039299354
H 1.812690276187195 3.586608185082912 8.580353210016142
H 1.590119801421385 1.885377692924662 8.666631526795470
H 0.072739553338378 2.988913460437854 8.551823014196820
23
maple-route1-mmgb-reference-mlip-reweighting-v1 phase=gas replicate=repeat-1 sample=34
C 2.305280507726822 -0.567333402573363 0.252199915018054
C 2.376470088791032 -0.543810145335129 1.789739388509513
C 1.315245042636202 0.335075990591994 2.551156635527327
C 1.522426092093483 0.565329436879779 4.062205330553390
C 0.492179213808637 1.476114152316844 4.746794632472176
C 0.558865818899512 1.493610080082035 6.300516912318324
O 0.118606945935968 0.549565388226433 6.949210417596826
O 0.999245861671072 2.699639438961919 6.826337292240721
C 1.181669039030008 2.764031699296607 8.235953081668978
H 3.179091687015630 -1.199668448256282 -0.083047431147150
H 1.304125750525964 -1.067493271818212 -0.009067878277295
H 2.318442830023855 0.413825644122227 -0.202931664404443
H 3.419499947467797 -0.188290088297048 2.008477549176184
H 2.378258554013279 -1.514819593718806 2.188661944695276
H 1.217409832193157 1.288851894099514 2.034331157749590
H 0.258169774913703 -0.055369454047377 2.407914523157531
H 1.641160815544153 -0.369625641521060 4.649731263410700
H 2.505871877405738 0.924145143352452 4.263805001793426
H 0.729302799869816 2.470708855637507 4.379373372587999
H -0.481018227212378 1.090101963743886 4.380803675188522
H 1.776542087575806 3.606776348288231 8.569928002246010
H 1.717058175110202 1.896713283677256 8.517800309988303
H 0.190643306660342 2.823130436613916 8.678867513071427
23
maple-route1-mmgb-reference-mlip-reweighting-v1 phase=gas replicate=repeat-1 sample=35
C 2.240280888159580 -0.519403754823230 0.280893067783545
C 2.363154677386373 -0.498291052906802 1.812983050164808
C 1.375091623994500 0.395224758845568 2.520404022803702
C 1.543990788633333 0.528745096518829 3.994617221419381
C 0.481260664307553 1.452190458773600 4.779735307241905
C 0.582059202527532 1.440302066691321 6.316923337246958
O 0.150955426930749 0.562213544920875 7.048211772241114
O 0.957727066023773 2.639673892227147 6.776689128512443
C 1.185931830237163 2.742231607017261 8.179580727180904
H 2.982087833394807 -1.196716735214301 -0.112502206433702
H 1.229259478416268 -0.833001004925898 0.030332471074400
H 2.380240592528559 0.509289943631239 -0.193278786754082
H 3.377826473748549 -0.147452909909050 2.016746347410608
H 2.306760562051198 -1.472563573244568 2.318565670167682
H 1.343770831844294 1.396734888539701 1.980962823001579
H 0.356641973861234 0.033165374804413 2.336613799602120
H 1.698349005802437 -0.401651051815212 4.478820293906810
H 2.536305778569188 0.938665266619263 4.176774781399553
H 0.542839628741036 2.445124717520235 4.362017179492923
H -0.466927127635867 0.975459646350570 4.506358110749900
H 1.525349505610150 3.755543816040559 8.463797985316715
H 1.954875892093022 2.052865574346095 8.528842926998571
H 0.304207469330782 2.607178314503733 8.767505019493989
23
maple-route1-mmgb-reference-mlip-reweighting-v1 phase=gas replicate=repeat-1 sample=36
C 2.173994196132727 -0.488539800840773 0.291662878117677
C 2.371172437685367 -0.429861821523508 1.828367245181049
C 1.362353799742562 0.532135457715717 2.521519402496358
C 1.546620751518178 0.542721748908598 4.066966660191990
C 0.408582082536169 1.324926283789472 4.796596517965214
C 0.587103366829726 1.379914755891664 6.294859461616664
O 0.215279416178236 0.471099788629373 7.017074510810697
O 1.028385619249994 2.609433113008993 6.714159979698064
C 1.197340846516918 2.802172745493553 8.169079720517249
H 2.815069703110348 -1.190686962820985 -0.232133844313826
H 1.151867978401398 -0.666230321379836 0.082401894911817
H 2.348807761510767 0.540535425847003 -0.123148026258435
H 3.400216611198092 -0.228116384880191 2.094159801076613
H 2.152518679189896 -1.416455672132375 2.342853763958681
H 1.424206872000208 1.534315828055590 2.077964229462938
H 0.362465869785731 0.265567458716395 2.272611875687689
H 1.557191650532131 -0.451993120021634 4.433775142201944
H 2.535604766381869 0.878078856995632 4.441218794740554
H 0.437951484561802 2.329508200135769 4.373176782920055
H -0.502064360456743 0.862732278240134 4.487597076514682
H 1.260989723380563 3.865078646631863 8.424035025148534
H 2.113262810760720 2.321840940086198 8.620081620123655
H 0.368921052795686 2.490823355634461 8.829504305944374
23
maple-route1-mmgb-reference-mlip-reweighting-v1 phase=gas replicate=repeat-1 sample=37
C 2.103646864897956 -0.442152579771753 0.318446467066562
C 2.332304400342500 -0.365578997748104 1.812391337483038
C 1.389551866748231 0.596469808709601 2.558155162084621
C 1.499367114188682 0.546568661655430 4.110546833562358
C 0.334406677060186 1.289812859469290 4.792864983534418
C 0.597412536113523 1.345863590849336 6.316027178852223
O 0.337154440666979 0.391727906904829 7.028116415400794
O 1.075687511983390 2.571509278137186 6.699151874323257
C 1.168911089350259 2.818940676028801 8.087256333936084
H 2.817785016147178 -1.215392199624963 -0.046210042124046
H 1.072635979133458 -0.656944186076741 0.012918435122265
H 2.405981143380389 0.454535586374699 -0.140140316192104
H 3.392283542332701 -0.113262144293539 2.004571076358809
H 2.230227722478467 -1.347807177706554 2.269479004482946
H 1.722276728974353 1.561702114891559 2.352214293875357
H 0.346437123985831 0.579066861871393 2.218403279546501
H 1.536075370246909 -0.552112246688571 4.425911553003083
H 2.443288952325958 0.931406581952225 4.498989429455452
H 0.396821773569029 2.299182570664862 4.367480849023126
H -0.584825269675029 0.815742517809152 4.467963345157858
H 1.176150467473323 3.913354827305581 8.212496664549850
H 2.092983923895774 2.381939696795135 8.519377739744288
H 0.335707084845763 2.442407453579720 8.709447983858960
23
maple-route1-mmgb-reference-mlip-reweighting-v1 phase=gas replicate=repeat-1 sample=38
C 2.062925678091580 -0.393870153400197 0.315517926982189
C 2.341978645916054 -0.346434268510108 1.840369260910298
C 1.430055710345316 0.668600789909818 2.557984131064729
C 1.436395541599153 0.538806238906361 4.062746382513692
C 0.315406147451659 1.275839277913519 4.836856763767654
C 0.639282925032279 1.327131125515351 6.336175173221643
O 0.483793693305843 0.390129044583558 7.079371535138851
O 0.993437631473685 2.538724087651934 6.663174476178324
C 1.180709183703913 2.804272378838961 8.045354329646281
H 2.749115032131173 -1.151818666287002 -0.107103895663723
H 1.010411326938696 -0.706316072229026 0.083263306865669
H 2.262019921454845 0.505164553768145 -0.217382388803642
H 3.424562529632111 -0.160650656614169 2.080994293544713
H 2.149019033772831 -1.306217832668525 2.249431809724303
H 1.508253887509033 1.741845281157511 2.321420214089269
H 0.369830675274907 0.332982286463884 2.346256997244969
H 1.400269147848554 -0.598153191603533 4.237608103539471
H 2.417970710689482 0.851231478641661 4.449579160923064
H 0.210566757574647 2.274300405929875 4.409414213784880
H -0.606907088442070 0.659283527050376 4.666483479103649
H 1.463997364249176 3.906906325693508 8.117757231125463
H 1.947872075070661 2.113556558771454 8.372795935940413
H 0.279898942654843 2.578136681729847 8.639821593520429
23
maple-route1-mmgb-reference-mlip-reweighting-v1 phase=gas replicate=repeat-1 sample=39
C 2.084919737967495 -0.355222271983685 0.312151751982789
C 2.286940821621837 -0.328559151500808 1.815341606674427
C 1.320831700765614 0.620166647184722 2.502775634016955
C 1.466005803280430 0.470399103586516 4.086276425470269
C 0.327111638688102 1.170618882924165 4.827872062384858
C 0.618782741323393 1.317868286301063 6.330087038703720
O 0.583102673477402 0.356788522460728 7.091562399635930
O 0.900093744483466 2.606075381357378 6.650843402347811
C 1.261802005814793 2.861165547888129 8.110523564252714
H 2.742147467575160 -1.008868029337162 -0.238634228825297
H 1.059116756379856 -0.663496497928235 0.179214877250252
H 2.170122533258547 0.687576512652225 -0.156710863856455
H 3.230356143322819 0.151775915112592 2.038656947560179
H 2.325934943651161 -1.316814626994323 2.287072193775510
H 1.635181487016620 1.722159769922468 2.311486253316655
H 0.267293896022381 0.489929792969730 2.198155206961089
H 1.615259750987790 -0.532813620753997 4.386288310905101
H 2.384121312531406 1.061559935257022 4.374013142043942
H 0.194834527249094 2.168700905842729 4.352666475654513
H -0.570033899672225 0.528398949143048 4.640144064340681
H 1.794477703002862 3.820055800583489 8.259022525208362
H 1.813446381910735 1.975914797842836 8.432209391796345
H 0.324638314403133 2.808420056714050 8.707874238381144
23
maple-route1-mmgb-reference-mlip-reweighting-v1 phase=gas replicate=repeat-1 sample=40
C 2.084257482594475 -0.319823882252392 0.241315143718172
C 2.294451936541559 -0.264142711137638 1.741189085013597
C 1.269172403235062 0.556273774836277 2.539509374161681
C 1.508964070742903 0.527555952263495 4.097631384976793
C 0.266052796144571 1.160361308018032 4.876512734372384
C 0.575031464820609 1.309897213804003 6.368957248361538
O 0.666249561174303 0.353774785437928 7.091061450562838
O 0.908657758501778 2.559572007724263 6.705485507033366
C 1.291166677286933 2.898559374120296 8.065097180872993
H 2.855636550736511 -0.910028337139999 -0.268637527071196
H 1.106563235435365 -0.767548072790420 0.077023856188210
H 2.068668697176043 0.708690252595792 -0.234446678191273
H 3.272497314117688 0.032451638128831 2.067200351448085
H 2.150046173623340 -1.326760757468991 2.095254812030713
H 1.179108783572137 1.600433674696425 2.222356848311164
H 0.325815040988858 0.046995768375648 2.423132461596203
H 1.513883982307800 -0.485333699099544 4.355552254356787
H 2.455392394029642 0.975307122481292 4.405512151130415
H 0.029761875247262 2.143517584131844 4.411206606154784
H -0.564316314997590 0.486327000727008 4.724262850284743
H 1.728443171805057 3.868967578793190 8.113388508014175
H 1.944901167380017 2.119653881150044 8.493128445511509
H 0.378039339160381 2.836368157639842 8.667680975205890
23
maple-route1-mmgb-reference-mlip-reweighting-v1 phase=gas replicate=repeat-1 sample=41
C 2.039901966620560 -0.238529498570595 0.205277824244306
C 2.337748461029508 -0.246217427165686 1.736929836134919
C 1.159477800771820 0.446756389444233 2.545284741387871
C 1.403774753135160 0.588621518143433 4.030495994728271
C 0.243187322464268 1.149593695080906 4.917489916065475
C 0.654341987845912 1.273081744039000 6.417895597360078
O 0.708510093082661 0.332298119823332 7.189542966052082
O 0.966151429860913 2.566343121496562 6.697782142513919
C 1.292530839444803 2.846545959733481 7.989577059038608
H 2.954271743468058 -0.667433033532247 -0.243735046190763
H 1.123430811792044 -0.785610768637831 -0.177537284804781
H 2.034108742025135 0.757815187248953 -0.115159882975777
H 3.257226247102766 0.339928088037240 1.978421613344738
H 2.543808073451519 -1.270381141167723 2.115781957242929
H 1.171824942530628 1.418686081143769 2.233846060136805
H 0.181007179555016 -0.025581734841146 2.331596585324550
H 1.689857567324605 -0.381617249103886 4.509341422006081
H 2.210081160641253 1.288255288817784 4.147934760037187
H 0.074860198209933 2.118930150579262 4.488968228515692
H -0.619469825673468 0.525912568373384 4.762405941234935
H 1.524646769317093 3.927099027695091 8.108206174890970
H 2.133017818875988 2.277400268365283 8.401479064907335
H 0.459756000603999 2.623103816178947 8.626948980493674
23
maple-route1-mmgb-reference-mlip-reweighting-v1 phase=gas replicate=repeat-1 sample=42
C 2.047175112104016 -0.160411803689206 0.214191462122827
C 2.282298750447042 -0.152805594795136 1.723244508642420
C 1.040445365203491 0.394751008448833 2.530134023991444
C 1.434333215566155 0.595580387012012 4.014252137534538
C 0.255005017458499 1.036394788383778 4.915822125304131
C 0.728693281792211 1.251828366779108 6.362196022508998
O 0.698177744502170 0.365752889092505 7.188388652783550
O 0.993207722198714 2.569389215416964 6.666049825280481
C 1.351230873563171 2.842332459957471 8.072957164092108
H 2.972283811975280 -0.532759003117926 -0.231146281128933
H 1.206866843926078 -0.846680812738794 -0.014826951458970
H 1.851414325537388 0.842511693055656 -0.127902213411862
H 3.208788180334391 0.401636263463527 2.015027324746446
H 2.452351573830973 -1.157066494466694 2.073228615403909
H 0.601677848224428 1.289188083015652 2.063425811552778
H 0.304975358592480 -0.413413243618326 2.529574803372726
H 1.706788173015830 -0.384151849755190 4.551378877374025
H 2.282199576320397 1.315822727575766 4.133467902260566
H -0.066988797417332 1.949170664098536 4.470240423144491
H -0.528174418474416 0.254796736630969 4.866164056947818
H 1.428322509767984 3.980284342554870 8.238167360704511
H 2.330324465234884 2.516440480999188 8.412331619738524
H 0.628882664461180 2.488401256251015 8.835261725704228
23
maple-route1-mmgb-reference-mlip-reweighting-v1 phase=gas replicate=repeat-1 sample=43
C 2.002756043777804 -0.092496600132216 0.175853129131606
C 2.219727825115107 -0.066399619914551 1.693066629754829
C 1.008966519924151 0.253352663624099 2.574873227851824
C 1.500073902864529 0.540731086866637 4.040386181280915
C 0.277959079694098 1.016568618957346 4.969250994350484
C 0.695728760804103 1.269429110563501 6.389576798460878
O 0.734895316108768 0.342174779401144 7.189360365327692
O 0.992275201662380 2.572085322354757 6.643723170016797
C 1.385361551033393 2.855925165981847 8.037538496880195
H 2.884131447869124 -0.440620010328449 -0.345038039799786
H 1.212164026541196 -0.774426083326287 0.110207998911136
H 1.669253219377541 0.947781909765332 -0.189505037018945
H 2.933584385424403 0.726059787047203 1.870313063071576
H 2.707365356640880 -0.981459112870791 2.056174628802680
H 0.532186542438674 1.245728155210824 2.163992197609903
H 0.254997068752456 -0.519945667872168 2.577935884994575
H 1.962700911508832 -0.269355287177651 4.577628568530438
H 2.271592433205638 1.383263836890847 3.968605303339257
H -0.166841989459863 1.943995872256795 4.531239942766249
H -0.479028948930583 0.220161277836184 5.022024530952146
H 1.490343935920879 3.929385299958799 8.177893872974074
H 2.431774843757233 2.544119042105913 8.229081167667179
H 0.684768018953515 2.444499787676443 8.843897715449536
23
maple-route1-mmgb-reference-mlip-reweighting-v1 phase=gas replicate=repeat-1 sample=44
C 1.872504184040553 -0.030026028797515 0.149418583620190
C 2.282549288428045 0.029906224755062 1.683109235185571
C 1.101464621692577 0.211432739050623 2.623784414494409
C 1.415847347947865 0.502734462191681 4.075910821461665
C 0.257621162414098 0.997217470583329 4.921042494772469
C 0.712591056905810 1.228173208161609 6.433440261648693
O 0.846276997385080 0.337295125747547 7.273051711977818
O 0.947260493646014 2.540406165618880 6.653412729372544
C 1.385673086195715 2.896568886360554 7.925029820260335
H 2.768386267980110 -0.266043768178374 -0.458398045116855
H 1.105992171132500 -0.808207891412640 0.054941837290820
H 1.469664433416682 0.970521079643767 -0.110159905711822
H 3.005108270090608 0.828599048016100 1.791268174876010
H 2.848304793555366 -0.889977992046248 1.970092319523362
H 0.387389950880589 0.994880338518434 2.271458351646150
H 0.537999058695786 -0.744887029398240 2.719593192099156
H 1.799684707002186 -0.320137985345455 4.610105937044142
H 2.180256898883802 1.272220681821300 4.036061487082627
H -0.058006967630013 2.012503172654963 4.523748902489602
H -0.570863085883186 0.281269008810680 4.883727158327366
H 1.605251159474632 3.934643732666632 7.887983203522378
H 2.376742179652056 2.398960779955609 8.070146020205256
H 0.610260467971937 2.625472405788005 8.670633413129776
23
maple-route1-mmgb-reference-mlip-reweighting-v1 phase=gas replicate=repeat-1 sample=45
C 1.796841949639479 0.041037474414576 0.213310807310013
C 2.309773767416650 0.114030225190432 1.673729881639063
C 1.108173418282815 0.157439030565348 2.621458004273839
C 1.456450969115411 0.481825814116304 4.133016005812236
C 0.256205797480077 0.870530411380361 4.993584821892728
C 0.689615875107492 1.214261680269917 6.404175491862524
O 0.896199384570124 0.335573124236990 7.203471573294753
O 0.899985972404964 2.540033686019619 6.604206675422581
C 1.412018457177951 2.968286532918796 7.894122484345689
H 2.722518027508221 -0.029742501526647 -0.390647353405216
H 1.150653133130907 -0.870528505735047 0.030283302710523
H 1.289907078339847 0.929137640549620 0.010025106674279
H 2.994985859329851 0.977336423752648 1.827805532115169
H 2.898040986870288 -0.795170187200389 1.853570818544161
H 0.451104918317750 0.907829579246789 2.343866457050982
H 0.489192103858681 -0.785855245503870 2.606342681458682
H 1.876721462530287 -0.415759709234465 4.656029855748151
H 2.205008042993427 1.218247714094463 4.139263855210986
H -0.212452083172609 1.784929105833786 4.673441689660779
H -0.486106801068866 0.056103052000792 5.054820541324707
H 1.677662742496954 4.033541508602357 7.870975990309267
H 2.329535999311753 2.435156059505909 8.091055407613402
H 0.635319469973075 2.742252387578586 8.582472514457738
23
maple-route1-mmgb-reference-mlip-reweighting-v1 phase=gas replicate=repeat-1 sample=46
C 1.794262439516152 0.114152694638171 0.222565354924851
C 2.253602012428497 0.172601547688320 1.693243524271504
C 1.040404298407917 0.166408299717221 2.671409167001466
C 1.535492270989029 0.456904546842696 4.135166439885896
C 0.260781612835210 0.744894117542316 4.972465090166092
C 0.673650693341466 1.155290317281972 6.393037041262644
O 0.949597971368508 0.351478740232855 7.272481339049840
O 0.887408140640468 2.514500790883689 6.532336704449681
C 1.426910228916624 3.000813458497047 7.838352986048013
H 2.659653255507628 0.269441259417349 -0.403176469158243
H 1.330565035986211 -0.853381511701632 -0.008859040342922
H 1.084968806747929 0.927542033233531 0.050781723527163
H 2.814765697238355 1.113664927439089 1.910280179061614
H 2.905455034586781 -0.667106125170077 1.921777701501410
H 0.369216269072932 0.978858000382311 2.397837421209136
H 0.474579179371238 -0.740490665738241 2.608384663829467
H 2.134736167677652 -0.390487029078905 4.605247444365318
H 2.173666393740525 1.360895011463356 4.141203114639706
H -0.333062247772724 1.552662147221825 4.654042491937616
H -0.356878744711783 -0.149304897707443 5.063624546984630
H 1.594021449692632 4.105662444514479 7.917437688561297
H 2.352393466276505 2.550710457252998 8.062503104640690
H 0.694283966310115 2.710280619953082 8.561766091611613
23
maple-route1-mmgb-reference-mlip-reweighting-v1 phase=gas replicate=repeat-1 sample=47
C 1.790908262727677 0.174239941671026 0.192554413613300
C 2.230905067598802 0.225742211377429 1.662594026895130
C 1.043503082406486 0.234696614664269 2.677884715027050
C 1.475756130939320 0.472062804980841 4.101964647015314
C 0.297720301926125 0.681159261090578 5.070965274160376
C 0.747068135474992 1.099023266596153 6.476038477256934
O 0.988424768518487 0.357080356269585 7.410848573021093
O 0.901586901457233 2.455403936734952 6.497454523068885
C 1.370069091405088 2.993006453638407 7.653552946392611
H 2.610205487862046 0.339081804796305 -0.498447911805119
H 1.388285957557934 -0.784408077473455 -0.012049869366338
H 0.938967412598873 0.925381579217838 -0.019527073993825
H 2.764928184458504 1.137508007716014 1.922008438260567
H 2.876977378394159 -0.636114289884319 1.922315657800423
H 0.160564909153831 0.926098847909667 2.368736989541341
H 0.727941044450724 -0.780351186949969 2.644342290897455
H 2.101405664331922 -0.365865129930475 4.447883457493019
H 2.072396135868145 1.450103196371389 4.175631073777794
H -0.442568878795264 1.440196919780689 4.776725381293619
H -0.220830222015506 -0.243437138148690 5.202602212532625
H 1.389605352549236 4.070547147664152 7.631021326036796
H 2.384063969572203 2.636522009212682 7.909371954318748
H 0.637828230114767 2.683568488906948 8.454535535071821
23
maple-route1-mmgb-reference-mlip-reweighting-v1 phase=gas replicate=repeat-1 sample=48
C 1.758160022788869 0.194292882243119 0.158068888069402
C 2.191675127315482 0.318981068773757 1.583783214223692
C 1.049883710421484 0.227316295430394 2.647608935764445
C 1.429472728472079 0.492440266551486 4.114976998338216
C 0.309115636321588 0.478407888845723 5.142967081514479
C 0.754755377863881 1.027951508969934 6.510829589230015
O 1.042985157784548 0.364456583489867 7.463973956871039
O 0.923132696868807 2.405324665382534 6.491424411218306
C 1.376335506523985 3.115861666143293 7.650462781503043
H 2.641371618479369 0.261176374907932 -0.514516637877370
H 1.296735379991868 -0.801397536287947 -0.017223579535918
H 1.010334312894588 0.961727335794134 -0.147425091551783
H 2.526814021021704 1.310131928125024 1.792962830989036
H 2.985107958334584 -0.395570751760741 1.839910816526192
H 0.374511152344653 1.087510655388496 2.376773629424963
H 0.529960523179560 -0.774914749565706 2.469832681771423
H 2.187778024994722 -0.198555118090800 4.446189952465936
H 1.803501766428126 1.521335165735727 4.225356563795972
H -0.478895030746245 1.205134024677190 4.846332507032212
H -0.173567985436480 -0.487081201077323 5.256238916814181
H 1.383658552397907 4.196602474058133 7.455224466747814
H 2.463662929247824 2.880394734442756 7.949454747462288
H 0.671394573016374 2.999624246341686 8.529387693933487
23
maple-route1-mmgb-reference-mlip-reweighting-v1 phase=gas replicate=repeat-1 sample=49
C 1.719543974047926 0.182180978888522 0.131043411422214
C 2.161932457931176 0.495963291793996 1.567535554703374
C 0.967045246277158 0.266471655179146 2.612939863495799
C 1.470613155794481 0.551613141362946 4.101883215953553
C 0.361894530164080 0.356762293236076 5.214420479196470
C 0.688836144459541 1.009066233444027 6.575401814090812
O 1.160312353726008 0.332196351319304 7.520799800016615
O 0.881784100276849 2.403188718896430 6.431246337481120
C 1.377082702273434 3.112063771993277 7.626019753003237
H 2.595241765317095 0.146626643757431 -0.565620171738052
H 1.188356558796545 -0.826152915262055 0.034252521672671
H 1.055297787965803 0.909993915243677 -0.236256546195421
H 2.600789676207273 1.476864468307995 1.748549805235805
H 2.884274878120482 -0.258460048226558 1.825975065934151
H 0.145464607254071 0.879675683632992 2.392193052133638
H 0.697358331362333 -0.831603567993233 2.512182689101076
H 2.198522232959445 -0.254974431146002 4.299048706919578
H 1.932570335198522 1.481552342960952 4.252529133202329
H -0.562230839924635 0.827657565063877 4.874462002637686
H 0.124263491794443 -0.723433777041654 5.419247406326861
H 1.481926536517919 4.234350560786833 7.406687845585918
H 2.415545398267961 2.789597768480644 7.857335475549275
H 0.711749256300617 3.029979529363729 8.495606751642512
23
maple-route1-mmgb-reference-mlip-reweighting-v1 phase=gas replicate=repeat-1 sample=50
C 1.676783349188364 0.164868275264542 0.157290957216246
C 2.071810495316261 0.587607395804882 1.625293404872328
C 0.961425948673478 0.296884324345178 2.688009312798163
C 1.515030811079965 0.547626036899036 4.122983373598799
C 0.381310205793301 0.343854169459316 5.197340130651646
C 0.853867817049419 0.990323129073794 6.505518507605918
O 1.239919030128514 0.397740065260387 7.524367664366275
O 0.781712990237294 2.296052484001906 6.447447480991956
C 1.343719930606178 3.008878375691542 7.525356270773793
H 2.564913953752057 0.291805802924519 -0.465351256107489
H 1.285157876421654 -0.831185190182546 -0.018382868323356
H 0.971637282251422 0.914290883835383 -0.212634929058016
H 2.209070174398547 1.677445304751272 1.601330326517641
H 3.031428622165244 0.138181529333466 1.919245143193364
H 0.146264859061213 1.019242659196564 2.595465958057159
H 0.599576971521642 -0.688563610551960 2.638434562097089
H 2.456076277582089 -0.000493354483480 4.309235079929154
H 1.713721207962854 1.614646686612360 4.175533873829453
H -0.524983794203092 0.859012976593753 4.846133202253800
H 0.162623808506242 -0.709718469453836 5.481685173444268
H 1.436059730701508 4.057760252618744 7.156928419142174
H 2.344070248964571 2.628217359256606 7.669011899111481
H 0.710159121210312 2.981061947043105 8.407200863734708
23
maple-route1-mmgb-reference-mlip-reweighting-v1 phase=gas replicate=repeat-1 sample=51
C 1.627574844534492 0.202887075110169 0.267367197251647
C 1.984247456896304 0.682906690791792 1.653669290178922
C 0.977881403410452 0.303390894522971 2.687747233108729
C 1.474171577867603 0.555132464734518 4.125358018103350
C 0.465441225451443 0.316166126607728 5.189095162323736
C 0.812601251584379 0.937336099219062 6.535716358090231
O 1.380735273361179 0.287302746347007 7.411225712159403
O 0.747131005789123 2.315465903139693 6.428760009176107
C 1.324480980282335 3.099833416045388 7.500657040312145
H 2.426640613911325 0.449015195225203 -0.411072472270196
H 1.603384682197200 -0.849265409831711 0.306859303536342
H 0.641299680997462 0.603289442132248 -0.114775038326169
H 2.253016457878563 1.759734103221988 1.573792500390802
H 2.945091587428043 0.129176308669094 1.920672163718997
H -0.027669190622972 0.856980862795407 2.538168032586721
H 0.781168407014950 -0.745160117354403 2.730298160649141
H 2.271658102797924 -0.168605874828230 4.249997911059548
H 1.920428411600452 1.595764608290404 4.271710335095331
H -0.424892266587172 0.849864862014458 4.806533046273865
H 0.300468951567421 -0.727388692223127 5.372240121287301
H 1.202414570888994 4.128637194105266 7.309361864739944
H 2.350330772436857 2.770142561282415 7.558488724115428
H 0.809796841129831 2.861309242236106 8.438408935023125
23
maple-route1-mmgb-reference-mlip-reweighting-v1 phase=gas replicate=repeat-1 sample=52
C 1.583847602007682 0.239704754067482 0.232237025162488
C 1.998292721319958 0.702836743861183 1.654463177343591
C 1.020843039783390 0.259891982703970 2.695282441954300
C 1.452193206307896 0.533995951420885 4.145085222206693
C 0.364401132975842 0.269421797889530 5.209445445932093
C 0.818177937022915 0.898813880630769 6.545498754748960
O 1.543750489382705 0.333297838155067 7.293082381597550
O 0.730529323809245 2.280259860562606 6.477976595315855
C 1.291784976852125 3.137593430296938 7.544522365427103
H 2.093032585297393 0.672589431163639 -0.634847871511238
H 1.796016606031474 -0.844173388270182 0.215549539608182
H 0.512026661384571 0.344145605488172 0.107207575990631
H 2.050161614106931 1.814874699627473 1.572835598931201
H 3.033562492694421 0.396799440467131 1.942685177256767
H 0.133831532748438 0.901149414675753 2.569643183671229
H 0.643750313426777 -0.823235864626644 2.679361803750982
H 2.351781841480362 -0.060701156902654 4.352789784446315
H 1.786089783353535 1.600782859488156 4.265573262535906
H -0.488971955092699 0.852503707739288 4.824648017470196
H 0.163796599054755 -0.779642095579094 5.390846936401016
H 0.966311932636604 4.148217919439226 7.451867677928857
H 2.374806631899270 2.991174049461823 7.585359546777132
H 0.947196381822118 2.801989061413642 8.517473285276703
23
maple-route1-mmgb-reference-mlip-reweighting-v1 phase=gas replicate=repeat-1 sample=53
C 1.573906112412200 0.259422313696307 0.179633066619460
C 1.972463154437509 0.698752937981812 1.607775215280349
C 0.961891870402301 0.222349686198380 2.710103664681314
C 1.440193926068654 0.548796664314304 4.133544118201115
C 0.335321611418385 0.330731894972984 5.281113157787952
C 0.945565302763314 0.959675649766990 6.513602534746164
O 1.681351750909979 0.381418429637035 7.298918107315899
O 0.641677496124780 2.273611991418694 6.540187852268295
C 1.238942310675930 3.014810514991601 7.528938820099984
H 2.030443038534100 0.900193831632494 -0.610375471631552
H 1.880177820161372 -0.804971317642997 -0.085984218257912
H 0.530584751824377 0.344335485054486 0.032642605918984
H 2.074522308646207 1.771070659106832 1.548922841419347
H 2.945088538373029 0.364160877922430 1.899054229214504
H -0.020976538166581 0.566855948445524 2.529159695098498
H 0.868957950291304 -0.904952807396676 2.690929969083568
H 2.382159089783919 -0.025558740431998 4.392568513957160
H 1.792210982508861 1.553555413285147 4.217306860157155
H -0.565010390352718 0.835244267910379 4.959827715837629
H 0.261205217227564 -0.764993659612651 5.465518086778033
H 0.867987305179288 4.077692996782859 7.492996891586563
H 2.330954237683023 2.871890086315899 7.557577159227680
H 0.952572636304345 2.673953638217509 8.523629140955205
23
maple-route1-mmgb-reference-mlip-reweighting-v1 phase=gas replicate=repeat-1 sample=54
C 1.543594998337612 0.296842215159924 0.180824810650840
C 1.916690961566992 0.643523367980787 1.585166488781655
C 0.953243449673142 0.094734279778193 2.683369823393094
C 1.435973065928035 0.584023713132796 4.046037821293788
C 0.441848189834579 0.329383988029888 5.208894466225531
C 0.960857520350923 0.951838159705873 6.528204109591477
O 1.789361636759282 0.413529047317213 7.304330922341999
O 0.564637493312534 2.269332234920141 6.618330662230557
C 1.188411590213435 3.055028298961510 7.639526373396390
H 2.175059787236421 0.935957982097516 -0.446771941418854
H 1.753819820110712 -0.708706298223243 -0.135710738329275
H 0.491360554923117 0.599987057418699 -0.101248045980374
H 2.032482535426479 1.703850374252074 1.614021941331720
H 2.889845041124354 0.270698647329611 1.815386587445714
H -0.102544413585957 0.392232873927404 2.485091082535941
H 0.894528031753370 -0.961331808628894 2.629522448011895
H 2.418029836794641 0.213205845293484 4.332953282207520
H 1.597937047391636 1.650412099370614 4.088824741599184
H -0.496160465181117 0.799045073439001 4.933721552263420
H 0.447346787471210 -0.780217809708791 5.192852184687919
H 0.788793963760853 4.123082362632911 7.617870426809975
H 2.294233422493495 3.008303440549374 7.583503059628748
H 1.004818907203153 2.718891263293055 8.680611263133356
23
maple-route1-mmgb-reference-mlip-reweighting-v1 phase=gas replicate=repeat-1 sample=55
C 1.464572526492329 0.332570084620329 0.101158977726686
C 1.929137821890858 0.603574852202419 1.556492673414638
C 1.042416164984006 0.038050317482030 2.682475618341416
C 1.430431923262708 0.646132376999461 4.039449006932518
C 0.553057153884941 0.277403192653485 5.266840435142761
C 0.997871019627323 0.954728095908070 6.510433896060320
O 1.812598371479113 0.436178468490647 7.206406829818855
O 0.525837204233830 2.237611848561856 6.681703818133476
C 1.079390622871250 3.092948821670505 7.748580723859356
H 2.196592561723799 0.624563877206145 -0.644388445926692
H 1.324662912806986 -0.700371209650921 -0.046545298245433
H 0.499440308965884 0.884709966889844 -0.182969533989892
H 2.005521450294894 1.714934852572605 1.659522241105962
H 2.972864493271479 0.250675443069459 1.748336337994770
H -0.011618425084631 0.351591509106885 2.489469410120484
H 0.990700388775029 -1.023118254454113 2.654690390180475
H 2.429160472362235 0.409525490031401 4.243350709563659
H 1.495530233416322 1.747076870032191 4.021646321864630
H -0.448721391332436 0.714990773625271 5.109244547302335
H 0.606448347341149 -0.790674654309381 5.290383753955300
H 0.534797283536623 4.029860794579642 7.701384760384334
H 2.165081918438380 3.264199443304074 7.607880871029654
H 0.998757292159648 2.725481889729883 8.796077770329976
23
maple-route1-mmgb-reference-mlip-reweighting-v1 phase=gas replicate=repeat-1 sample=56
C 1.365630794214496 0.314084629030521 0.075722455589684
C 1.953694641388705 0.599847736865209 1.482653569322943
C 1.132264312574900 0.124771294175157 2.667188431310075
C 1.423419055651994 0.736914246822820 4.053087385689579
C 0.522042679870062 0.252810810528998 5.248477556272110
C 1.070001298323012 0.959022663115978 6.546599674942746
O 1.946312236339933 0.510546175964884 7.256587155942864
O 0.486162143153011 2.213136252087524 6.671106611089952
C 0.945602995277011 2.975100228921284 7.779654737539232
H 2.046652962002941 0.329428863091094 -0.779303762499217
H 0.970146060680122 -0.732479644023674 0.173681054214270
H 0.562765322596875 0.972201760660885 -0.114036886420849
H 2.139458951174001 1.701342925800475 1.605236395749576
H 2.982777752380596 0.130219150574132 1.534701795696168
H 0.070644415161974 0.167168125982766 2.491215233277610
H 1.339335101207718 -0.982047971485189 2.765832184306036
H 2.493225496092246 0.558295405386947 4.251715279764298
H 1.440161417731181 1.824418665302844 3.980839960875443
H -0.520736228299353 0.645468001683660 5.084024886137536
H 0.570893646826114 -0.835463245628495 5.272632999517058
H 0.317343999225323 3.828298088397515 7.829971474870698
H 1.988666317243552 3.215864889930509 7.636162638969584
H 0.881827409352287 2.403485586485534 8.712182435331902
23
maple-route1-mmgb-reference-mlip-reweighting-v1 phase=gas replicate=repeat-1 sample=57
C 1.266204609426874 0.250217883013420 0.148839457192179
C 1.968462138261432 0.628393326621485 1.451023613029291
C 1.138753247116030 0.134626939335743 2.662306101707308
C 1.497085233305288 0.789937197549342 4.031089997582988
C 0.651425340311867 0.301957952503488 5.210145376271584
C 1.058807141295641 0.945733220153883 6.559309581484736
O 2.011769263668695 0.572979493448819 7.207399420471230
O 0.466387729918630 2.134772033766053 6.691602771196036
C 0.815672608830860 2.910994532857101 7.837192104570178
H 1.939736677211810 0.402964129461433 -0.722248985385625
H 0.953198768096941 -0.829870444506588 0.165925247593122
H 0.459617938913677 0.921093716648903 0.013197143875203
H 2.004724567203407 1.714764067361016 1.540900825656224
H 2.999901992372447 0.282402515278501 1.393205456037938
H 0.085127757745497 0.352446602396533 2.526737083101965
H 1.213114488795874 -0.994340289941023 2.737911201344203
H 2.628785307486213 0.807174289450642 4.214683409369901
H 1.303434589383817 1.852911350259619 3.861660911892749
H -0.416134309420816 0.482639951696149 4.975489721965382
H 0.875382467810586 -0.800379382129706 5.284664216956293
H 0.160845887475755 3.784195422057557 7.855513416160088
H 1.865385243134936 3.185616395001300 7.773951956824446
H 0.662073710345635 2.311155370109028 8.715364714124407
23
maple-route1-mmgb-reference-mlip-reweighting-v1 phase=gas replicate=repeat-1 sample=58
C 1.203755202481520 0.163637871610941 0.173362027327750
C 1.906312050628602 0.691435989426384 1.475446253344153
C 1.103552697593115 0.197612696514519 2.712820663840136
C 1.561409736319615 0.873313169579869 4.009382499802838
C 0.829425884910103 0.256819910311351 5.171519324853998
C 1.160648669661013 0.979118231580277 6.448021886015383
O 2.063184024457544 0.560992587997692 7.170866441510601
O 0.388129410011643 2.074657263658949 6.700378674300732
C 0.671813026747288 2.909078275472139 7.912876092554901
H 1.842770849620622 0.595217860903483 -0.617523475538719
H 1.254934162681270 -0.887108776539478 0.049018941408934
H 0.169609970585978 0.621796118852371 -0.015296676193368
H 2.039463666394125 1.757870691187400 1.565299620084085
H 2.868539476428080 0.216102229554557 1.421134248425106
H 0.003586765486428 0.321540053548342 2.562350365198529
H 1.307871499417305 -0.844592402270153 2.807585641381317
H 2.631945257244971 0.670376718461366 4.100454766491607
H 1.507861512145276 1.980180294367506 3.905092567199872
H -0.230380704321364 0.386997556420026 4.955527509205496
H 1.057822733958915 -0.832418023664395 5.245106798178432
H 0.086609615915118 3.865007656940017 7.962843050504129
H 1.748470389809410 3.143643282518345 8.006626112899637
H 0.394078789507294 2.316319082570996 8.787432120703508
23
maple-route1-mmgb-reference-mlip-reweighting-v1 phase=gas replicate=repeat-1 sample=59
C 1.226627374194722 0.130803876098331 0.146815679582906
C 1.836133191357569 0.745209830974471 1.426822856084800
C 1.104570083419533 0.229285513576258 2.681600546167279
C 1.634193800431729 0.878802428411659 3.982875664261045
C 0.876103969487073 0.279678774250374 5.221084605345201
C 1.251124501058924 1.014784545555488 6.483717738950173
O 2.137422789459697 0.632217949078391 7.229543071989344
O 0.372201108545965 2.001829825565295 6.713260290461211
C 0.525715589199527 2.772433777448992 7.878358155175583
H 1.581590492359130 0.681849495693925 -0.726385684484540
H 1.517051328141048 -0.911290510589732 0.036253368651360
H 0.101674285074059 0.291282428927737 0.164208871010297
H 1.636552269639937 1.824988789816510 1.538716325056224
H 2.920197902116441 0.544897585942524 1.433287085499155
H 0.069821911955932 0.619269480878867 2.525523754329249
H 1.094880069060058 -0.830559247190535 2.697866692724507
H 2.679874523548614 0.743540099509475 4.046873212586497
H 1.479228959413762 1.967245654620633 3.850997456734788
H -0.185400327719676 0.484452368490836 4.987581381210479
H 0.939271158534933 -0.773118935723375 5.361589452067015
H -0.062075282577459 3.726094070623010 7.884492798531076
H 1.607143305382343 3.062076074807817 8.044087248035726
H 0.179898661354089 2.134864415175800 8.742530314250436
23
maple-route1-mmgb-reference-mlip-reweighting-v1 phase=gas replicate=repeat-1 sample=60
C 1.259969309830226 0.106809139523816 0.080127327016653
C 1.741965890689303 0.825375235573627 1.310920811826608
C 1.066873750250311 0.321422280386221 2.636072154378439
C 1.679308297530761 0.830418047278222 4.002714909370681
C 0.929436374692359 0.251213152050719 5.184501706754193
C 1.252481210739503 0.987636451789309 6.552799603567530
O 2.183367672683368 0.730658888166806 7.275581472260014
O 0.385724433890558 2.009396627843827 6.737731516223079
C 0.421997741431842 2.683989479321695 7.960845025534862
H 1.522164874291345 0.542020360995675 -0.882685179870929
H 1.685623103342413 -0.953561953696722 0.173669273036728
H 0.218789911389500 0.073427505440392 0.192365642150905
H 1.540438275434151 1.919902281523904 1.312445154201413
H 2.821691585431125 0.588275400269201 1.406469901125851
H -0.002808254592986 0.453248657716242 2.540638830093439
H 1.320261078686542 -0.775929364867015 2.576998683929144
H 2.716547357616444 0.488676306733494 4.086186145670466
H 1.673052419366956 1.897689333221113 3.985288766570876
H -0.136098306895277 0.283059529430008 4.915598219629002
H 1.189954947738104 -0.779010259538180 5.309293262152533
H -0.312230234764644 3.505457840952694 8.023160926915256
H 1.393678836815488 3.210377481501204 8.124242862840772
H 0.184750391352489 1.966756020471876 8.804027199040336
23
maple-route1-mmgb-reference-mlip-reweighting-v1 phase=gas replicate=repeat-1 sample=61
C 1.299279419155118 0.061695716104347 0.030894883445011
C 1.686079557628275 0.908796165628232 1.285913663836884
C 1.122765609466108 0.332550555849996 2.627740563837893
C 1.715092008274507 0.785119562641712 3.957992724424661
C 1.028240732108201 0.221500413749221 5.220366446290341
C 1.265365300749922 1.025483944986038 6.514483578097193
O 2.193794198597348 0.738994468880477 7.242459729378615
O 0.289692678361985 1.987390766304779 6.766896253355109
C 0.358765140574724 2.657125820405723 8.093128196017084
H 1.771861515284911 0.503837314769326 -0.863670460184973
H 1.675587628151167 -0.973593978739651 0.127877890826723
H 0.229406577471684 0.108473173493748 -0.078088253737002
H 1.275121364696333 1.910011426927952 1.211191522809234
H 2.780773807964440 0.965926448674721 1.386575242009676
H 0.109385576981572 0.691400060095675 2.610295824007331
H 1.096266896778759 -0.795478384350903 2.535433530326249
H 2.842373169506292 0.575200915804858 3.975422209541414
H 1.511805274312883 1.848935481307418 3.891976697812112
H -0.031513351427145 0.185411788416382 4.990255058520083
H 1.346344808299249 -0.827343057051176 5.442889474259670
H -0.473742925816185 3.339450090026249 8.315612270011416
H 1.182820453165082 3.358679864750822 8.134989852512453
H 0.373347947201724 1.929844931329494 8.906634273248335
23
maple-route1-mmgb-reference-mlip-reweighting-v1 phase=gas replicate=repeat-1 sample=62
C 1.355407954242353 0.087728092542939 0.037467085272419
C 1.656079439827443 0.937431329397044 1.328377920866575
C 1.070791662895632 0.279522011023711 2.609446769163680
C 1.730042118006686 0.869213481139635 3.909659067092059
C 1.028447984612783 0.322988381369134 5.214070215793692
C 1.316687775412903 1.091239708248832 6.471135146101421
O 2.202022279965459 0.794639142350968 7.266653494720154
O 0.251372055222694 1.817887487559050 6.828469586850247
C 0.341170216762367 2.552411769243722 8.083241956382182
H 1.973985031642599 0.612300585928596 -0.687688440285541
H 1.741450876414381 -0.877604380891919 0.094575698058427
H 0.256252200630519 0.146564267147003 -0.317422367509235
H 1.305897627007133 1.939396454777796 1.190002031605313
H 2.732498755185117 1.006360014976057 1.498337936295949
H -0.039149836763171 0.384063701739508 2.585870787160859
H 1.298002454829796 -0.750202210810319 2.556478449758178
H 2.760032199401762 0.446211114129142 3.879610075651161
H 1.741712445112634 1.999328718931300 3.810566760001186
H -0.047159662009139 0.394496512530554 5.013502070093302
H 1.212716564281449 -0.774344401461862 5.386887701780378
H -0.585559504055772 3.070061267460372 8.280558283303979
H 1.010032380946191 3.370871561868471 7.950563580408301
H 0.529415507406554 1.909791641970362 8.914627913365782
23
maple-route1-mmgb-reference-mlip-reweighting-v1 phase=gas replicate=repeat-1 sample=63
C 1.391070007459890 0.185739760225842 0.056341832706430
C 1.699686199543600 0.924281873666183 1.350818855338589
C 1.113724107867898 0.183110680288789 2.613069858736940
C 1.692554573266678 0.901829594879151 3.913849336205351
C 0.975885091896599 0.350147604985153 5.138755450699466
C 1.320691376836022 1.110357224613675 6.460883104347758
O 2.315421767633296 0.856677355706261 7.185559154749722
O 0.198797522111787 1.752921921264863 6.914880975927412
C 0.271900889395758 2.484366429674107 8.104375154466419
H 1.943840692192906 0.618079161648927 -0.761171480379961
H 1.738779778272801 -0.843831193934855 0.157760114404165
H 0.289111594514527 0.232650170845941 -0.104760810038733
H 1.268583618543409 1.936219614131695 1.188334052015546
H 2.761545390356199 1.112847837262544 1.503416350697216
H -0.000309868159655 0.203935055777669 2.613988040071689
H 1.352072083815672 -0.854437927206357 2.597646461716272
H 2.754030603383365 0.743561497223247 3.967151316847332
H 1.428197385931178 1.973805914598244 3.828222844836530
H -0.104276377351609 0.459716780275717 4.906448691131557
H 1.154262532167751 -0.698434373499054 5.202851376064731
H -0.697877419785563 2.863051406688002 8.342663681214615
H 0.850923050543217 3.369749070721002 7.928665306545412
H 0.575790081594963 1.813476889455478 8.882424409594620
23
maple-route1-mmgb-reference-mlip-reweighting-v1 phase=gas replicate=repeat-1 sample=64
C 1.413362747072338 0.259915279852514 0.008545340693983
C 1.741082299969691 0.911725249932630 1.373454387771416
C 1.278656743824148 0.219626136672234 2.614117698860289
C 1.578717610929500 0.922360835276954 3.948362049059363
C 0.920885074224741 0.262151483383109 5.201496184187816
C 1.259747312253612 1.039992938876399 6.457029565631447
O 2.342896943001725 0.965836364911985 6.969044838341155
O 0.161134021645859 1.740958739530713 6.940443796090316
C 0.238901286852549 2.425912299718711 8.219972041298883
H 1.834110604469523 0.777585260139792 -0.869548999672371
H 1.845578524049914 -0.792047334042515 0.038115653618689
H 0.366118410706959 0.183206457002560 -0.027174773920533
H 1.377314734368613 1.968459767603392 1.309607203070461
H 2.835503766992724 1.035215332160520 1.523769629103159
H 0.214161445961900 0.118664542473296 2.576006507072770
H 1.672545308209527 -0.844023330907232 2.584957571200206
H 2.649310377594538 0.887050491626909 4.047245073496165
H 1.197267134836659 1.908818625419762 3.895768211616918
H -0.167535640922158 0.173960416155607 5.086785326257187
H 1.390727865101638 -0.692142340278578 5.287397357734218
H -0.741994098565707 2.794680311402357 8.506917916255540
H 0.870457640680993 3.346280710750365 8.149353837449091
H 0.518587693374283 1.677837633300592 8.967398644041397
23
maple-route1-mmgb-reference-mlip-reweighting-v1 phase=gas replicate=repeat-1 sample=65
C 1.437898002388322 0.315515759542495 0.044088066905408
C 1.836352300562074 0.953424374622139 1.406752780728109
C 1.359925892164378 0.189247675771019 2.629851280515622
C 1.419292906633949 0.940919862721103 3.935341190362187
C 0.899319593073379 0.195521561693980 5.205001328706222
C 1.234106882339451 1.007999096727702 6.431446825596138
O 2.316981516528084 1.166642491502441 6.894792855833030
O 0.108444247226365 1.645193032813565 6.935658030032265
C 0.300990172349872 2.316177163884369 8.241750981098761
H 1.712663858100723 0.999306449837704 -0.795571763329385
H 1.984198652365094 -0.616696150199988 -0.129710095127750
H 0.370389016391295 0.106447172682189 0.069547015176210
H 1.495595757873665 1.987533357710346 1.399183446087140
H 2.941516836615701 1.046400712176019 1.516613366053150
H 0.321138389337795 -0.122360343955768 2.522794055307950
H 1.965090579464760 -0.776024458945303 2.644607342565688
H 2.508633373644984 1.052459343174565 4.066369053304098
H 0.881182179809543 1.881095271675668 3.914299157841852
H -0.174471763657639 0.148559011930834 5.164258630180245
H 1.411398631280862 -0.797599926002862 5.283345630096927
H -0.626907441072766 2.786411362579328 8.675306428953482
H 1.055536716516159 3.139251236260469 8.187461944470030
H 0.593406647504455 1.511698148566137 8.972140285122244
23
maple-route1-mmgb-reference-mlip-reweighting-v1 phase=gas replicate=repeat-1 sample=66
C 1.513244029164672 0.400967534255342 0.091999347357794
C 1.913670730429486 0.995763418450853 1.439667770371229
C 1.384917411983837 0.060189352623401 2.643182550857683
C 1.331609630475771 1.010113010149680 3.908591894311674
C 0.900291984526016 0.219072424755210 5.158777681435706
C 1.202103760008991 1.017590264181376 6.431578629853487
O 2.339405745500516 1.300914319901134 6.827294830988394
O 0.071963745936179 1.501631021920317 7.041452103954493
C 0.284456365972787 2.206807377444522 8.191075644662646
H 1.709774204913554 1.158514317591079 -0.671116966207979
H 2.088193729403403 -0.447831027729409 -0.150223959904429
H 0.401397741466207 0.106172368763692 0.103450287147077
H 1.423719965167716 1.940069396669720 1.483271381655751
H 2.967594985549015 1.228680364898979 1.497840209092966
H 0.332444994082781 -0.351873776196198 2.469379576048048
H 2.020293995996554 -0.803544948534196 2.720464954606090
H 2.344569400965773 1.493078620877506 4.022286331320672
H 0.481732369034530 1.739096801704538 3.852759722685924
H -0.188329218283956 0.000154109894392 5.120444336509817
H 1.560947437737238 -0.677557057125507 5.190902404071238
H -0.622884179452343 2.765408529047479 8.574547945073057
H 1.055587573281074 2.975058838687930 8.035612540132687
H 0.598065959816225 1.461725453985644 8.985897540720346
23
maple-route1-mmgb-reference-mlip-reweighting-v1 phase=gas replicate=repeat-1 sample=67
C 1.609791314007390 0.442998987784530 0.072779945037470
C 1.859715637517843 1.026251016930856 1.470057793304729
C 1.421426867780009 0.146416540810352 2.652494412561839
C 1.210571218091276 1.013829528061200 3.889323541191965
C 0.954459251572200 0.140437522973284 5.169300381627487
C 1.207019995831870 1.037735234106485 6.377672611105810
O 2.344565324971088 1.345460878260241 6.715640937925283
O 0.102390823445878 1.370269949083367 7.118313414095827
C 0.176824689477746 2.197152962084941 8.269665016631482
H 2.034244189494614 1.165129581111025 -0.611471136620940
H 2.205107567569994 -0.474999443408118 -0.101978790409417
H 0.548712742358801 0.229296774295239 -0.182945926776116
H 1.430815417461251 2.026865561832603 1.537874648522066
H 2.929514114725676 1.124724098978035 1.577562006421054
H 0.527989498372039 -0.455707840812451 2.408750924983487
H 2.258794541648129 -0.509858588984863 2.800822966652065
H 2.174125825048264 1.558891957301011 3.940629882103369
H 0.316302623180396 1.683650918007162 3.825701609834393
H -0.081949000135352 -0.301905058040828 5.204207299372248
H 1.773747916212185 -0.563702066133672 5.216301375390906
H -0.813814491224732 2.520505070237733 8.594359099960350
H 0.704082576536057 3.141103251498194 8.024556436366066
H 0.685571765704205 1.695998321049097 9.098263174167577
23
maple-route1-mmgb-reference-mlip-reweighting-v1 phase=gas replicate=repeat-1 sample=68
C 1.744749996238171 0.431770622960105 0.045968486479627
C 1.839587260161664 1.141218351163786 1.437614577801596
C 1.416225234123528 0.229319115381134 2.598354551046009
C 1.119672657288105 0.958491085826003 3.913801215625517
C 1.006447332623599 0.130603429795412 5.226361235140021
C 1.283564854601223 0.962691388761827 6.447174939723956
O 2.359657884400837 1.487442434682045 6.704916027162203
O 0.072676423620801 1.212202277819479 7.117448385948927
C 0.117086695900004 2.153819523565026 8.262726531457172
H 2.197119277227356 0.974373258427640 -0.808173090304146
H 2.172769760674950 -0.626696252759265 0.052475751389895
H 0.723594427172897 0.318203192951838 -0.168855048549214
H 1.061259569299091 1.950639480957076 1.424803754852739
H 2.842067002095704 1.595863817391478 1.612935826795085
H 0.494501038177719 -0.152064908940681 2.260966920954132
H 2.148584316337147 -0.592779644131854 2.746095604175304
H 1.954233467618221 1.657263133939925 3.936327880566317
H 0.178301185639696 1.466073807931935 3.825227973258822
H -0.032901219481601 -0.177898583193425 5.341426543815055
H 1.716154863287930 -0.683766993657555 5.281553000831880
H -0.811452043855384 2.179026497588453 8.771605114339790
H 0.332469335954960 3.191401520524968 7.904201695994023
H 0.920055251378955 1.958045542388072 8.967974864981434
23
maple-route1-mmgb-reference-mlip-reweighting-v1 phase=gas replicate=repeat-1 sample=69
C 1.887626671626865 0.441514617729442 0.079141234299082
C 1.705291151367819 1.177140398923868 1.380049582416924
C 1.332379851461089 0.250367145184493 2.591604240616673
C 1.106260320505074 1.029376695008641 3.974117089282582
C 1.096087577770300 0.090849369353115 5.176540298282499
C 1.278998906654566 0.956560659330823 6.454647049123584
O 2.271438241230381 1.608200352231316 6.740752027261291
O 0.106821497916536 1.106997989171612 7.147781692038267
C 0.110665960633220 2.069126995513655 8.200253829510602
H 2.487830586272961 0.965888841548860 -0.706317966387960
H 2.336014043354648 -0.512997947807510 0.312570996745192
H 0.901776232663197 0.213485387872291 -0.344229898488171
H 1.042559418133162 2.071671315450481 1.305176588439310
H 2.751752861160175 1.490692416463723 1.593268716569804
H 0.473477932408930 -0.380578494463821 2.308961521569983
H 2.211268164605543 -0.413526360214230 2.776916289262182
H 1.974928567113297 1.684627458601844 3.972011652795555
H 0.228468721276442 1.663060309507713 3.978643132957054
H 0.198400113620937 -0.497908608839942 5.213993672290784
H 2.005660132821326 -0.518984161784946 5.151809667726550
H -0.816231648056785 1.831150622130866 8.763667277445911
H 0.076607270405225 3.082702340432372 7.822194140870646
H 0.997936903511312 2.047280233986803 8.848037231723097
23
maple-route1-mmgb-reference-mlip-reweighting-v1 phase=gas replicate=repeat-1 sample=70
C 2.013742673066346 0.391840096706084 0.124905440042024
C 1.665035173398425 1.190000886280802 1.426965401380416
C 1.274001292085396 0.299084978496810 2.611629019859129
C 1.173415234713166 1.085440505960247 3.944485653891760
C 1.266242989647486 0.156225371710639 5.175274122311632
C 1.240092501904853 1.016192336190241 6.410899783073067
O 2.263610579166819 1.649036205594286 6.700684411037496
O 0.062325247052324 1.012567547947589 7.166348115794708
C -0.000761233362643 1.948501368174741 8.205557410762834
H 2.389617462543038 1.119200296977315 -0.590629844081617
H 2.709308156428262 -0.381757922228376 0.276514308475167
H 1.096777609101267 -0.040553032748732 -0.421071706145785
H 0.781320769459302 1.799315489955886 1.212343280958208
H 2.469853403838616 1.883135874842153 1.661684808613725
H 0.255434378969985 -0.139099162530573 2.278900203095938
H 1.952988286417198 -0.534388000580366 2.759145774229510
H 1.869259937636728 1.950987603033659 3.889022074340179
H 0.138116584918063 1.532404566006463 3.916115489500834
H 0.446611538073995 -0.595929336541582 5.149372123114354
H 2.240696074799155 -0.375434739123511 5.195150354515055
H -0.941433323280361 1.636998345906311 8.766929928177051
H 0.029055565120316 2.983453605920347 7.873326254903055
H 0.900635594910627 1.872292260090254 8.868030384629455
23
maple-route1-mmgb-reference-mlip-reweighting-v1 phase=gas replicate=repeat-1 sample=71
C 2.117985706082839 0.390402187188499 0.161590395854382
C 1.618783846627330 1.222942237225302 1.396036404252134
C 1.234237553011266 0.308706017165592 2.597057252921024
C 1.127362304323358 1.065534063845596 3.911771844744556
C 1.290035288090588 0.214469206883206 5.158819228021764
C 1.318034364445523 1.051445519356992 6.402223232080958
O 2.225737232672704 1.793087142818302 6.805806140832057
O 0.117547786677701 0.942382815683118 7.058586758237546
C -0.139154852857646 1.772005668044124 8.250213061150776
H 2.173308638100052 1.085294703750751 -0.668072714068687
H 3.108125492942622 -0.068420168062732 0.390666923543812
H 1.457312168493579 -0.388079295919005 -0.200833406922284
H 0.787489821721559 1.866310502052402 1.110274866428924
H 2.397218612588401 1.922393191570227 1.657745858351223
H 0.377867310921444 -0.312006129853687 2.295001932208487
H 2.062153484963509 -0.390251566586753 2.762665063455629
H 1.991494731888307 1.752815394840517 3.895265848134061
H 0.224686730049019 1.742788235926380 3.864875784090502
H 0.436852480855627 -0.539111692092195 5.178805981473907
H 2.211148698703687 -0.387738925420338 5.119829295535624
H -1.119163211514805 1.518255698249543 8.621067928707603
H 0.062272114631727 2.880126278905703 8.090076355221038
H 0.649916420045682 1.593678141993760 9.027985970130949
23
maple-route1-mmgb-reference-mlip-reweighting-v1 phase=gas replicate=repeat-1 sample=72
C 2.187559383504790 0.449865397417193 0.170268904231543
C 1.557678971789244 1.188012001671422 1.309813206416977
C 1.333077087754669 0.308885805436231 2.592998949770032
C 1.168652686275946 1.109563223278978 3.927886880443150
C 1.371020403687608 0.287609716595274 5.193564275851351
C 1.311597567652455 1.101096142815749 6.432117383476678
O 2.168075928070002 1.850827923486885 6.823565642542553
O 0.062902146159938 0.948750621452749 7.010979763678302
C -0.208315448991935 1.541729615144491 8.281938363787090
H 2.051138521083044 0.964629085829189 -0.810467386178481
H 3.256519316522334 0.216064475021779 0.462944583958812
H 1.721822303154247 -0.477081473621072 0.043390292124185
H 0.684530843065083 1.741292957821978 0.964733042472410
H 2.284412098061704 1.980990235205984 1.571500176481291
H 0.464457000772956 -0.210359170048467 2.358548958164557
H 2.072545725589119 -0.515218455045325 2.661260081967787
H 1.772801240102629 2.036502902492016 3.977822715172319
H 0.155714719331407 1.517343488065128 3.838524766552565
H 0.621807433697160 -0.507258347124053 5.169894578217570
H 2.349620105611341 -0.184347411428955 5.132586144035777
H -1.219186917717980 1.333255826984572 8.554147111820910
H 0.073135827525687 2.601635723229601 8.274234786765355
H 0.465736548786822 1.209732840213004 9.036979950963159
23
maple-route1-mmgb-reference-mlip-reweighting-v1 phase=gas replicate=repeat-1 sample=73
C 2.248741715417761 0.503327577129617 0.126724496232858
C 1.500861026163771 1.163091482326985 1.341132730297043
C 1.438289568669262 0.353901883502519 2.619968940184304
C 1.166841500655315 1.162941787683996 3.871609912656828
C 1.556513283549569 0.319894336779195 5.132680784035145
C 1.240020261703066 1.143992789471271 6.420347666122987
O 2.066672764870491 1.869863957389801 6.920301894811033
O -0.021756541887160 0.901400103784176 7.006712849512072
C -0.238106197039744 1.391488639935731 8.302646980470488
H 1.992671232087504 0.985816824292099 -0.834063910534742
H 3.299689880876797 0.330901210518606 0.294876601428921
H 1.787231052069056 -0.494135547746649 0.013433058240791
H 0.470180037280533 1.326573955325464 1.005454227405139
H 1.866272032711420 2.208913195470410 1.539721082010884
H 0.848431022358191 -0.543760148189855 2.456059276441182
H 2.434977362866913 -0.069188635342508 2.690995744168289
H 1.778137348329532 2.085543247098073 3.888391524173861
H 0.170945764408660 1.612269456534079 3.801081644916394
H 1.024518933805910 -0.577152701466718 5.058962623221030
H 2.607720675593404 0.077678358247538 5.055950010383667
H -1.297438786094903 1.242995437882589 8.594544135156404
H 0.040968668304146 2.379792954296252 8.309371352073669
H 0.399956738673703 0.970960326710501 9.014860375088464
23
maple-route1-mmgb-reference-mlip-reweighting-v1 phase=gas replicate=repeat-1 sample=74
C 2.192469188724247 0.567434082253766 0.103080318623572
C 1.378809340471518 1.138509557575732 1.287444319611393
C 1.711799835058873 0.406117549954027 2.597618920582152
C 1.223363465214429 1.153846071875053 3.843671715108030
C 1.557476907777795 0.457309289159966 5.187234304886063
C 1.215390775371128 1.142037542494247 6.460512773982268
O 1.964066187065511 1.907492866488235 7.040090945398793
O 0.020318027082312 0.792594333777220 6.947205504655726
C -0.283524740256696 1.260465363337530 8.270761606875192
H 2.093492947897044 1.186604774675025 -0.773655345447266
H 3.198128738143388 0.562481564316074 0.464953420342590
H 1.958393618903076 -0.507650805782267 -0.220816045311142
H 0.297723203932334 1.227882078113571 1.045651971265093
H 1.694179436660737 2.185026064182442 1.369707693845395
H 1.294694947691243 -0.655412449584039 2.554204409792627
H 2.768831571595806 0.151687466721330 2.604017354792790
H 1.479844213692311 2.216547649868659 3.851929877200857
H 0.139948564807919 1.297743377440006 3.682938776407036
H 0.986719328776989 -0.454820751130116 5.159771262211681
H 2.610325297891921 0.206919139656694 5.138079217469710
H -1.303510239893920 0.964252315634970 8.509597696740608
H -0.217379335365671 2.328080866882158 8.275829097283761
H 0.393320198108816 0.918187782303664 9.044823603601513
23
maple-route1-mmgb-reference-mlip-reweighting-v1 phase=gas replicate=repeat-1 sample=75
C 2.144507924954286 0.613090158158076 0.004377732369295
C 1.443683304963411 1.131594018247481 1.263786979335429
C 1.909439963305121 0.561655893843885 2.646026204422500
C 1.226170953409550 1.128268081372071 3.918585737798588
C 1.630093716443058 0.415787281363507 5.199179832663483
C 1.195199445017100 1.201797157998446 6.452771037704927
O 1.920831569032999 2.005927623681663 7.056395873614393
O 0.022541519524249 0.649103720146356 6.943012536125714
C -0.481459706064286 1.130055968585830 8.261113629449289
H 1.827128548608629 1.238043587171639 -0.827445190054155
H 3.235237281799841 0.703582737623780 0.178656832689485
H 1.915136087763232 -0.413388732665995 -0.256334827969476
H 0.412825411488061 0.821427473467493 1.075954460304932
H 1.375114516524979 2.203580809775215 1.184595230367578
H 1.840552342837715 -0.536354677501047 2.648569062823211
H 3.017682175460170 0.610814386522643 2.646035958790482
H 1.480472566310596 2.173506892195488 3.993071475739192
H 0.165458291339732 1.263260281493056 3.768987596441571
H 1.083987215320271 -0.600130930485746 5.163968438581739
H 2.711601080383812 0.312313642402931 5.106042336623360
H -1.413716096877551 0.664089860920113 8.514847967544842
H -0.700395932939657 2.267560255651033 8.224404610936853
H 0.224194944105954 0.952412930345711 9.149036992659967
23
maple-route1-mmgb-reference-mlip-reweighting-v1 phase=gas replicate=repeat-1 sample=76
C 2.124083630117518 0.650505680256513 -0.015100930487605
C 1.439087841779511 1.157281820905135 1.336842990742501
C 2.069294609045671 0.670916131910406 2.639811480491504
C 1.311835653009802 1.157463346753250 3.912594520632107
C 1.741786883968880 0.444476951693209 5.252031226757686
C 1.184137097371498 1.107354791126528 6.535434323374513
O 1.747901390823888 2.066207154105063 6.974599745548651
O 0.006070246229596 0.545675475701264 6.979074569430691
C -0.578479140262862 1.028706879230094 8.159659208487755
H 1.554784704777653 0.965401035031442 -0.920433250908539
H 3.195681430748262 0.957174256611527 -0.084051544354748
H 2.123502682773652 -0.386706541225886 -0.001964429191261
H 0.392800115116436 0.930874121053716 1.285794586384108
H 1.413405945779204 2.261358946333742 1.284300197055299
H 2.286881848363102 -0.357427651003878 2.704874472264640
H 3.076311305095614 1.102590403781930 2.544579610625645
H 1.331055922125266 2.236230152705847 3.915155520533981
H 0.282125349844001 1.037201654321593 3.712121722064111
H 1.348788111668972 -0.621696733196160 5.176456516272506
H 2.861030111271405 0.468222231792480 5.256256225102918
H -1.419313470041093 0.298979703846402 8.399758189271054
H -1.051989313214983 2.074123007576410 8.051371268053265
H 0.130202906344254 0.976582997997163 9.049004970859283
23
maple-route1-mmgb-reference-mlip-reweighting-v1 phase=gas replicate=repeat-1 sample=77
C 2.087072905181869 0.660590495699383 0.104919877964551
C 1.456147460472683 1.205962876458467 1.393453183452564
C 2.203670495397959 0.829348266153143 2.671885596246717
C 1.362587660522123 1.139496218654485 3.932979870483351
C 1.858906022326622 0.451388959603323 5.221857728586471
C 1.162122948712970 1.096249932834369 6.491501803087223
O 1.484752863979015 2.137706484887253 7.011439859031158
O 0.093320808948676 0.375078348243605 6.922917592412095
C -0.622670022591907 0.966152790045439 8.016105036152709
H 1.350762293764782 0.657711819048976 -0.717118296435161
H 2.964030078030428 1.218264807646361 -0.165246999951320
H 2.432421926126044 -0.380423767021067 0.326726745291334
H 0.407802912892953 0.928943107027440 1.421530734662207
H 1.385396624275731 2.312541081257885 1.266718767676682
H 2.224169968725584 -0.260870001124193 2.709878461693445
H 3.226443950759368 1.141445327404039 2.596637692676369
H 1.300359958079214 2.227973378031721 3.991918755705768
H 0.323425545566203 0.883158643321610 3.705160347196067
H 1.584283724248376 -0.567471676111865 5.150889687219654
H 2.975263589867053 0.587662376099857 5.257755083873540
H -1.450773230578361 0.239430605873943 8.358978343761382
H -1.058394580427724 1.948378216052755 7.796269804658386
H 0.063215867024482 0.993658562622899 8.848424971158778
23
maple-route1-mmgb-reference-mlip-reweighting-v1 phase=gas replicate=repeat-1 sample=78
C 2.098270958849175 0.682396771483965 0.176733131623986
C 1.475901281909206 1.229963546443513 1.440042665311261
C 2.191823324580308 0.842439522549018 2.755279634637669
C 1.378152722287188 1.133476149364562 4.035741007762380
C 1.955972677604498 0.600399117061489 5.313363502235175
C 1.144624021092985 1.111865258384251 6.436568370513859
O 1.368175651041841 2.228762960572659 6.902715989544443
O 0.197367604589609 0.224929020884484 6.856491175422049
C -0.732754684902540 0.781199694411947 7.872919156185047
H 1.323088414205038 0.538028058254168 -0.581674382838124
H 2.821818359443406 1.387044985755411 -0.219939290320016
H 2.671301337551506 -0.295990701321875 0.385938796550389
H 0.414589166606974 0.845673559628707 1.477534739537338
H 1.317100916018797 2.310802196979988 1.323654591503162
H 2.531099654887121 -0.223041934759539 2.727264991644979
H 3.109000964674282 1.455784134846893 2.716020793841976
H 1.424824751114479 2.230317537947702 4.086835588122766
H 0.270380679659181 0.923449733376109 3.908140720268161
H 1.867007810900199 -0.452838009676636 5.274799410038263
H 2.960225782204238 0.960370047038966 5.413033627088021
H -1.593934841799898 0.199237445729455 8.105335082432036
H -1.097957936672801 1.743437883450896 7.577721858014170
H -0.149444075052103 0.847440348549330 8.773350091705721
23
maple-route1-mmgb-reference-mlip-reweighting-v1 phase=gas replicate=repeat-1 sample=79
C 2.156563362197106 0.706117675656422 0.212328592688827
C 1.412925950964277 1.173546599854864 1.506264708016569
C 2.190757291804069 0.846464763135205 2.806706045481783
C 1.395793213918053 1.222536426909668 4.030515663080381
C 2.087338977618039 0.693238294206497 5.337454526818835
C 1.265075650803211 1.125221109340682 6.552341330172609
O 1.203238989763762 2.315159458181681 6.849904579725949
O 0.254845956318134 0.280928795387072 6.809843399566225
C -0.830433618546831 0.524600573722960 7.739091933665589
H 1.477685114396436 0.677142273017000 -0.667556534197873
H 2.972470444342464 1.453111959101645 -0.050554185835741
H 2.674604364967117 -0.238548432514770 0.314994201308075
H 0.420229139275185 0.667347592375974 1.556411617729599
H 1.121845034338092 2.217395865877740 1.485363911248721
H 2.399175368420394 -0.242432338982042 2.769402576779836
H 3.183316719601097 1.405086476411026 2.743070726581283
H 1.019994001255622 2.275225897611742 4.025690472949998
H 0.504579633707126 0.568303604269239 3.945313199178108
H 2.152746081438043 -0.410326348119247 5.192970027483991
H 3.055082383641444 1.121783707955710 5.429977232093556
H -1.503119008771361 -0.246847644026656 7.850624104225725
H -1.461068758731004 1.317053003088494 7.378789620879354
H -0.428627182616157 0.714293707108731 8.736805857742359
23
maple-route1-mmgb-reference-mlip-reweighting-v1 phase=gas replicate=repeat-1 sample=80
C 2.226650019357375 0.745695452377577 0.287299025596377
C 1.369521804637293 1.074902110270928 1.479868756458895
C 2.187908050385724 0.833477933828734 2.788107081564526
C 1.396118408409982 1.164935373568754 4.059271514600201
C 2.155848321320484 0.867240202457172 5.433267682990300
C 1.190621003683652 1.231308562255245 6.571950948738118
O 1.021268574508499 2.391522008271629 6.939061204116069
O 0.325484990151869 0.174597308696952 6.736816418220782
C -0.756111350068966 0.375147217028605 7.560015895907064
H 1.636171499284727 0.997691611240529 -0.636313030422989
H 3.166812995106845 1.335848932586988 0.221838309973649
H 2.497880146382297 -0.274405524883053 0.252440245446917
H 0.461891787990199 0.520771630564162 1.461992023312671
H 1.057107839029526 2.119681433298438 1.466925438152299
H 2.532643203110490 -0.199210303209712 2.709878835223558
H 3.055690553922268 1.519598601018334 2.757212027485729
H 1.289492642943355 2.263270807906974 4.023477940962412
H 0.387721971463326 0.784824363639202 4.055608605393656
H 2.473570916119113 -0.210688795335356 5.401509303801097
H 3.038685950865331 1.572416624090984 5.510696329891111
H -1.454598103500797 -0.448605597958383 7.727488321790021
H -1.417788711040109 1.046072448727408 6.997804384209349
H -0.478764028028075 0.717363654901417 8.557301799668600
23
maple-route1-mmgb-reference-mlip-reweighting-v1 phase=gas replicate=repeat-1 sample=81
C 2.276527492895280 0.778168617917635 0.223366672224844
C 1.419163847014094 0.979132831717271 1.491971508902471
C 2.236462277252033 0.807485344611114 2.854121322851709
C 1.409289380037156 1.210004338293390 4.095678375680079
C 2.161537934939009 1.159329483407316 5.404737446423614
C 1.109413568133555 1.321489323765799 6.485256763486226
O 0.845278647385002 2.308038055932624 7.061561018140598
O 0.464901277349006 0.138551562947356 6.732169645716338
C -0.783263774780711 0.268679477221443 7.480265237410525
H 1.797114626757524 1.160394090046068 -0.653709417718734
H 3.236826901247142 1.216333952547417 0.259654539170389
H 2.447853081332251 -0.316751208200919 0.094641860081362
H 0.556799728459936 0.339293201958676 1.440486440809203
H 1.026214918543470 2.002985318749994 1.501838600063852
H 2.353837647770336 -0.268199175208339 2.841698434313320
H 3.189217449241442 1.295033096362521 2.867082113772110
H 0.962668476604048 2.195416149519573 3.953737876581448
H 0.583423993269939 0.515802770011165 4.188055123200209
H 2.481255856056791 0.104557547283322 5.426195416698477
H 3.050393106928909 1.882157915215929 5.517423870367653
H -1.396151168675578 -0.684529519055415 7.589247310472105
H -1.484830074562606 0.829933198226940 6.829679307053124
H -0.658116057587304 0.613241830481177 8.513557912420946
23
maple-route1-mmgb-reference-mlip-reweighting-v1 phase=gas replicate=repeat-1 sample=82
C 2.325874740203997 0.793585042508474 0.186483500745074
C 1.527690641976152 0.923944120281825 1.518703765571218
C 2.292137234184390 0.743902238167995 2.814796570980307
C 1.396648167570658 1.230875923008772 3.987966434745625
C 2.057852594989201 1.357511383115990 5.397536618128177
C 1.163910738227528 1.328958298832651 6.673094475082321
O 0.717555689003739 2.382261835472995 7.137427862235582
O 0.455684602010730 0.115641675081904 6.697795545021284
C -0.796752205814822 0.063014808587630 7.436361060921685
H 1.797327433602284 1.144406217347441 -0.659991163363221
H 3.242147879408599 1.357189855410255 0.196945672443631
H 2.615605822940203 -0.284093085524481 0.038978903888709
H 0.608749566354367 0.250228385134598 1.475320688976259
H 1.159782144022891 1.965394424529387 1.552749739076834
H 2.614821782268728 -0.294162882055334 2.856574783820010
H 3.106091265431123 1.451795000604359 2.861630424887620
H 0.986923101515888 2.212159843736952 3.720229619350564
H 0.522088856267282 0.542527966256070 4.071863431262862
H 2.775354590737984 0.533326684146487 5.512958526000813
H 2.590681701616845 2.298759789697390 5.439487630957718
H -1.113451312017903 -0.987592477450178 7.528505444365519
H -1.620143079624680 0.500297402359721 6.831895811706162
H -0.603616517565763 0.363456243948877 8.506536331951105
23
maple-route1-mmgb-reference-mlip-reweighting-v1 phase=gas replicate=repeat-1 sample=83
C 2.435964245010656 0.708577114629650 0.217805197949889
C 1.566953801803632 0.930557514812678 1.455857808932252
C 2.261315547360315 0.856402361562417 2.832167953710856
C 1.364066919208717 1.232810082808650 4.058156668067546
C 2.077767077642282 1.434822544740330 5.436023109471328
C 0.989936599359538 1.399656298256245 6.515925986701568
O 0.581697452286736 2.376191896407018 7.203749576389141
O 0.506818091555273 0.129720533205921 6.674658310207072
C -0.679723171380410 -0.078610138422207 7.423853959323877
H 1.841122609830953 0.852399320662134 -0.705309186641031
H 3.202678872041942 1.536359309078753 0.162689927608738
H 2.932214189105282 -0.230839511456865 0.240532462416367
H 0.832554623885077 0.066641472552870 1.385895667150463
H 0.986288654400123 1.879817202501072 1.320561776284493
H 2.622411455759139 -0.182088326109654 2.933749703356685
H 3.095472836159753 1.611845777497293 2.940499484698825
H 0.729194365514611 2.119805554330234 3.808121781063969
H 0.633591679673174 0.384559230439258 4.210502474849368
H 2.792320531883025 0.639647802982050 5.643281100904679
H 2.553614271266586 2.376359743329105 5.437472117093450
H -0.845273821363328 -1.136732277000690 7.365573289496481
H -1.536772116257478 0.395922012028616 6.935829350271079
H -0.378797492585169 0.106354854202335 8.476909240803588
23
maple-route1-mmgb-reference-mlip-reweighting-v1 phase=gas replicate=repeat-1 sample=84
C 2.582105116026319 0.639753437426881 0.334175940991654
C 1.512196810061695 0.895205048904116 1.468569376526514
C 2.296700450719778 1.093015562691509 2.846777618369128
C 1.274697840309352 1.245851866785469 4.043075611615715
C 1.939806678836606 1.485836216334165 5.403776841711148
C 0.988791142803307 1.413601837356813 6.503600921711762
O 0.460294603381636 2.336481532211552 7.085347474015479
O 0.552052807847853 0.101881259203080 6.620095365274842
C -0.535364215765125 -0.204538469865958 7.514404081105594
H 2.091586246910532 0.489990823946736 -0.666196004057592
H 3.191485040175275 1.564306459404867 0.179796256106788
H 3.245156245753499 -0.163585308148238 0.599709992968176
H 0.790117231274193 0.111162476908899 1.474219412437192
H 0.986566464131718 1.819366231789871 1.194306370384800
H 2.955343588337996 0.198164349686777 3.037909289308775
H 2.900720405281900 2.019731040481906 2.846353123838121
H 0.541536732347805 2.051293315347837 3.814182843477332
H 0.682627617461321 0.327134850672151 4.151204683080979
H 2.539972848950807 0.628240855464790 5.638356818349796
H 2.578802625386095 2.382984576154522 5.429962476447217
H -0.778009086860266 -1.277800551161531 7.449081280719315
H -1.416617051544051 0.350298670334543 7.203867805506193
H -0.166688927199061 -0.016869338636986 8.472317848982163
23
maple-route1-mmgb-reference-mlip-reweighting-v1 phase=gas replicate=repeat-1 sample=85
C 2.667124923534086 0.614186325956189 0.465343493986129
C 1.609050424515172 0.887048981270257 1.556718953328594
C 2.236597478856549 1.343059342952272 2.806032686188544
C 1.197287647366021 1.296203138320273 3.940147735342098
C 1.923146422364062 1.512930104259875 5.289651522876815
C 1.011995890133233 1.375352964624830 6.521753230000425
O 0.339580568515987 2.277767465789991 6.919662847140817
O 0.526803154951179 0.027408725341845 6.638863577652366
C -0.422233893476853 -0.316544524521592 7.669303866590960
H 2.087611775479297 0.223594596560010 -0.363569367795270
H 3.247812076175531 1.428606083558535 0.096910368975592
H 3.328754135081450 -0.244585977930611 0.838452040469207
H 1.093505136885758 -0.001638644506111 1.688024144088003
H 0.944993147721762 1.626699987961897 1.196452670077964
H 3.021478693873618 0.614665200894633 3.082654774490574
H 2.635315697966318 2.322833042338483 2.684987813067842
H 0.521523933723300 2.133679355805812 3.776794436881220
H 0.620522755189332 0.402779658230383 4.013225520359834
H 2.836974481306426 0.909809236898807 5.462925262402075
H 2.239218566514426 2.597133725104322 5.286247033812989
H -0.726562000839641 -1.370548363333318 7.697643960923553
H -1.315764705812637 0.292170596749417 7.475501414474225
H -0.038479886724334 -0.033582668214971 8.626169497087021
23
maple-route1-mmgb-reference-mlip-reweighting-v1 phase=gas replicate=repeat-1 sample=86
C 2.750020299949484 0.553866653301484 0.453229195926824
C 1.664038129527488 0.830384455810562 1.505051665426651
C 2.171261441920548 1.523940947639972 2.821277175812122
C 1.218685343795400 1.403117155094064 3.984420458274978
C 1.871535962561881 1.530432072349159 5.353319542278144
C 0.772176854654611 1.317950028182926 6.329578931683985
O 0.191973848564991 2.208854538460631 6.882156507606078
O 0.638325886651507 -0.027499681201998 6.705323748171694
C -0.250450449912666 -0.301247173211368 7.719446615089495
H 2.409758929737092 0.130094582206590 -0.463465660992914
H 3.259273665899008 1.493212135531495 0.210142040486111
H 3.492738833462130 -0.150655055504252 0.911005463214542
H 1.145067398752228 -0.135529144999896 1.696076474146585
H 0.945278964248267 1.459353520725552 1.007362173631374
H 3.089115730597721 1.034592233337095 3.094065997157089
H 2.361892584223216 2.575206751205611 2.597213847879559
H 0.356313152190899 2.024655748520210 3.877776797719213
H 0.926101522291653 0.351909828749296 4.077597574983826
H 2.701287255595890 0.761398973442862 5.513102075136950
H 2.290804560685658 2.532799994850748 5.532777150521607
H -0.601390544648748 -1.325371029366045 7.743344532959270
H -1.132601877293624 0.366788459560036 7.516869746081634
H 0.118140452960705 0.006684748353337 8.773178252508240
23
maple-route1-mmgb-reference-mlip-reweighting-v1 phase=gas replicate=repeat-1 sample=87
C 2.842025849238126 0.560500788270708 0.455043352142122
C 1.725869089086463 0.835228701708314 1.459632539972938
C 2.187020779429786 1.610952641721870 2.708391469200362
C 1.220294966410193 1.390556672388906 3.907273776389717
C 1.793086970294067 1.535440817924020 5.331419477100261
C 0.762119474715338 1.318066213512772 6.403852658897552
O -0.040408129601952 2.156614391315516 6.862222567465651
O 0.714965877154650 0.013669179012205 6.789934625871367
C -0.156231382127378 -0.379119805300851 7.840057021110969
H 2.573001632709520 0.108880064687017 -0.540020797396291
H 3.258501487622145 1.577459629821414 0.256598668214179
H 3.592381158237968 -0.043916382866529 0.868484573602627
H 1.368291432700457 -0.194307533968980 1.831777456621745
H 0.835981946623438 1.312752324020118 0.957577155495142
H 3.239657861192075 1.348632898411679 2.950842482007618
H 2.131572993110416 2.699724019229739 2.368932402928651
H 0.490247839497046 2.200515900560700 3.830783037049270
H 0.716432471182679 0.403319634138337 3.950593150938732
H 2.503115480501934 0.710331501344857 5.412104287218678
H 2.301985774055621 2.475091209816805 5.510795915550270
H -0.124965463853059 -1.493802376005778 7.977229891748046
H -1.208522021233000 -0.087582440421091 7.563798084616770
H 0.044559076899706 0.122969597983008 8.856059584107987
23
maple-route1-mmgb-reference-mlip-reweighting-v1 phase=gas replicate=repeat-1 sample=88
C 2.955736958174822 0.620064195408280 0.422510147553577
C 1.796149069707294 0.804047146547246 1.434921185278807
C 2.142601614947434 1.630162172811055 2.683727724145957
C 1.095836970988528 1.462141612183062 3.825886737312953
C 1.737254609965384 1.621380317879863 5.289058580259448
C 0.745322326186058 1.304108125723845 6.447960003608271
O -0.150510154168439 2.115427498210302 6.760324808186828
O 0.825766577391838 0.002200798189469 6.930531892670309
C -0.114442709580966 -0.475217575098345 7.971751718829887
H 2.480549998276772 0.071236346792722 -0.452846810951522
H 3.300229065625159 1.589692467297720 0.036569340054620
H 3.764478495577968 -0.042404288363074 0.695209610066791
H 1.448394434828018 -0.184671517346653 1.737961819156326
H 0.915989251760184 1.272120861846147 0.918026536473293
H 3.089461499653147 1.129045195400592 3.074489348033138
H 2.387185594320576 2.677038584274977 2.380831282030706
H 0.305437036134677 2.261161681998253 3.673530686378267
H 0.626737234216810 0.451746413137047 3.823284710339057
H 2.548269410891991 0.935099668668810 5.382380918760441
H 2.014948938329381 2.644228636560713 5.539083307240828
H 0.337835533873251 -1.472029941190422 8.336655110722077
H -1.123210313916374 -0.683447740043168 7.592864809594820
H -0.207459576969583 0.197863293492355 8.805078397049398
23
maple-route1-mmgb-reference-mlip-reweighting-v1 phase=gas replicate=repeat-1 sample=89
C 3.010434346321800 0.744063609394150 0.405928414235415
C 1.789216959634631 0.767667417594929 1.388938576231114
C 2.167255193770702 1.538020261870348 2.791706455992676
C 1.051570083724605 1.524469242566252 3.877546016606304
C 1.619053908166519 1.657570697472809 5.267742926410353
C 0.581078573629084 1.204564546303671 6.334439680591228
O -0.267987636160812 1.987017260860558 6.758402967730877
O 0.995144728234267 0.065398182565851 6.993107360195625
C 0.027804213365599 -0.442663764462931 7.917470200256405
H 2.765403168732034 0.086220156598145 -0.409700683632192
H 3.339153082782192 1.711991657000910 0.042583986383027
H 3.858165069748765 0.132802930042206 0.885097049444663
H 1.436705965991851 -0.210876818282597 1.516332126402615
H 0.985371927592605 1.312677339745548 0.899462135874987
H 3.110656722776284 1.173368784394861 3.234612687945812
H 2.335596600119550 2.555480039371484 2.512256306078677
H 0.325782257373387 2.342393389524513 3.669686507991242
H 0.572952217907141 0.518279877921196 3.871145274159089
H 2.514063176868839 1.011829501938639 5.380162888620586
H 1.733420115813010 2.690035199644679 5.590539007927491
H 0.569568405886129 -1.225164919869870 8.404095968189390
H -0.860183842551869 -0.872137196467928 7.472275082143844
H -0.271809045215835 0.327626483049700 8.608361420313859
23
maple-route1-mmgb-reference-mlip-reweighting-v1 phase=gas replicate=repeat-1 sample=90
C 2.979820291787049 0.849688224283070 0.482668911230396
C 1.820992211749993 0.852189590920121 1.454130360326972
C 2.222565763977530 1.458101008090953 2.776747079113743
C 1.029639588895767 1.457443632050450 3.813121380305016
C 1.551058356877330 1.713231945921988 5.234109204925865
C 0.541222565396664 1.258314786115196 6.341455096888104
O -0.474100056296361 1.818933633856995 6.729020178761512
O 1.049706398933532 0.149229855033032 6.960846480475801
C 0.236193257948351 -0.483202238154133 7.929981275483397
H 2.853996085783361 0.156801636906920 -0.324367776184512
H 3.145874794730670 1.889550717467278 0.135615390773563
H 3.878981694523020 0.461030466063276 0.979665787940792
H 1.628745758575990 -0.210229963579895 1.636903603274548
H 0.954473546077290 1.335076467344977 1.050743157378714
H 2.988578746458581 0.867832824721732 3.179839350340979
H 2.681566840383835 2.439232296072908 2.627017152810458
H 0.386190031494053 2.257526963803777 3.547424029597193
H 0.499066615952614 0.495038582718847 3.793170206881340
H 2.419574882666477 1.021972857427816 5.410040969365193
H 1.789048057098269 2.754359977145914 5.509883835423819
H 0.819485454822611 -1.212618697958757 8.346492440675885
H -0.660618094907268 -0.952154937975790 7.549759919613122
H -0.167598984362048 0.269046657599382 8.628950470378978
23
maple-route1-mmgb-reference-mlip-reweighting-v1 phase=gas replicate=repeat-1 sample=91
C 2.988109657217546 0.960638746418392 0.441904322546024
C 1.839878935369861 0.866631374034176 1.516181434301999
C 2.213790932744421 1.392489076975441 2.846759578825882
C 1.055804143054762 1.379128101152013 3.836059390042119
C 1.414788301213512 1.886743931176432 5.274919920313001
C 0.534608917426279 1.275640621999929 6.332354023502841
O -0.581189052178835 1.727171354556673 6.538285939168541
O 1.067332828274422 0.134827055757402 6.936089066091554
C 0.445862889259673 -0.580344109677111 8.025899894312921
H 2.856175542276503 0.351909355927049 -0.473822100164561
H 2.988487771042216 2.044089584635328 0.238994508159212
H 3.935087836779517 0.671814141382566 0.784701524396625
H 1.463423388451772 -0.215469924640018 1.586783630323771
H 1.036534684448288 1.581902639051391 1.196198832814851
H 3.022988832638424 0.817213903146143 3.312192322039994
H 2.703233832393117 2.403611139349951 2.748704470277473
H 0.331997202256792 2.039412927606133 3.421887915729590
H 0.649841225990196 0.389319504059587 3.873274415289125
H 2.410685373186049 1.574753268819280 5.580967554795767
H 1.297920850152867 2.969707709881487 5.412164436468940
H 1.021751660853583 -1.470078844899810 8.307053009140306
H -0.565217280422506 -0.912492900408166 7.797007735793321
H 0.161856780764190 0.119363406590392 8.813929490467325
23
maple-route1-mmgb-reference-mlip-reweighting-v1 phase=gas replicate=repeat-1 sample=92
C 2.982961759603456 1.114160547111433 0.425344110552380
C 1.846502395786589 0.903825467020994 1.457757735533436
C 2.236201347553195 1.325435748527060 2.950373057590671
C 1.093043540474262 1.316206703085713 3.962848668964286
C 1.346405291597545 1.982160120003616 5.293868980166384
C 0.483376163014681 1.271844626387411 6.320043697709967
O -0.716666942100613 1.506060436212616 6.519543119861876
O 1.131810092890635 0.189919293995703 6.865928363454508
C 0.564409441089519 -0.507969726053799 7.975502632169354
H 2.676243092458019 0.622045605093461 -0.526610882546446
H 3.235141706269575 2.156883591495268 0.313786452077634
H 3.845303925791353 0.506314022884920 0.683876418121047
H 1.758672145940928 -0.202755000580291 1.419406070547963
H 0.858540966882481 1.398758757516823 1.144630431553348
H 3.103907950519576 0.737398834504631 3.448974667665210
H 2.727196550659605 2.322248942937656 2.926502492538919
H 0.136458115948142 1.681838156396782 3.501099577258962
H 0.950862264032467 0.271858273308611 4.176580611606970
H 2.354065403862199 1.899272105879001 5.619593856018124
H 1.041270341358413 3.020468829950038 5.197060192828210
H 1.031709720014948 -1.567013122599623 8.090619068629266
H -0.508306398036751 -0.666249772506862 7.854292059447785
H 0.514636502353488 0.125330752903916 8.835910959303893
23
maple-route1-mmgb-reference-mlip-reweighting-v1 phase=gas replicate=repeat-1 sample=93
C 2.954118906740320 1.210422817599591 0.501911665269604
C 1.876673069984671 0.889076633258939 1.499257016237288
C 2.315777567171887 1.356804898378448 2.907584787511851
C 1.102549980963461 1.148469485758664 3.915748218678051
C 1.213234515399432 1.964840367292435 5.253351993707112
C 0.426701511971659 1.320564673756247 6.410776594401718
O -0.784466650011362 1.324314623244720 6.559823248847772
O 1.203630085605892 0.302948876247699 6.855169045298780
C 0.666393636814908 -0.455867130378809 7.910538088522303
H 2.470480361876959 1.025278624671184 -0.442646135952888
H 3.312939737921487 2.235745544597483 0.578010435997719
H 3.812014877652875 0.466142754346455 0.442866231125801
H 1.622533132443755 -0.138945234997717 1.464342047009223
H 1.011843498920395 1.510925586507774 1.271875706361651
H 3.279517422709043 0.951178367354944 3.257913633438796
H 2.596484916518623 2.404404633045920 2.825634119056294
H 0.119044406456455 1.440965408965960 3.453421273136068
H 0.954878376246122 0.039772922640538 4.122410220665794
H 2.240080491198137 2.110512914843782 5.590527180931433
H 0.789646746668575 2.948451604314256 5.018408925025981
H 1.223260070455030 -1.412123360276876 7.936592020227367
H -0.401540110168111 -0.693457948709364 7.714396935175704
H 0.599713134282735 0.157599216306774 8.815727687837089
23
maple-route1-mmgb-reference-mlip-reweighting-v1 phase=gas replicate=repeat-1 sample=94
C 3.003194848348457 1.268626055461791 0.446528561024456
C 1.895892035931108 0.909405096358503 1.521667776374612
C 2.187192197277252 1.441495745251114 2.956225628386029
C 1.094799960734105 1.013740116165685 3.918077973313323
C 1.028424946184715 2.007874820077001 5.134040700903873
C 0.391511869560734 1.246053744089145 6.299452881690284
O -0.774428587646650 1.365532558923108 6.529218901150475
O 1.292725811011084 0.392273434616847 6.978945954858196
C 0.777733379558204 -0.566204134338538 7.970687835667999
H 2.659192977671222 1.207683888997279 -0.580347313695059
H 3.351657458106736 2.299395249316074 0.715521697850304
H 3.892676660078135 0.609516822879762 0.452893734220934
H 1.794598076951126 -0.146933340181882 1.643530728069917
H 0.970606861029793 1.297534013803220 1.258170660527928
H 3.065655436112237 0.988684930645214 3.236225019108219
H 2.483068018741381 2.489237361576883 2.991263031269695
H 0.098956810539423 0.923668782926687 3.455303283380865
H 1.342150401187081 -0.043502792751591 4.228105472492388
H 2.069058437089630 2.219226942865783 5.489109687785386
H 0.542170345339876 2.948957168266046 4.837194304221539
H 1.560598046378669 -1.230625577317289 8.177749826216115
H -0.059180071951537 -1.186239849887325 7.585730554447955
H 0.390505481922351 -0.054391134544858 8.891415313820904
23
maple-route1-mmgb-reference-mlip-reweighting-v1 phase=gas replicate=repeat-1 sample=95
C 3.037172111617159 1.328272954916071 0.470328463442848
C 1.952221359819336 0.911607406394015 1.418015139309617
C 2.079705267094235 1.440219834238621 2.870291585598914
C 1.137913262322435 0.964522360091916 3.947098493350683
C 0.984234228605353 1.884836606297503 5.168925789186333
C 0.373905100687381 1.208872486655946 6.356294823181614
O -0.816824335016153 1.293523766849884 6.611149997965388
O 1.312678294838527 0.480345940123666 6.992313444980581
C 0.839948168399693 -0.487804745959447 7.931099912036035
H 2.842014830503506 1.016111385982625 -0.585232729184015
H 3.253184633576629 2.401230269256365 0.630356696611286
H 3.936459996529119 0.827140970458620 0.742735331731438
H 1.901189535123705 -0.201137869447140 1.481708159626280
H 1.010622265802357 1.271841056428075 1.011398423618747
H 3.124814148480764 1.448396374517986 3.163864399922542
H 1.890987266877038 2.498600073809336 2.751649661161256
H 0.145950905650610 0.929078029204447 3.532048957013338
H 1.376663558951748 -0.034376561692965 4.186544427172104
H 2.014618534045332 2.201165807677589 5.458747837556434
H 0.395039934931246 2.774904264807976 4.837128157620004
H 1.724186097067264 -0.775101373277825 8.505737861714827
H 0.457220264770908 -1.389991111096351 7.501220075215095
H 0.131878562504014 -0.067438775125321 8.658007815350715
23
maple-route1-mmgb-reference-mlip-reweighting-v1 phase=gas replicate=repeat-1 sample=96
C 3.085650043110495 1.363056096081968 0.500090858806792
C 1.974964647839029 0.854421471217113 1.393138988541307
C 1.970270977510490 1.558111636912933 2.747222891758123
C 1.066657694472667 0.963968923215615 3.862640549580735
C 1.018292976714766 1.864887703699306 5.104264634325741
C 0.379350277645822 1.226772583926016 6.426913102212320
O -0.837068961570079 1.155206751566166 6.684235417170402
O 1.315616836193106 0.498108781441031 7.007725641116471
C 0.883393427918055 -0.419304865234512 8.016520130384425
H 3.097087970322983 0.736927615851571 -0.407781292887407
H 3.003388106215498 2.422501005765947 0.335686998083673
H 4.050107004662141 1.219031505626110 1.000480995500108
H 2.042780728532776 -0.257831493295708 1.590456460356209
H 0.975411242698988 1.025735358633325 0.834961691552231
H 3.078274086072409 1.566582059390557 3.074746638424397
H 1.798926405641825 2.634686088188697 2.615958555019578
H 0.078836566541797 0.640099730227295 3.549288587732899
H 1.574937424977255 0.083693197701618 4.101400344034208
H 2.071309524731154 2.075242588516679 5.294236247602369
H 0.527586475088017 2.813544763497184 4.812191315222435
H 1.752639793973766 -0.554743502693441 8.756845889550421
H 0.692235530638373 -1.425293820241365 7.611637466507638
H 0.067506094540675 -0.093793790339355 8.650334739368054
23
maple-route1-mmgb-reference-mlip-reweighting-v1 phase=gas replicate=repeat-1 sample=97
C 3.127945443609808 1.391610541569970 0.430797912723410
C 2.015980372966130 0.753838001766844 1.434142305455914
C 1.859367899748333 1.647747069250090 2.728367537716896
C 1.002517848636081 0.977793692926612 3.879130469103622
C 0.919436451709606 1.914311686016977 5.130785803954887
C 0.412508915053589 1.049682018125541 6.308495997843226
O -0.775909283939259 1.159849615260942 6.534644921898972
O 1.378127409109073 0.507135231318263 7.095996235845896
C 0.967314147231698 -0.388907152142957 8.203572991264950
H 3.312014436855538 0.673964916846913 -0.343689060023838
H 2.788287807001349 2.310028352420171 0.012501139110261
H 4.100614906259877 1.680478838999796 0.934239954161182
H 2.279610332879313 -0.262177593169264 1.784936812442882
H 1.039862458530326 0.591446837981292 0.866795671502915
H 2.869068233742399 2.020434012378878 3.036919134210608
H 1.340467809979585 2.634874952608217 2.520913084731427
H 0.007678865840065 0.808833020695666 3.459040214949779
H 1.370181602914877 -0.084562703116769 3.988911703891175
H 1.917079634670097 2.334286067648984 5.308219438747606
H 0.213361256641739 2.729299360840218 4.945802193739034
H 1.775474911607394 -0.748147678420509 8.867301724363617
H 0.492766954688515 -1.321059404849694 7.731619168974642
H 0.224693544034015 0.079390156822018 8.910960153345487
23
maple-route1-mmgb-reference-mlip-reweighting-v1 phase=gas replicate=repeat-1 sample=98
C 3.008807164138896 1.372524800565279 0.468282980608707
C 2.157213115473073 0.730772796748326 1.533470907358827
C 1.761070545041544 1.711686145487856 2.648351534194010
C 0.994449351193037 1.029102389950360 3.809032316439428
C 0.984194550391522 1.859245204093444 5.132105814090634
C 0.382998894888991 1.059203849344191 6.321774483274431
O -0.790742697573169 0.946914805433457 6.532489660996664
O 1.361965941617530 0.537256001780932 7.053905603135559
C 1.022964718153256 -0.216329807892481 8.238513625793800
H 3.231967235098028 0.531652505354360 -0.204810619870501
H 2.417039248036084 2.140621171697298 -0.079818191761919
H 3.887595721176413 1.865202432558164 0.876051165815262
H 2.696901533406213 -0.086472869000993 1.955885757930772
H 1.331521444433163 0.316476282666960 1.057434464641968
H 2.659464616390696 2.137869289462104 3.012717885195180
H 1.187329255225257 2.609992022099685 2.338547778620529
H -0.001598495370032 0.691740264684964 3.462687678393703
H 1.547331483798345 0.045983475202901 3.898018592149009
H 2.046628288299211 2.067444246962137 5.306375791012891
H 0.474255004743546 2.807989541213166 5.011005186910001
H 1.821703967820365 -0.735772384422058 8.722491076995103
H 0.220914215687474 -0.941938900077266 7.926248835271227
H 0.610835135106231 0.514557905935036 9.023336180447878
23
maple-route1-mmgb-reference-mlip-reweighting-v1 phase=gas replicate=repeat-1 sample=99
C 2.897951711814367 1.375001753405657 0.398962455884026
C 2.285570544266752 0.701293398860470 1.651093394824041
C 1.741112459236706 1.699041967698739 2.652787750844463
C 1.013261821927435 1.058972816521993 3.837822167387186
C 0.968128689535878 1.815701616660377 5.109300745402025
C 0.373890298351179 1.057458497553259 6.320531002545948
O -0.799465010357321 0.793265829904318 6.464467390444658
O 1.369944789092132 0.540238067959322 7.043579013004676
C 1.050801497158919 -0.034771079837519 8.276108732539512
H 3.332417913357368 0.620864110286690 -0.326834888335562
H 2.156669996435065 2.039540801011268 -0.158007514038775
H 3.625069092366740 2.055889868902250 0.772994389868798
H 3.017165548857887 0.078038946811413 2.103922513408810
H 1.505854737391161 0.074943990327248 1.353241530808880
H 2.534126481645913 2.324901506569562 2.986304493487173
H 1.030192819992958 2.320150127130342 2.167050118065132
H -0.027544624638792 0.843391416358155 3.552038396195599
H 1.433958172046458 0.088498076297650 3.990961748677550
H 2.020382298022636 2.091925836780284 5.216326210895728
H 0.424355165923467 2.742645887918744 4.862435904497511
H 1.860104398575661 -0.596169592152068 8.774667058578041
H 0.180709419044630 -0.639152266716672 8.155342859663921
H 0.843332113042464 0.805246258654082 8.952952986642886
