11
Frame 5  Energy = -268.5568252278 Hartree
C       0.76953772     -0.58104803     -0.52137015
C       0.39337128     -0.80415149     -1.97244411
C      -0.90661099     -1.55880090     -2.11198718
O      -1.61265473     -1.95449703     -1.19329262
O      -1.20627860     -1.73417972     -3.42116012
H       1.71611979     -0.02987527     -0.45867824
H       0.01456281     -0.00845661     -0.00134573
H       0.87784579     -1.51235096     -0.00039469
H       0.29048864      0.14376691     -2.48619680
H       1.16690126     -1.38281597     -2.46896976
H      -0.53016039     -1.35741479     -4.01000821
11
Frame 10  Energy = -268.5568249473 Hartree
C       0.77019274     -0.58099233     -0.52264783
C       0.39479314     -0.80242062     -1.97070283
C      -0.90544666     -1.56169372     -2.11272686
O      -1.61406115     -1.95387365     -1.19288784
O      -1.20659609     -1.73340769     -3.41931669
H       1.71694971     -0.02524158     -0.46483079
H       0.02869378     -0.01654913     -0.00275079
H       0.87268297     -1.49275684     -0.00919764
H       0.29091558      0.12676129     -2.49675674
H       1.15408198     -1.38053365     -2.47115702
H      -0.53759583     -1.37009694     -4.00846629
11
Frame 15  Energy = -268.5563825068 Hartree
C       0.77086329     -0.58059412     -0.52406247
C       0.39610673     -0.80072703     -1.96883618
C      -0.90441868     -1.56466791     -2.11316990
O      -1.61524691     -1.95302819     -1.19287466
O      -1.20711351     -1.73269535     -3.41746754
H       1.71751825     -0.02103103     -0.47080124
H       0.04182509     -0.02375259     -0.00370159
H       0.86809096     -1.47606432     -0.01684198
H       0.29155594      0.11075514     -2.50822414
H       1.14227581     -1.37867294     -2.47381263
H      -0.54527863     -1.38265772     -4.00609690
11
Frame 20  Energy = -268.5565992880 Hartree
C       0.77172636     -0.57975433     -0.52576538
C       0.39731546     -0.79910669     -1.96686696
C      -0.90342346     -1.56768943     -2.11334277
O      -1.61623760     -1.95204442     -1.19322269
O      -1.20778903     -1.73215596     -3.41554553
H       1.71761755     -0.01767322     -0.47689561
H       0.05288104     -0.02939847     -0.00401456
H       0.86439983     -1.46377751     -0.02216782
H       0.29209472      0.09644448     -2.52060695
H       1.13194546     -1.37771087     -2.47729150
H      -0.55170732     -1.39446680     -4.00392460
11
Frame 25  Energy = -268.5568925454 Hartree
C       0.77297977     -0.57845633     -0.52775389
C       0.39832331     -0.79753624     -1.96468631
C      -0.90248260     -1.57064468     -2.11325264
O      -1.61699941     -1.95103880     -1.19393524
O      -1.20866805     -1.73186258     -3.41356176
H       1.71703497     -0.01528139     -0.48282995
H       0.06077418     -0.03257685     -0.00274953
H       0.86188900     -1.45743188     -0.02448225
H       0.29247506      0.08512766     -2.53401482
H       1.12373546     -1.37795657     -2.48186127
H      -0.55619799     -1.40544441     -4.00273429
11
Frame 30  Energy = -268.5568838585 Hartree
C       0.77452115     -0.57670836     -0.53009845
C       0.39923422     -0.79611510     -1.96236577
C      -0.90169549     -1.57351495     -2.11294839
O      -1.61755730     -1.94993882     -1.19499649
O      -1.20976692     -1.73180378     -3.41144929
H       1.71585530     -0.01364746     -0.48878955
H       0.06516552     -0.03308051      0.00026233
H       0.86049528     -1.45692661     -0.02382111
H       0.29278926      0.07688660     -2.54859245
H       1.11759069     -1.37944373     -2.48774116
H      -0.55823225     -1.41525731     -4.00260685
11
Frame 35  Energy = -268.5569685066 Hartree
C       0.77642204     -0.57462015     -0.53274893
C       0.39995353     -0.79493653     -1.95981748
C      -0.90101617     -1.57624770     -2.11228086
O      -1.61789881     -1.94881509     -1.19638060
O      -1.21116834     -1.73186014     -3.40918574
H       1.71453406     -0.01242278     -0.49442512
H       0.06621060     -0.03104943      0.00506047
H       0.86015488     -1.46246845     -0.02038154
H       0.29283755      0.07177300     -2.56379017
H       1.11379773     -1.38230879     -2.49432072
H      -0.55770291     -1.42416441     -4.00403083
11
Frame 40  Energy = -268.5571233293 Hartree
C       0.77857259     -0.57220397     -0.53568661
C       0.40042808     -0.79404520     -1.95722752
C      -0.90042305     -1.57873048     -2.11136561
O      -1.61802819     -1.94761591     -1.19809308
O      -1.21294823     -1.73209704     -3.40686814
H       1.71318001     -0.01186292     -0.49978977
H       0.06418075     -0.02631056      0.01144910
H       0.86088066     -1.47317255     -0.01500183
H       0.29236889      0.06937136     -2.57929584
H       1.11224835     -1.38614022     -2.50141695
H      -0.55465391     -1.43211711     -4.00669525
11
Frame 45  Energy = -268.5571341203 Hartree
C       0.78088613     -0.56957158     -0.53875592
C       0.40068008     -0.79326517     -1.95474271
C      -0.89984033     -1.58107093     -2.11021493
O      -1.61791866     -1.94624115     -1.19997672
O      -1.21500699     -1.73249543     -3.40453086
H       1.71216955     -0.01186105     -0.50435510
H       0.05947598     -0.01964415      0.01859777
H       0.86256727     -1.48764745     -0.00846652
H       0.29173752      0.06956071     -2.59479061
H       1.11249324     -1.39092520     -2.50873358
H      -0.54932532     -1.43915032     -4.01023507
11
Frame 50  Energy = -268.5571359310 Hartree
C       0.78326444     -0.56683836     -0.54181686
C       0.40066640     -0.79268637     -1.95229618
C      -0.89927539     -1.58333385     -2.10880274
O      -1.61771192     -1.94481973     -1.20205779
O      -1.21728864     -1.73302508     -3.40208480
H       1.71131832     -0.01216958     -0.50801559
H       0.05325531     -0.01176455      0.02577916
H       0.86493638     -1.50408875     -0.00167946
H       0.29121912      0.07128553     -2.60955291
H       1.11430000     -1.39636059     -2.51588374
H      -0.54209263     -1.44481200     -4.01380464
11
Frame 55  Energy = -268.5567756860 Hartree
C       0.78566991     -0.56402944     -0.54476904
C       0.40048886     -0.79233580     -1.95014361
C      -0.89863850     -1.58541276     -2.10709064
O      -1.61745730     -1.94335481     -1.20441062
O      -1.21972127     -1.73367434     -3.39967882
H       1.71111563     -0.01280314     -0.51084430
H       0.04599849     -0.00329865      0.03291591
H       0.86792960     -1.52117317      0.00498201
H       0.29044829      0.07399994     -2.62312013
H       1.11738438     -1.40177157     -2.52249108
H      -0.53405462     -1.44997445     -4.01678480
11
Frame 60  Energy = -268.5565205739 Hartree
C       0.78808634     -0.56124102     -0.54752277
C       0.40014522     -0.79225587     -1.94830236
C      -0.89807161     -1.58733335     -2.10516203
O      -1.61713909     -1.94185477     -1.20689416
O      -1.22234243     -1.73446586     -3.39742624
H       1.71256795     -0.01334032     -0.51314483
H       0.03839062      0.00514362      0.03933901
H       0.87156801     -1.53716448      0.01056704
H       0.28951748      0.07700260     -2.63484861
H       1.12135345     -1.40733212     -2.52768449
H      -0.52606697     -1.45529158     -4.01861715
11
Frame 65  Energy = -268.5565159527 Hartree
C       0.79045580     -0.55848930     -0.54988726
C       0.39964462     -0.79250531     -1.94691631
C      -0.89752342     -1.58904875     -2.10305858
O      -1.61669552     -1.94034466     -1.20950544
O      -1.22509654     -1.73527507     -3.39531971
H       1.71516928     -0.01336943     -0.51469386
H       0.03164537      0.01327779      0.04415670
H       0.87577350     -1.55078731      0.01434033
H       0.28811250      0.08002838     -2.64419374
H       1.12601333     -1.41225298     -2.53124014
H      -0.51888680     -1.46101248     -4.01882106
11
Frame 70  Energy = -268.5566069163 Hartree
C       0.79271340     -0.55588534     -0.55174609
C       0.39895439     -0.79294111     -1.94607654
C      -0.89699960     -1.59047866     -2.10087814
O      -1.61620575     -1.93884347     -1.21225843
O      -1.22785529     -1.73612514     -3.39330555
H       1.71891748     -0.01343039     -0.51544746
H       0.02609048      0.02039574      0.04688521
H       0.88006516     -1.56122733      0.01590588
H       0.28673699      0.08226834     -2.65107522
H       1.13077831     -1.41637574     -2.53309551
H      -0.51320443     -1.46715409     -4.01687220
11
Frame 75  Energy = -268.5566413200 Hartree
C       0.79482972     -0.55347712     -0.55319125
C       0.39815456     -0.79353559     -1.94582557
C      -0.89645941     -1.59168117     -2.09863597
O      -1.61572186     -1.93734428     -1.21506226
O      -1.23061075     -1.73703317     -3.39143568
H       1.72391951     -0.01331480     -0.51538352
H       0.02230135      0.02601333      0.04763798
H       0.88475354     -1.56746620      0.01534341
H       0.28544394      0.08347333     -2.65497070
H       1.13504679     -1.41926840     -2.53311362
H      -0.50920481     -1.47389987     -4.01264016
11
Frame 80  Energy = -268.5566841375 Hartree
C       0.79685006     -0.55119138     -0.55418477
C       0.39729904     -0.79435472     -1.94617686
C      -0.89575642     -1.59253790     -2.09645667
O      -1.61523037     -1.93588809     -1.21792726
O      -1.23332678     -1.73799403     -3.38980902
H       1.72987913     -0.01310797     -0.51483714
H       0.02059454      0.03016687      0.04643879
H       0.88976897     -1.56915305      0.01220890
H       0.28445862      0.08355360     -2.65586688
H       1.13847628     -1.42045210     -2.53110514
H      -0.50709888     -1.48130898     -4.00628077
11
Frame 85  Energy = -268.5569881800 Hartree
C       0.79876182     -0.54903535     -0.55470286
C       0.39640116     -0.79529091     -1.94709576
C      -0.89489641     -1.59313122     -2.09430794
O      -1.61475213     -1.93452347     -1.22068069
O      -1.23609559     -1.73904352     -3.38842879
H       1.73665451     -0.01218919     -0.51399355
H       0.02113082      0.03251077      0.04268038
H       0.89487841     -1.56622090      0.00673137
H       0.28361326      0.08199514     -2.65359503
H       1.14104369     -1.42019239     -2.52727669
H      -0.50710548     -1.48894658     -3.99776257
11
Frame 90  Energy = -268.5570535050 Hartree
C       0.80063884     -0.54710252     -0.55469909
C       0.39543458     -0.79635065     -1.94850106
C      -0.89388103     -1.59339934     -2.09229450
O      -1.61438720     -1.93325859     -1.22323040
O      -1.23881306     -1.74015816     -3.38726430
H       1.74408017     -0.01120033     -0.51265259
H       0.02352398      0.03300438      0.03649806
H       0.89998011     -1.55878622     -0.00117150
H       0.28286190      0.07946537     -2.64843219
H       1.14265736     -1.41856650     -2.52180139
H      -0.50902761     -1.49683154     -3.98748155
11
Frame 95  Energy = -268.5571126321 Hartree
C       0.80242967     -0.54539654     -0.55423509
C       0.39438716     -0.79751866     -1.95040133
C      -0.89262783     -1.59337361     -2.09048203
O      -1.61404614     -1.93212622     -1.22569173
O      -1.24158991     -1.74140560     -3.38619177
H       1.75130263     -0.01034054     -0.51093099
H       0.02804582      0.03164606      0.02831769
H       0.90475628     -1.54740628     -0.01139718
H       0.28213242      0.07607335     -2.64055545
H       1.14356642     -1.41550482     -2.51450255
H      -0.51251036     -1.50480475     -3.97584658
11
Frame 100  Energy = -268.5572825584 Hartree
C       0.80408042     -0.54377981     -0.55331214
C       0.39335447     -0.79881768     -1.95272206
C      -0.89114405     -1.59302825     -2.08886715
O      -1.61378960     -1.93102107     -1.22798410
O      -1.24450672     -1.74276580     -3.38517187
H       1.75819732     -0.00953622     -0.50896767
H       0.03417553      0.02903436      0.01888165
H       0.90952196     -1.53261233     -0.02317627
H       0.28156330      0.07239175     -2.63060246
H       1.14377752     -1.41134029     -2.50587037
H      -0.51661728     -1.51288434     -3.96337653
11
Frame 105  Energy = -268.5573727171 Hartree
C       0.80562503     -0.54218504     -0.55200734
C       0.39236806     -0.80028372     -1.95540100
C      -0.88946430     -1.59234390     -2.08753784
O      -1.61370999     -1.93004021     -1.23005222
O      -1.24736513     -1.74423845     -3.38427601
H       1.76454477     -0.00950401     -0.50685066
H       0.04200735      0.02545979      0.00819602
H       0.91460371     -1.51548620     -0.03594726
H       0.28083007      0.06851987     -2.61873121
H       1.14362802     -1.40622232     -2.49634737
H      -0.52047941     -1.52078295     -3.95136156
11
Frame 110  Energy = -268.5572947055 Hartree
C       0.80712767     -0.54058373     -0.55047835
C       0.39143725     -0.80189347     -1.95830888
C      -0.88761483     -1.59139029     -2.08651628
O      -1.61377865     -1.92929713     -1.23191816
O      -1.25031982     -1.74569559     -3.38343581
H       1.76985152     -0.00967305     -0.50474112
H       0.05082585      0.02151912     -0.00342121
H       0.92000819     -1.49706345     -0.04900025
H       0.28020999      0.06458709     -2.60558280
H       1.14352751     -1.40052219     -2.48619404
H      -0.52345659     -1.52816634     -3.94021411
11
Frame 115  Energy = -268.5569192376 Hartree
C       0.80870096     -0.53884444     -0.54888691
C       0.39053322     -0.80370197     -1.96142561
C      -0.88571588     -1.59025814     -2.08578009
O      -1.61403856     -1.92873939     -1.23357733
O      -1.25344304     -1.74724613     -3.38253373
H       1.77407995     -0.01009183     -0.50260194
H       0.06003314      0.01782188     -0.01516010
H       0.92565783     -1.47847119     -0.06168434
H       0.27939790      0.06179365     -2.59166241
H       1.14384631     -1.39508772     -2.47565789
H      -0.52464771     -1.53461054     -3.93081443
11
Frame 120  Energy = -268.5567357485 Hartree
C       0.81037075     -0.53687257     -0.54726032
C       0.38973713     -0.80571702     -1.96470576
C      -0.88370326     -1.58888157     -2.08528797
O      -1.61452080     -1.92830168     -1.23502756
O      -1.25670933     -1.74889142     -3.38152191
H       1.77735704     -0.01073816     -0.50024977
H       0.06845952      0.01479400     -0.02691969
H       0.93149830     -1.46108233     -0.07274085
H       0.27824379      0.06045077     -2.57777997
H       1.14543425     -1.38986281     -2.46494699
H      -0.52339647     -1.53984466     -3.92352577
11
Frame 125  Energy = -268.5565976987 Hartree
C       0.81214272     -0.53465319     -0.54576887
C       0.38912245     -0.80790699     -1.96801248
C      -0.88153402     -1.58719319     -2.08511900
O      -1.61520318     -1.92794965     -1.23624642
O      -1.26014611     -1.75060589     -3.38048427
H       1.77981013     -0.01116698     -0.49818729
H       0.07517379      0.01306466     -0.03749063
H       0.93769658     -1.44689430     -0.08147033
H       0.27674339      0.06093882     -2.56468430
H       1.14858172     -1.38549008     -2.45473729
H      -0.51993488     -1.54409411     -3.91868309
11
Frame 130  Energy = -268.5567277849 Hartree
C       0.81405080     -0.53219659     -0.54442406
C       0.38860932     -0.81016850     -1.97113048
C      -0.87927565     -1.58540411     -2.08530039
O      -1.61604375     -1.92780494     -1.23718770
O      -1.26372138     -1.75231905     -3.37944681
H       1.78126072     -0.01165048     -0.49619514
H       0.07974464      0.01347163     -0.04612576
H       0.94467803     -1.43711463     -0.08741164
H       0.27490899      0.06378718     -2.55269215
H       1.15350458     -1.38172337     -2.44554770
H      -0.51441534     -1.54739975     -3.91608047
11
Frame 135  Energy = -268.5569287647 Hartree
C       0.81616972     -0.52942789     -0.54339673
C       0.38813957     -0.81251393     -1.97407573
C      -0.87711631     -1.58352231     -2.08582866
O      -1.61696927     -1.92774723     -1.23784012
O      -1.26737184     -1.75402713     -3.37844939
H       1.78155290     -0.01234067     -0.49453298
H       0.08155541      0.01636975     -0.05257005
H       0.95200153     -1.43268150     -0.09001084
H       0.27276164      0.06915136     -2.54228365
H       1.15989513     -1.37890021     -2.43738268
H      -0.50772288     -1.55050562     -3.91577061
11
Frame 140  Energy = -268.5569297924 Hartree
C       0.81845148     -0.52644054     -0.54294025
C       0.38778677     -0.81491673     -1.97674394
C      -0.87506737     -1.58148591     -2.08669597
O      -1.61793918     -1.92780129     -1.23832218
O      -1.27100739     -1.75582576     -3.37744836
H       1.78121939     -0.01272808     -0.49317939
H       0.08046869      0.02176886     -0.05644361
H       0.95950083     -1.43373919     -0.08883433
H       0.27015208      0.07720640     -2.53349375
H       1.16795107     -1.37729514     -2.43056393
H      -0.50060569     -1.55320884     -3.91694336
11
Frame 145  Energy = -268.5570037809 Hartree
C       0.82085470     -0.52333572     -0.54290887
C       0.38751854     -0.81730869     -1.97911077
C      -0.87317689     -1.57931411     -2.08776586
O      -1.61903169     -1.92803180     -1.23855456
O      -1.27455837     -1.75761813     -3.37639918
H       1.78038463     -0.01274664     -0.49236207
H       0.07664790      0.02933932     -0.05803737
H       0.96717334     -1.44001187     -0.08401051
H       0.26743149      0.08724532     -2.52605089
H       1.17752264     -1.37710268     -2.42561427
H      -0.49391190     -1.55571852     -3.91921172
11
Frame 150  Energy = -268.5570078443 Hartree
C       0.82330783     -0.52005546     -0.54328889
C       0.38739271     -0.81960053     -1.98117864
C      -0.87163326     -1.57712863     -2.08899330
O      -1.62012572     -1.92832103     -1.23858826
O      -1.27788455     -1.75939971     -3.37538642
H       1.77925179     -0.01218618     -0.49252249
H       0.07042425      0.03837060     -0.05739637
H       0.97479420     -1.45075105     -0.07606120
H       0.26497449      0.09907721     -2.51986080
H       1.18871204     -1.37791501     -2.42252345
H      -0.48816936     -1.55858220     -3.92188575
11
Frame 155  Energy = -268.5571395181 Hartree
C       0.82585408     -0.51681886     -0.54392710
C       0.38741778     -0.82181909     -1.98282520
C      -0.87049989     -1.57495216     -2.09043753
O      -1.62125944     -1.92863167     -1.23845629
O      -1.28088846     -1.76114268     -3.37453187
H       1.77818039     -0.01052907     -0.49329836
H       0.06265865      0.04847949     -0.05475657
H       0.98231190     -1.46398922     -0.06571183
H       0.26268652      0.11184776     -2.51478771
H       1.20086002     -1.37949176     -2.42115169
H      -0.48468622     -1.56183699     -3.92405022
11
Frame 160  Energy = -268.5570284121 Hartree
C       0.82834424     -0.51371810     -0.54471783
C       0.38771067     -0.82390952     -1.98418783
C      -0.86975685     -1.57273755     -2.09199975
O      -1.62236849     -1.92897333     -1.23821848
O      -1.28360471     -1.76287872     -3.37388754
H       1.77736643     -0.00809864     -0.49450785
H       0.05454339      0.05917386     -0.05069561
H       0.98935917     -1.47832759     -0.05374146
H       0.26048906      0.12505228     -2.51048435
H       1.21310337     -1.38139312     -2.42128713
H      -0.48428067     -1.56560006     -3.92564652
11
Frame 165  Energy = -268.5571057464 Hartree
C       0.83071605     -0.51080409     -0.54568193
C       0.38834722     -0.82583189     -1.98537088
C      -0.86938298     -1.57061943     -2.09356751
O      -1.62347643     -1.92928728     -1.23784425
O      -1.28600748     -1.76452336     -3.37342530
H       1.77730430     -0.00513154     -0.49635767
H       0.04664382      0.06983439     -0.04582854
H       0.99561688     -1.49189914     -0.04078206
H       0.25838311      0.13757278     -2.50664875
H       1.22478870     -1.38323382     -2.42279104
H      -0.48713968     -1.56985575     -3.92670630
11
Frame 170  Energy = -268.5572109530 Hartree
C       0.83288042     -0.50822297     -0.54648894
C       0.38930050     -0.82752382     -1.98632462
C      -0.86946332     -1.56856534     -2.09516419
O      -1.62460891     -1.92952702     -1.23733539
O      -1.28809007     -1.76600452     -3.37317453
H       1.77799903     -0.00107712     -0.49858257
H       0.03983341      0.07976653     -0.04047970
H       1.00089848     -1.50365036     -0.02766533
H       0.25661124      0.14884547     -2.50333772
H       1.23531944     -1.38480033     -2.42530691
H      -0.49301487     -1.57439691     -3.92719729
11
Frame 175  Energy = -268.5570036241 Hartree
C       0.83493814     -0.50586725     -0.54718525
C       0.39066111     -0.82893997     -1.98708491
C      -0.86999302     -1.56664474     -2.09678976
O      -1.62558815     -1.92970034     -1.23667570
O      -1.28991517     -1.76743815     -3.37309757
H       1.77940137      0.00457235     -0.50120939
H       0.03490458      0.08836043     -0.03550264
H       1.00512427     -1.51225716     -0.01502102
H       0.25524059      0.15836219     -2.50032089
H       1.24469283     -1.38602450     -2.42870511
H      -0.50180684     -1.57887250     -3.92738008
11
Frame 180  Energy = -268.5571413218 Hartree
C       0.83680857     -0.50388575     -0.54772908
C       0.39241162     -0.83003316     -1.98762772
C      -0.87093947     -1.56486891     -2.09834680
O      -1.62642405     -1.92975187     -1.23589177
O      -1.29150208     -1.76882933     -3.37324220
H       1.78125291      0.01133026     -0.50435397
H       0.03249900      0.09520112     -0.03116403
H       1.00797344     -1.51677496     -0.00342960
H       0.25460450      0.16568673     -2.49690288
H       1.25268309     -1.38667982     -2.43274512
H      -0.51300503     -1.58363472     -3.92758329
11
Frame 185  Energy = -268.5571833310 Hartree
C       0.83843236     -0.50223761     -0.54808359
C       0.39451487     -0.83083866     -1.98807199
C      -0.87234179     -1.56329287     -2.09975791
O      -1.62713192     -1.92974612     -1.23507093
O      -1.29289224     -1.77022634     -3.37355504
H       1.78324418      0.01891622     -0.50796355
H       0.03277911      0.10025319     -0.02779983
H       1.00947847     -1.51672409      0.00664299
H       0.25477136      0.17011520     -2.49341803
H       1.25871931     -1.38621243     -2.43706336
H      -0.52584048     -1.58855978     -3.92825746
11
Frame 190  Energy = -268.5572656432 Hartree
C       0.83980546     -0.50102707     -0.54815782
C       0.39709760     -0.83135107     -1.98838578
C      -0.87419148     -1.56187075     -2.10110780
O      -1.62770718     -1.92961653     -1.23417866
O      -1.29409376     -1.77171136     -3.37389829
H       1.78547565      0.02701889     -0.51213840
H       0.03564210      0.10334297     -0.02549640
H       1.00977459     -1.51176323      0.01505339
H       0.25525113      0.17177615     -2.48971970
H       1.26223061     -1.38477786     -2.44151085
H      -0.53968581     -1.59371409     -3.93015295
11
Frame 195  Energy = -268.5573262636 Hartree
C       0.84091774     -0.50020355     -0.54802260
C       0.40018588     -0.83160934     -1.98858563
C      -0.87656385     -1.56066278     -2.10244515
O      -1.62804191     -1.92947964     -1.23325829
O      -1.29520531     -1.77323824     -3.37433696
H       1.78751586      0.03527132     -0.51679106
H       0.04093087      0.10447546     -0.02431023
H       1.00863302     -1.50212757      0.02192456
H       0.25583737      0.17078844     -2.48601089
H       1.26321680     -1.38223000     -2.44598959
H      -0.55323819     -1.59873789     -3.93347843
11
Frame 200  Energy = -268.5574957236 Hartree
C       0.84178181     -0.49973656     -0.54771117
C       0.40370140     -0.83162282     -1.98873347
C      -0.87939733     -1.55975518     -2.10378781
O      -1.62825625     -1.92926027     -1.23232848
O      -1.29630379     -1.77481879     -3.37486395
H       1.78908431      0.04376076     -0.52174115
H       0.04824450      0.10346369     -0.02430747
H       1.00641183     -1.48821010      0.02700169
H       0.25685549      0.16711070     -2.48249430
H       1.26203371     -1.37869051     -2.45077236
H      -0.56538397     -1.60333096     -3.93900248
11
Frame 205  Energy = -268.5577014884 Hartree
C       0.84242325     -0.49953653     -0.54711868
C       0.40755559     -0.83130989     -1.98877506
C      -0.88257957     -1.55907940     -2.10498326
O      -1.62825587     -1.92898294     -1.23130501
O      -1.29737161     -1.77644125     -3.37532748
H       1.78997317      0.05218881     -0.52702802
H       0.05762705      0.10063745     -0.02547493
H       1.00340102     -1.47038996      0.03006907
H       0.25807677      0.16079341     -2.47892172
H       1.25894887     -1.37418039     -2.45579441
H      -0.57568498     -1.60692540     -3.94708697
11
Frame 210  Energy = -268.5578322822 Hartree
C       0.84289389     -0.49952943     -0.54636762
C       0.41169803     -0.83071496     -1.98865837
C      -0.88605547     -1.55860203     -2.10604427
O      -1.62811499     -1.92875128     -1.23030035
O      -1.29852510     -1.77812154     -3.37565114
H       1.79040251      0.06025088     -0.53282281
H       0.06863567      0.09674459     -0.02792837
H       0.99965488     -1.44936746      0.03202730
H       0.25963568      0.15270246     -2.47563528
H       1.25414352     -1.36893438     -2.46097969
H      -0.58359707     -1.60974013     -3.95780437
11
Frame 215  Energy = -268.5578791995 Hartree
C       0.84326991     -0.49965147     -0.54556195
C       0.41606572     -0.82996126     -1.98836224
C      -0.88980146     -1.55834959     -2.10691490
O      -1.62776392     -1.92842839     -1.22925233
O      -1.29975204     -1.77982286     -3.37582734
H       1.78985651      0.06749019     -0.53939713
H       0.08087569      0.09188469     -0.03135528
H       0.99550860     -1.42641621      0.03290865
H       0.26167214      0.14335084     -2.47243004
H       1.24773048     -1.36314869     -2.46666855
H      -0.58941086     -1.61197370     -3.97095864
11
Frame 220  Energy = -268.5576074893 Hartree
C       0.84354802     -0.49982603     -0.54468952
C       0.42061890     -0.82900891     -1.98783277
C      -0.89380859     -1.55830393     -2.10771424
O      -1.62728708     -1.92802191     -1.22821048
O      -1.30106302     -1.78158680     -3.37593717
H       1.78766119      0.07388024     -0.54615452
H       0.09302978      0.08657022     -0.03525558
H       0.99136949     -1.40256807      0.03330547
H       0.26430435      0.13309233     -2.46990364
H       1.24028008     -1.35720450     -2.47316829
H      -0.59376591     -1.61347496     -3.98607139
11
Frame 225  Energy = -268.5576514095 Hartree
C       0.84391417     -0.50000387     -0.54382797
C       0.42522867     -0.82794303     -1.98705964
C      -0.89798731     -1.55845929     -2.10843534
O      -1.62675789     -1.92755498     -1.22720621
O      -1.30237248     -1.78335380     -3.37601803
H       1.78412722      0.07949903     -0.55288169
H       0.10437227      0.08148337     -0.03909501
H       0.98768121     -1.37908310      0.03429766
H       0.26733621      0.12247946     -2.46853098
H       1.23244068     -1.35175693     -2.48064068
H      -0.59744192     -1.61447980     -4.00223504
11
Frame 230  Energy = -268.5575657882 Hartree
C       0.84437576     -0.50014043     -0.54310902
C       0.42976478     -0.82676408     -1.98611334
C      -0.90236070     -1.55876008     -2.10912438
O      -1.62614203     -1.92703839     -1.22624051
O      -1.30368406     -1.78506975     -3.37623355
H       1.77944637      0.08456202     -0.55953079
H       0.11459751      0.07732992     -0.04242529
H       0.98461730     -1.35766138      0.03637661
H       0.27084507      0.11244467     -2.46849449
H       1.22476594     -1.34703203     -2.48915942
H      -0.60070366     -1.61507289     -4.01832736
11
Frame 235  Energy = -268.5576417581 Hartree
C       0.84500301     -0.50017522     -0.54269662
C       0.43422378     -0.82553551     -1.98495294
C      -0.90684095     -1.55913594     -2.10974526
O      -1.62534093     -1.92644174     -1.22522947
O      -1.30497853     -1.78683012     -3.37658567
H       1.77398556      0.08905927     -0.56564239
H       0.12266862      0.07462007     -0.04502999
H       0.98260361     -1.33966377      0.04021722
H       0.27467153      0.10400126     -2.47010203
H       1.21766667     -1.34328132     -2.49840145
H      -0.60416982     -1.61519518     -4.03349890
11
Frame 240  Energy = -268.5577681624 Hartree
C       0.84573647     -0.49996925     -0.54264535
C       0.43848547     -0.82435053     -1.98339794
C      -0.91121882     -1.55965237     -2.11021371
O      -1.62441737     -1.92579674     -1.22421387
O      -1.30614820     -1.78863289     -3.37709948
H       1.76797730      0.09261368     -0.57101602
H       0.12815535      0.07412718     -0.04657261
H       0.98189801     -1.32626763      0.04670667
H       0.27868425      0.09768346     -2.47370857
H       1.21157005     -1.34057189     -2.50839500
H      -0.60915471     -1.61519203     -4.04742446
11
Frame 245  Energy = -268.5580227259 Hartree
C       0.84668663     -0.49952296     -0.54302710
C       0.44246463     -0.82318903     -1.98151050
C      -0.91540788     -1.56018504     -2.11065191
O      -1.62339712     -1.92505674     -1.22314519
O      -1.30725146     -1.79046700     -3.37775930
H       1.76162906      0.09548953     -0.57592751
H       0.13075893      0.07582072     -0.04683872
H       0.98278002     -1.31833744      0.05619545
H       0.28231072      0.09378026     -2.47915230
H       1.20669146     -1.33919139     -2.51901145
H      -0.61547371     -1.61541603     -4.05923267
11
Frame 250  Energy = -268.5577169511 Hartree
C       0.84783060     -0.49884517     -0.54371908
C       0.44624669     -0.82218619     -1.97929462
C      -0.91947976     -1.56078840     -2.11111162
O      -1.62235762     -1.92428202     -1.22200074
O      -1.30828052     -1.79230344     -3.37866442
H       1.75510525      0.09782916     -0.58100166
H       0.13016746      0.08003470     -0.04610805
H       0.98519378     -1.31575545      0.06866310
H       0.28579456      0.09261158     -2.48644512
H       1.20332553     -1.33922362     -2.53016658
H      -0.62350854     -1.61578934     -4.06853929
11
Frame 255  Energy = -268.5577136293 Hartree
C       0.84911886     -0.49798230     -0.54482911
C       0.44984713     -0.82129150     -1.97687256
C      -0.92323565     -1.56136488     -2.11163737
O      -1.62126948     -1.92349839     -1.22076353
O      -1.30921865     -1.79412300     -3.37990010
H       1.74911875      0.10011780     -0.58578265
H       0.12681606      0.08613896     -0.04454292
H       0.98882021     -1.31824784      0.08361511
H       0.28901361      0.09393280     -2.49544325
H       1.20117293     -1.34042216     -2.54185347
H      -0.63325874     -1.61569402     -4.07476825
11
Frame 260  Energy = -268.5577638374 Hartree
C       0.85055065     -0.49698259     -0.54632262
C       0.45302876     -0.82043908     -1.97421304
C      -0.92665626     -1.56191128     -2.11217740
O      -1.62022816     -1.92272824     -1.21948794
O      -1.31009515     -1.79589708     -3.38133338
H       1.74414166      0.10264878     -0.59029342
H       0.12067441      0.09413985     -0.04216629
H       0.99350148     -1.32452384      0.10016634
H       0.29237471      0.09771040     -2.50583088
H       1.19985141     -1.34234771     -2.55341390
H      -0.64467899     -1.61535808     -4.07821646
11
Frame 265  Energy = -268.5577444884 Hartree
C       0.85192699     -0.49594233     -0.54792037
C       0.45583800     -0.81968288     -1.97147727
C      -0.92966597     -1.56229585     -2.11275046
O      -1.61919306     -1.92194218     -1.21813529
O      -1.31098796     -1.79773083     -3.38293376
H       1.74015758      0.10531426     -0.59434645
H       0.11260228      0.10323139     -0.03947802
H       0.99894705     -1.33346571      0.11716961
H       0.29567154      0.10266713     -2.51712613
H       1.19931260     -1.34508172     -2.56471522
H      -0.65727238     -1.61498684     -4.07900043
11
Frame 270  Energy = -268.5577893436 Hartree
C       0.85323693     -0.49487475     -0.54946065
C       0.45828080     -0.81904700     -1.96887463
C      -0.93217682     -1.56256841     -2.11336893
O      -1.61819639     -1.92109936     -1.21668196
O      -1.31183659     -1.79957009     -3.38465265
H       1.73763571      0.10803031     -0.59763479
H       0.10372136      0.11297437     -0.03709162
H       1.00503495     -1.34380444      0.13361213
H       0.29923834      0.10820109     -2.52894866
H       1.19928610     -1.34860775     -2.57509164
H      -0.67018287     -1.61411652     -4.07783191
11
Frame 275  Energy = -268.5578825575 Hartree
C       0.85442967     -0.49382590     -0.55082429
C       0.46032111     -0.81851127     -1.96644143
C      -0.93416581     -1.56280970     -2.11407845
O      -1.61725913     -1.92023750     -1.21511841
O      -1.31279064     -1.80142861     -3.38630509
H       1.73668882      0.11113268     -0.60049016
H       0.09445417      0.12241949     -0.03517076
H       1.01148728     -1.35425095      0.14825610
H       0.30326160      0.11362898     -2.54041332
H       1.19946111     -1.35245656     -2.58460481
H      -0.68284868     -1.61242740     -4.07549383
11
Frame 280  Energy = -268.5578548187 Hartree
C       0.85546850     -0.49286074     -0.55197911
C       0.46197070     -0.81799503     -1.96423525
C      -0.93561262     -1.56292312     -2.11480315
O      -1.61639851     -1.91935203     -1.21358193
O      -1.31393381     -1.80336235     -3.38792734
H       1.73732369      0.11449007     -0.60252022
H       0.08580648      0.13099327     -0.03428735
H       1.01799912     -1.36346307      0.16036344
H       0.30738540      0.11847581     -2.55092679
H       1.19982786     -1.35640189     -2.59319634
H      -0.69429699     -1.60940926     -4.07277316
11
Frame 285  Energy = -268.5579929025 Hartree
C       0.85634606     -0.49193847     -0.55283605
C       0.46333276     -0.81751034     -1.96243140
C      -0.93657237     -1.56280307     -2.11557399
O      -1.61562328     -1.91839169     -1.21199872
O      -1.31527088     -1.80538782     -3.38956293
H       1.73974610      0.11823421     -0.60377758
H       0.07817421      0.13790978     -0.03496853
H       1.02425378     -1.37055110      0.16936089
H       0.31191213      0.12267227     -2.56025570
H       1.19985386     -1.36016165     -2.60009122
H      -0.70348405     -1.60554867     -4.07061640
11
Frame 290  Energy = -268.5582015321 Hartree
C       0.85705117     -0.49101376     -0.55327100
C       0.46420722     -0.81710165     -1.96113490
C      -0.93711246     -1.56248092     -2.11641580
O      -1.61492413     -1.91742687     -1.21045552
O      -1.31681998     -1.80749808     -3.39105645
H       1.74383615      0.12189319     -0.60431136
H       0.07234245      0.14280973     -0.03717154
H       1.03011942     -1.37490012      0.17438082
H       0.31675623      0.12523398     -2.56805841
H       1.19974228     -1.36404424     -2.60489316
H      -0.71006794     -1.60070083     -4.06957400
11
Frame 295  Energy = -268.5583828337 Hartree
C       0.85761785     -0.49015338     -0.55322781
C       0.46471907     -0.81682926     -1.96026804
C      -0.93726934     -1.56200826     -2.11731259
O      -1.61425448     -1.91643433     -1.20881492
O      -1.31859396     -1.80970735     -3.39235763
H       1.74898265      0.12543155     -0.60429640
H       0.06846836      0.14585382     -0.04124059
H       1.03584532     -1.37622705      0.17514574
H       0.32188662      0.12625181     -2.57386744
H       1.19880201     -1.36782825     -2.60719601
H      -0.71357930     -1.59444931     -4.07015248
11
Frame 300  Energy = -268.5583843911 Hartree
C       0.85803910     -0.48926390     -0.55276999
C       0.46491143     -0.81663473     -1.95996737
C      -0.93710449     -1.56133515     -2.11812529
O      -1.61362517     -1.91539252     -1.20709980
O      -1.32056870     -1.81204315     -3.39336448
H       1.75458267      0.12864610     -0.60365383
H       0.06651068      0.14680028     -0.04690163
H       1.04112208     -1.37434557      0.17213887
H       0.32719736      0.12581206     -2.57753416
H       1.19686570     -1.37103656     -2.60683484
H      -0.71414610     -1.58686667     -4.07251114
