11
Frame 5  Energy = -268.5622784354 Hartree
C       0.85840454     -0.48832821     -0.55186449
C       0.46477409     -0.81659978     -1.96016759
C      -0.93650392     -1.56060660     -2.11894438
O      -1.61298435     -1.91439887     -1.20518782
O      -1.32277645     -1.81448353     -3.39426722
H       1.76018338      0.13183376     -0.60243079
H       0.06627129      0.14596674     -0.05398505
H       1.04608530     -1.36918833      0.16564989
H       0.33285695      0.12392288     -2.57910852
H       1.19382918     -1.37384050     -2.60383998
H      -0.71196064     -1.57788331     -4.07625406
11
Frame 10  Energy = -268.5624536963 Hartree
C       0.85877616     -0.48735709     -0.55063032
C       0.46433257     -0.81662810     -1.96077922
C      -0.93547300     -1.55978475     -2.11976995
O      -1.61243712     -1.91345199     -1.20329062
O      -1.32519084     -1.81702118     -3.39509968
H       1.76552348      0.13395680     -0.60050356
H       0.06782571      0.14350767     -0.06236092
H       1.05032305     -1.36104816      0.15590126
H       0.33867728      0.12047688     -2.57891883
H       1.18983966     -1.37614720     -2.59852083
H      -0.70765730     -1.56770487     -4.08076157
11
Frame 15  Energy = -268.5624038526 Hartree
C       0.85923582     -0.48635666     -0.54912224
C       0.46354992     -0.81664381     -1.96177526
C      -0.93399535     -1.55889830     -2.12048073
O      -1.61191984     -1.91248621     -1.20142836
O      -1.32775953     -1.81953224     -3.39588688
H       1.77056257      0.13524096     -0.59794155
H       0.07085221      0.13954413     -0.07211378
H       1.05401945     -1.35034582      0.14326347
H       0.34436430      0.11555772     -2.57713884
H       1.18530361     -1.37821324     -2.59098434
H      -0.70194063     -1.55666361     -4.08497013
11
Frame 20  Energy = -268.5623873120 Hartree
C       0.85972337     -0.48519681     -0.54740662
C       0.46238812     -0.81673566     -1.96305931
C      -0.93209622     -1.55796183     -2.12106559
O      -1.61143636     -1.91151810     -1.19961121
O      -1.33043214     -1.82197118     -3.39666879
H       1.77519998      0.13579789     -0.59509891
H       0.07487531      0.13417512     -0.08255366
H       1.05686034     -1.33805758      0.12860356
H       0.34997097      0.10946088     -2.57362231
H       1.18061573     -1.38038277     -2.58154929
H      -0.69581248     -1.54518765     -4.08763410
11
Frame 25  Energy = -268.5625090882 Hartree
C       0.86025829     -0.48393271     -0.54559897
C       0.46098125     -0.81698071     -1.96473965
C      -0.92992171     -1.55694837     -2.12159986
O      -1.61100260     -1.91056012     -1.19786528
O      -1.33314963     -1.82443460     -3.39745429
H       1.77889583      0.13570360     -0.59170806
H       0.07945601      0.12806602     -0.09330912
H       1.05890362     -1.32526969      0.11238765
H       0.35523294      0.10259193     -2.56907388
H       1.17622059     -1.38294794     -2.57069735
H      -0.69034326     -1.53364107     -4.08835945
11
Frame 30  Energy = -268.5623458683 Hartree
C       0.86082276     -0.48252529     -0.54385774
C       0.45924301     -0.81734890     -1.96668103
C      -0.92745840     -1.55592804     -2.12198905
O      -1.61063180     -1.90956417     -1.19619374
O      -1.33581203     -1.82683843     -3.39836990
H       1.78160710      0.13486889     -0.58817261
H       0.08424812      0.12177708     -0.10369448
H       1.06059090     -1.31312206      0.09527186
H       0.36024889      0.09541488     -2.56364707
H       1.17250539     -1.38609793     -2.55892886
H      -0.68624568     -1.52244402     -4.08642155
11
Frame 35  Energy = -268.5624795928 Hartree
C       0.86145946     -0.48102846     -0.54228990
C       0.45721669     -0.81774247     -1.96885512
C      -0.92478706     -1.55488382     -2.12214054
O      -1.61030976     -1.90851507     -1.19454840
O      -1.33832662     -1.82913853     -3.39939542
H       1.78325062      0.13324605     -0.58427858
H       0.08825619      0.11582341     -0.11350036
H       1.06228427     -1.30266212      0.07859397
H       0.36542463      0.08861839     -2.55790454
H       1.16927260     -1.38995943     -2.54682804
H      -0.68385356     -1.51189972     -4.08134716
11
Frame 40  Energy = -268.5623963990 Hartree
C       0.86228116     -0.47940937     -0.54102307
C       0.45491527     -0.81823682     -1.97123413
C      -0.92199890     -1.55388194     -2.12207739
O      -1.60997077     -1.90737191     -1.19292068
O      -1.34069472     -1.83127729     -3.40052625
H       1.78377023      0.13088705     -0.58036528
H       0.09136306      0.11034210     -0.12222765
H       1.06440648     -1.29526482      0.06372329
H       0.37017780      0.08282228     -2.55227934
H       1.16673309     -1.39512605     -2.53441593
H      -0.68343320     -1.50218819     -4.07335390
11
Frame 45  Energy = -268.5623446708 Hartree
C       0.86325361     -0.47746738     -0.54011079
C       0.45224740     -0.81889330     -1.97363456
C      -0.91908907     -1.55298473     -2.12181339
O      -1.60957262     -1.90607384     -1.19143252
O      -1.34291788     -1.83326635     -3.40168608
H       1.78339146      0.12792816     -0.57659019
H       0.09283125      0.10570793     -0.12962178
H       1.06680354     -1.29183520      0.05144514
H       0.37479781      0.07841188     -2.54744141
H       1.16545024     -1.40149011     -2.52196779
H      -0.68480470     -1.49345671     -4.06282334
11
Frame 50  Energy = -268.5622966035 Hartree
C       0.86432858     -0.47528014     -0.53963945
C       0.44920402     -0.81968434     -1.97604283
C      -0.91613480     -1.55219389     -2.12139849
O      -1.60908538     -1.90473305     -1.19016466
O      -1.34505333     -1.83514035     -3.40284458
H       1.78238139      0.12481135     -0.57303999
H       0.09223499      0.10267580     -0.13530277
H       1.06948258     -1.29341142      0.04224246
H       0.37922211      0.07597405     -2.54354902
H       1.16542903     -1.40939447     -2.50944317
H      -0.68831625     -1.48556773     -4.05026730
11
Frame 55  Energy = -268.5625075865 Hartree
C       0.86555983     -0.47282341     -0.53966554
C       0.44587241     -0.82063166     -1.97834289
C      -0.91328347     -1.55159523     -2.12085368
O      -1.60839728     -1.90334663     -1.18908996
O      -1.34704621     -1.83682661     -3.40393914
H       1.78065387      0.12175961     -0.56931139
H       0.08964968      0.10144898     -0.13879401
H       1.07244552     -1.30010882      0.03598569
H       0.38323565      0.07567404     -2.54072738
H       1.16694394     -1.41851640     -2.49740940
H      -0.69344832     -1.47875382     -4.03644290
11
Frame 60  Energy = -268.5626339165 Hartree
C       0.86691449     -0.47021284     -0.54012859
C       0.44239903     -0.82173105     -1.98051027
C      -0.91062536     -1.55116411     -2.12012480
O      -1.60760550     -1.90192800     -1.18813982
O      -1.34883959     -1.83844962     -3.40496763
H       1.77827268      0.11884677     -0.56573075
H       0.08476122      0.10232367     -0.14003458
H       1.07602203     -1.31112432      0.03243518
H       0.38696203      0.07747763     -2.53970220
H       1.17022290     -1.42878921     -2.48571955
H      -0.69972764     -1.47278456     -4.02162663
11
Frame 65  Energy = -268.5626027320 Hartree
C       0.86829761     -0.46753477     -0.54093311
C       0.43887937     -0.82294915     -1.98253874
C      -0.90818993     -1.55084798     -2.11913547
O      -1.60664058     -1.90041918     -1.18733819
O      -1.35049187     -1.83997122     -3.40589978
H       1.77576503      0.11615133     -0.56246694
H       0.07799276      0.10515204     -0.13878681
H       1.07980007     -1.32555580      0.03132498
H       0.39044422      0.08172176     -2.54049949
H       1.17455877     -1.44006959     -2.47424040
H      -0.70634972     -1.46727864     -4.00713948
11
Frame 70  Energy = -268.5628471804 Hartree
C       0.86959241     -0.46492060     -0.54206564
C       0.43531455     -0.82424265     -1.98433652
C      -0.90603760     -1.55063194     -2.11788592
O      -1.60545974     -1.89887578     -1.18673859
O      -1.35208387     -1.84141885     -3.40660408
H       1.77347000      0.11398266     -0.55947835
H       0.06973085      0.10941229     -0.13510901
H       1.08313131     -1.34199320      0.03187973
H       0.39344568      0.08783807     -2.54272696
H       1.17932750     -1.45202691     -2.46330949
H      -0.71257281     -1.46128881     -3.99383377
11
Frame 75  Energy = -268.5626134751 Hartree
C       0.87074132     -0.46239663     -0.54349325
C       0.43173349     -0.82569114     -1.98599393
C      -0.90412487     -1.55051326     -2.11648042
O      -1.60414619     -1.89729790     -1.18624041
O      -1.35361901     -1.84275782     -3.40697410
H       1.77188612      0.11253586     -0.55658089
H       0.06097205      0.11455036     -0.12960914
H       1.08577370     -1.35952373      0.03323777
H       0.39616308      0.09544885     -2.54647616
H       1.18440654     -1.46441572     -2.45274288
H      -0.71776683     -1.45463916     -3.98237972
11
Frame 80  Energy = -268.5626315766 Hartree
C       0.87167141     -0.46005114     -0.54509278
C       0.42823632     -0.82720891     -1.98754860
C      -0.90256066     -1.55064312     -2.11487823
O      -1.60265076     -1.89569094     -1.18584823
O      -1.35514606     -1.84397732     -3.40704064
H       1.77136679      0.11225392     -0.55412215
H       0.05207990      0.11998323     -0.12268383
H       1.08757211     -1.37703522      0.03475644
H       0.39830357      0.10344447     -2.55151563
H       1.18948616     -1.47679720     -2.44229243
H      -0.72128531     -1.44727546     -3.97348579
11
Frame 85  Energy = -268.5625538289 Hartree
C       0.87246027     -0.45796102     -0.54681011
C       0.42501935     -0.82881780     -1.98895241
C      -0.90132792     -1.55101297     -2.11313072
O      -1.60101911     -1.89401257     -1.18566285
O      -1.35667750     -1.84516345     -3.40682586
H       1.77198975      0.11310559     -0.55179041
H       0.04388448      0.12529797     -0.11486678
H       1.08808603     -1.39298471      0.03547817
H       0.39970880      0.11130558     -2.55744786
H       1.19393404     -1.48899431     -2.43220926
H      -0.72297452     -1.43870520     -3.96778436
11
Frame 90  Energy = -268.5624890606 Hartree
C       0.87288104     -0.45605377     -0.54855528
C       0.42196539     -0.83042754     -1.99044351
C      -0.90044654     -1.55146294     -2.11128373
O      -1.59925718     -1.89225328     -1.18557994
O      -1.35825318     -1.84627071     -3.40621011
H       1.77378452      0.11512162     -0.54982135
H       0.03719222      0.12999238     -0.10640740
H       1.08749547     -1.40666218      0.03494172
H       0.40065793      0.11836397     -2.56388730
H       1.19737483     -1.50031500     -2.42238359
H      -0.72280606     -1.42920310     -3.96503703
11
Frame 95  Energy = -268.5624457456 Hartree
C       0.87297795     -0.45453500     -0.55027109
C       0.41906620     -0.83198772     -1.99201951
C      -0.89993453     -1.55200297     -2.10935794
O      -1.59734608     -1.89042980     -1.18553394
O      -1.35979568     -1.84735576     -3.40533632
H       1.77658759      0.11804548     -0.54848775
H       0.03237148      0.13330831     -0.09757951
H       1.08567446     -1.41718440      0.03328772
H       0.40102459      0.12384658     -2.57074249
H       1.19963187     -1.50991117     -2.41228751
H      -0.72120678     -1.41904161     -3.96514469
11
Frame 100  Energy = -268.5624950582 Hartree
C       0.87271938     -0.45341480     -0.55196859
C       0.41634122     -0.83342620     -1.99372962
C      -0.89985673     -1.55272605     -2.10742030
O      -1.59536206     -1.88855598     -1.18561819
O      -1.36131353     -1.84844150     -3.40426648
H       1.78004209      0.12191340     -0.54745716
H       0.03009668      0.13471857     -0.08860073
H       1.08233689     -1.42353197      0.02989434
H       0.40104172      0.12712570     -2.57745466
H       1.20059444     -1.51790072     -2.40256013
H      -0.71876462     -1.40854159     -3.96746996
11
Frame 105  Energy = -268.5624433490 Hartree
C       0.87215471     -0.45277947     -0.55361789
C       0.41381273     -0.83473131     -1.99543599
C      -0.90020739     -1.55358954     -2.10550737
O      -1.59320936     -1.88663552     -1.18584746
O      -1.36281177     -1.84943128     -3.40306060
H       1.78341905      0.12624660     -0.54678985
H       0.03057754      0.13428474     -0.07983853
H       1.07812370     -1.42607313      0.02477578
H       0.40062859      0.12787021     -2.58375002
H       1.20024652     -1.52431111     -2.39356361
H      -0.71637133     -1.39824087     -3.97101483
11
Frame 110  Energy = -268.5624639478 Hartree
C       0.87120407     -0.45252523     -0.55523380
C       0.41161891     -0.83591028     -1.99713946
C      -0.90088535     -1.55450350     -2.10362014
O      -1.59092769     -1.88467089     -1.18608542
O      -1.36418287     -1.85023463     -3.40165172
H       1.78711678      0.13099330     -0.54643467
H       0.03379017      0.13188539     -0.07151943
H       1.07283592     -1.42455701      0.01804215
H       0.39982406      0.12585430     -2.58968351
H       1.19821969     -1.52908688     -2.38521809
H      -0.71479145     -1.38886001     -3.97535839
11
Frame 115  Energy = -268.5625615519 Hartree
C       0.86991579     -0.45259940     -0.55672058
C       0.40980468     -0.83695661     -1.99881611
C      -0.90183573     -1.55549824     -2.10181511
O      -1.58860921     -1.88275638     -1.18632659
O      -1.36536519     -1.85081842     -3.40011177
H       1.79078135      0.13581203     -0.54662858
H       0.03999464      0.12748770     -0.06407764
H       1.06629371     -1.41904057      0.01009061
H       0.39917699      0.12121108     -2.59510518
H       1.19457549     -1.53213969     -2.37747441
H      -0.71500385     -1.38107617     -3.98002179
11
Frame 120  Energy = -268.5626471335 Hartree
C       0.86832149     -0.45285210     -0.55799770
C       0.40840857     -0.83777626     -2.00050149
C      -0.90301492     -1.55662839     -2.10022806
O      -1.58619008     -1.88092188     -1.18650042
O      -1.36631760     -1.85118620     -3.39846479
H       1.79407960      0.14018789     -0.54725414
H       0.04853809      0.12129688     -0.05740204
H       1.05867160     -1.41006267      0.00132490
H       0.39836821      0.11401035     -2.59976367
H       1.18964583     -1.53327070     -2.37040741
H      -0.71705259     -1.37518126     -3.98431399
11
Frame 125  Energy = -268.5627626410 Hartree
C       0.86646062     -0.45328299     -0.55926244
C       0.40738202     -0.83842222     -2.00207267
C      -0.90437377     -1.55770179     -2.09901207
O      -1.58382541     -1.87917522     -1.18655529
O      -1.36698389     -1.85125605     -3.39671079
H       1.79631589      0.14424052     -0.54855689
H       0.05926713      0.11358972     -0.05111576
H       1.05035914     -1.39851975     -0.00790701
H       0.39750774      0.10448780     -2.60424874
H       1.18355889     -1.53269156     -2.36432695
H      -0.72177359     -1.37152473     -3.98757021
11
Frame 130  Energy = -268.5626963016 Hartree
C       0.86435017     -0.45380571     -0.56065481
C       0.40669241     -0.83890967     -2.00356582
C      -0.90588581     -1.55869162     -2.09807192
O      -1.58150585     -1.87748996     -1.18644178
O      -1.36729586     -1.85112263     -3.39487082
H       1.79687733      0.14741297     -0.55039333
H       0.07147943      0.10481946     -0.04553341
H       1.04166812     -1.38461866     -0.01729999
H       0.39659216      0.09284786     -2.60846937
H       1.17633847     -1.53094578     -2.35973683
H      -0.72917168     -1.36982565     -3.98947392
11
Frame 135  Energy = -268.5626543599 Hartree
C       0.86214778     -0.45435336     -0.56213442
C       0.40623176     -0.83925393     -2.00494864
C      -0.90750271     -1.55952005     -2.09751786
O      -1.57922387     -1.87578006     -1.18612980
O      -1.36730270     -1.85082992     -3.39319004
H       1.79555994      0.14918818     -0.55273535
H       0.08480967      0.09576870     -0.04058253
H       1.03306310     -1.36982917     -0.02647431
H       0.39583539      0.07955606     -2.61253674
H       1.16876969     -1.52850861     -2.35605736
H      -0.73903027     -1.36995330     -3.99025844
11
Frame 140  Energy = -268.5624971201 Hartree
C       0.85993661     -0.45488495     -0.56380231
C       0.40605978     -0.83941913     -2.00619578
C      -0.90914942     -1.56023591     -2.09731371
O      -1.57699062     -1.87414474     -1.18557853
O      -1.36704401     -1.85036727     -3.39146900
H       1.79225209      0.14967990     -0.55559431
H       0.09811940      0.08685871     -0.03539449
H       1.02471794     -1.35576291     -0.03469789
H       0.39492737      0.06484458     -2.61717888
H       1.16150354     -1.52600504     -2.35364135
H      -0.75089559     -1.37204776     -3.99023027
11
Frame 145  Energy = -268.5625370502 Hartree
C       0.85770169     -0.45530017     -0.56581100
C       0.40610925     -0.83942816     -2.00730833
C      -0.91074178     -1.56081883     -2.09749780
O      -1.57492795     -1.87267314     -1.18476755
O      -1.36660581     -1.84983676     -3.38959098
H       1.78756934      0.14908650     -0.55921437
H       0.11032463      0.07863678     -0.02958746
H       1.01710880     -1.34373980     -0.04155757
H       0.39402562      0.04952230     -2.62237885
H       1.15497035     -1.52396572     -2.35279408
H      -0.76421207     -1.37547910     -3.98986347
11
Frame 150  Energy = -268.5628104023 Hartree
C       0.85541344     -0.45566761     -0.56805080
C       0.40623528     -0.83936780     -2.00820030
C      -0.91230178     -1.56126771     -2.09809905
O      -1.57302898     -1.87135867     -1.18375749
O      -1.36607744     -1.84924260     -3.38762685
H       1.78165590      0.14747198     -0.56346808
H       0.12066190      0.07166413     -0.02286446
H       1.01037518     -1.33486274     -0.04586308
H       0.39302438      0.03465091     -2.62872485
H       1.14940673     -1.52265746     -2.35358418
H      -0.77806009     -1.38001870     -3.98981371
11
Frame 155  Energy = -268.5628657980 Hartree
C       0.85312750     -0.45587583     -0.57054133
C       0.40650894     -0.83929292     -2.00885080
C      -0.91375644     -1.56163703     -2.09905384
O      -1.57135569     -1.87018774     -1.18245192
O      -1.36545977     -1.84844796     -3.38546315
H       1.77465725      0.14552433     -0.56835598
H       0.12874936      0.06645016     -0.01570766
H       1.00517813     -1.33003704     -0.04730250
H       0.39212066      0.02052546     -2.63655761
H       1.14520488     -1.52240851     -2.35595455
H      -0.79169657     -1.38502463     -3.99061638
11
Frame 160  Energy = -268.5628328003 Hartree
C       0.85088697     -0.45585365     -0.57341435
C       0.40686123     -0.83918398     -2.00918743
C      -0.91507967     -1.56183546     -2.10035084
O      -1.56990441     -1.86904371     -1.18091626
O      -1.36480855     -1.84761272     -3.38299624
H       1.76682908      0.14272485     -0.57343183
H       0.13438156      0.06301309     -0.00780964
H       1.00173414     -1.32990762     -0.04576532
H       0.39149536      0.00785244     -2.64595544
H       1.14220680     -1.52371546     -2.36002327
H      -0.80461448     -1.38993434     -3.99259182
11
Frame 165  Energy = -268.5629465348 Hartree
C       0.84864564     -0.45566183     -0.57662094
C       0.40723285     -0.83913827     -2.00932653
C      -0.91628995     -1.56189910     -2.10203815
O      -1.56865594     -1.86797142     -1.17911909
O      -1.36421751     -1.84680905     -3.38033261
H       1.75877019      0.13915293     -0.57854265
H       0.13752872      0.06158679      0.00120091
H       0.99957094     -1.33438258     -0.04184011
H       0.39081446     -0.00227337     -2.65727320
H       1.14085749     -1.52589446     -2.36588252
H      -0.81652673     -1.39391592     -3.99657942
11
Frame 170  Energy = -268.5628810890 Hartree
C       0.84643351     -0.45534865     -0.58010096
C       0.40747453     -0.83918141     -2.00922972
C      -0.91745608     -1.56178798     -2.10399795
O      -1.56745153     -1.86690836     -1.17709494
O      -1.36380922     -1.84605439     -3.37747095
H       1.75095430      0.13533438     -0.58425973
H       0.13792059      0.06201104      0.01102743
H       0.99871635     -1.34258869     -0.03555500
H       0.39016104     -0.00995778     -2.67052804
H       1.14106689     -1.52877022     -2.37316058
H      -0.82681013     -1.39685388     -4.00255513
11
Frame 175  Energy = -268.5630162045 Hartree
C       0.84419468     -0.45496143     -0.58373859
C       0.40771269     -0.83938245     -2.00898097
C      -0.91848751     -1.56158330     -2.10629732
O      -1.56634815     -1.86592843     -1.17480774
O      -1.36354228     -1.84542859     -3.37442445
H       1.74361052      0.13159296     -0.59045180
H       0.13604052      0.06385939      0.02148250
H       0.99864045     -1.35343718     -0.02784896
H       0.38950327     -0.01501002     -2.68531010
H       1.14237514     -1.53251196     -2.38129428
H      -0.83531064     -1.39854338     -4.01068119
11
Frame 180  Energy = -268.5629436817 Hartree
C       0.84186528     -0.45473302     -0.58738170
C       0.40797494     -0.83971022     -2.00858177
C      -0.91937730     -1.56116442     -2.10879115
O      -1.56542550     -1.86506412     -1.17234747
O      -1.36328050     -1.84485432     -3.37116538
H       1.73745663      0.12824599     -0.59691738
H       0.13230969      0.06678158      0.03171475
H       0.99960266     -1.36608478     -0.01943310
H       0.38868741     -0.01800985     -2.70085218
H       1.14457993     -1.53653835     -2.38990986
H      -0.84181794     -1.39918325     -4.02089650
11
Frame 185  Energy = -268.5630251059 Hartree
C       0.83927104     -0.45463866     -0.59092308
C       0.40827051     -0.84016884     -2.00804778
C      -0.92017533     -1.56063705     -2.11142804
O      -1.56480700     -1.86437003     -1.16973767
O      -1.36304655     -1.84432447     -3.36769468
H       1.73300146      0.12552216     -0.60384307
H       0.12692146      0.07055999      0.04138526
H       1.00150426     -1.37936182     -0.01100560
H       0.38765004     -0.01965750     -2.71672314
H       1.14715278     -1.54058533     -2.39891648
H      -0.84676240     -1.39878187     -4.03274296
11
Frame 190  Energy = -268.5629407564 Hartree
C       0.83655849     -0.45479796     -0.59423847
C       0.40849991     -0.84073613     -2.00741950
C      -0.92083829     -1.56001942     -2.11414190
O      -1.56430392     -1.86376217     -1.16701893
O      -1.36285884     -1.84386595     -3.36413613
H       1.73050961      0.12349835     -0.61114338
H       0.12046494      0.07478522      0.04963916
H       1.00401838     -1.39221854     -0.00368110
H       0.38680471     -0.02025775     -2.73240368
H       1.15005425     -1.54441431     -2.40831402
H      -0.85038844     -1.39777006     -4.04488563
11
Frame 195  Energy = -268.5630303369 Hartree
C       0.83365619     -0.45519916     -0.59731201
C       0.40883867     -0.84131100     -2.00688335
C      -0.92132787     -1.55935158     -2.11693313
O      -1.56388721     -1.86323913     -1.16423575
O      -1.36279894     -1.84351761     -3.36059742
H       1.72985364      0.12223290     -0.61893002
H       0.11393843      0.07876085      0.05594954
H       1.00684470     -1.40340097      0.00184294
H       0.38576958     -0.02055875     -2.74733479
H       1.15278718     -1.54784068     -2.41751704
H      -0.85357341     -1.39702778     -4.05670901
11
Frame 200  Energy = -268.5629566280 Hartree
C       0.83058398     -0.45592904     -0.60010980
C       0.40936875     -0.84186752     -2.00654190
C      -0.92177384     -1.55865632     -2.11969999
O      -1.56347974     -1.86279710     -1.16139930
O      -1.36275476     -1.84314182     -3.35717598
H       1.73088510      0.12163179     -0.62710752
H       0.10760148      0.08193632      0.06002004
H       1.00954050     -1.41184899      0.00541228
H       0.38439552     -0.02082179     -2.76118100
H       1.15510884     -1.55044200     -2.42644572
H      -0.85659386     -1.39688525     -4.06728676
11
Frame 205  Energy = -268.5631756159 Hartree
C       0.82729681     -0.45698576     -0.60252962
C       0.41001552     -0.84252383     -2.00641869
C      -0.92218416     -1.55791659     -2.12234689
O      -1.56313176     -1.86246754     -1.15865836
O      -1.36274039     -1.84280148     -3.35388429
H       1.73326204      0.12142290     -0.63556448
H       0.10155014      0.08394984      0.06150292
H       1.01200261     -1.41740275      0.00689043
H       0.38274922     -0.02142441     -2.77311757
H       1.15683804     -1.55220740     -2.43433215
H      -0.86000197     -1.39744272     -4.07559965
11
Frame 210  Energy = -268.5633557045 Hartree
C       0.82393949     -0.45823024     -0.60456546
C       0.41069597     -0.84323788     -2.00650294
C      -0.92246380     -1.55710778     -2.12483399
O      -1.56276909     -1.86226177     -1.15602251
O      -1.36269374     -1.84247980     -3.35075546
H       1.73641521      0.12171386     -0.64389672
H       0.09621057      0.08490116      0.06021834
H       1.01409341     -1.41972373      0.00572445
H       0.38145943     -0.02301757     -2.78236357
H       1.15765359     -1.55279108     -2.44119243
H      -0.86407812     -1.39905117     -4.08117019
11
Frame 215  Energy = -268.5633379742 Hartree
C       0.82057377     -0.45963163     -0.60638654
C       0.41137061     -0.84391803     -2.00686642
C      -0.92256848     -1.55616897     -2.12710169
O      -1.56237817     -1.86203287     -1.15345308
O      -1.36265321     -1.84210907     -3.34786215
H       1.74026361      0.12197324     -0.65171328
H       0.09162528      0.08503555      0.05578366
H       1.01561862     -1.41869869      0.00206547
H       0.38060500     -0.02574899     -2.78876703
H       1.15766702     -1.55235990     -2.44733077
H      -0.86904360     -1.40183719     -4.08398571
11
Frame 220  Energy = -268.5635058032 Hartree
C       0.81719992     -0.46122115     -0.60787858
C       0.41202104     -0.84460260     -2.00767983
C      -0.92263043     -1.55514076     -2.12893978
O      -1.56191246     -1.86178172     -1.15091183
O      -1.36269164     -1.84174033     -3.34528314
H       1.74419055      0.12197583     -0.65894143
H       0.08775330      0.08469891      0.04827160
H       1.01699163     -1.41445395     -0.00432099
H       0.38030177     -0.02940517     -2.79221471
H       1.15682825     -1.55064711     -2.45246126
H      -0.87474912     -1.40603333     -4.08383050
11
Frame 225  Energy = -268.5636606780 Hartree
C       0.81387737     -0.46296528     -0.60892166
C       0.41258684     -0.84527702     -2.00890134
C      -0.92266830     -1.55404156     -2.13040703
O      -1.56145396     -1.86145694     -1.14844265
O      -1.36275537     -1.84133845     -3.34301024
H       1.74774463      0.12173915     -0.66528456
H       0.08461769      0.08340440      0.03814299
H       1.01820668     -1.40726039     -0.01315152
H       0.38020267     -0.03382056     -2.79294473
H       1.15531038     -1.54794960     -2.45641762
H      -0.88085327     -1.41114957     -4.08097793
11
Frame 230  Energy = -268.5638460416 Hartree
C       0.81060038     -0.46479756     -0.60965172
C       0.41308845     -0.84601435     -2.01041502
C      -0.92258939     -1.55289449     -2.13134318
O      -1.56103813     -1.86109367     -1.14597648
O      -1.36279636     -1.84087595     -3.34102483
H       1.75054259      0.12112541     -0.67116807
H       0.08223224      0.08144654      0.02562186
H       1.01900037     -1.39751931     -0.02378853
H       0.38046327     -0.03865867     -2.79114413
H       1.15345443     -1.54482282     -2.45925832
H      -0.88712137     -1.41674666     -4.07618446
11
Frame 235  Energy = -268.5637023041 Hartree
C       0.80747931     -0.46672677     -0.61016240
C       0.41354915     -0.84681634     -2.01222953
C      -0.92244248     -1.55166253     -2.13171361
O      -1.56060065     -1.86080830     -1.14361090
O      -1.36288700     -1.84047738     -3.33934308
H       1.75221221      0.12001245     -0.67598381
H       0.08004900      0.07937278      0.01106204
H       1.01973612     -1.38602992     -0.03567460
H       0.38079425     -0.04377100     -2.78677094
H       1.15117219     -1.54086033     -2.46125202
H      -0.89315628     -1.42238972     -4.06961800
11
Frame 240  Energy = -268.5634551286 Hartree
C       0.80453463     -0.46866480     -0.61051163
C       0.41386307     -0.84776592     -2.01434064
C      -0.92228536     -1.55030445     -2.13159030
O      -1.56022973     -1.86054406     -1.14133611
O      -1.36313247     -1.84011692     -3.33783792
H       1.75240782      0.11808381     -0.67988506
H       0.07792730      0.07713138     -0.00557855
H       1.02029876     -1.37336671     -0.04850105
H       0.38169605     -0.04856663     -2.78006495
H       1.14835748     -1.53649965     -2.46256516
H      -0.89850658     -1.42813526     -4.06205597
11
Frame 245  Energy = -268.5635056932 Hartree
C       0.80183870     -0.47056618     -0.61070596
C       0.41410642     -0.84881077     -2.01681004
C      -0.92210889     -1.54890912     -2.13095474
O      -1.55979799     -1.86021107     -1.13924611
O      -1.36356921     -1.83979949     -3.33650449
H       1.75086396      0.11540344     -0.68341094
H       0.07566584      0.07474558     -0.02358026
H       1.02077969     -1.36109094     -0.06148690
H       0.38264185     -0.05266542     -2.77162760
H       1.14548072     -1.53193168     -2.46306783
H      -0.90277670     -1.43359150     -4.05493585
11
Frame 250  Energy = -268.5631540445 Hartree
C       0.79949731     -0.47237603     -0.61096967
C       0.41421122     -0.84988893     -2.01946950
C      -0.92185123     -1.54734410     -2.12968224
O      -1.55934961     -1.85984508     -1.13733511
O      -1.36421479     -1.83953315     -3.33536438
H       1.74717783      0.11209582     -0.68653775
H       0.07262501      0.07252506     -0.04247899
H       1.02170121     -1.35009077     -0.07355211
H       0.38378918     -0.05588344     -2.76215747
H       1.14280104     -1.52741849     -2.46295432
H      -0.90520990     -1.43806850     -4.04903617
11
Frame 255  Energy = -268.5631694276 Hartree
C       0.79744786     -0.47398225     -0.61134087
C       0.41416552     -0.85109339     -2.02230058
C      -0.92162643     -1.54575566     -2.12771695
O      -1.55872295     -1.85940016     -1.13551613
O      -1.36501178     -1.83939185     -3.33425893
H       1.74172278      0.10815670     -0.68906888
H       0.06854069      0.07119783     -0.06191526
H       1.02323310     -1.34158513     -0.08393675
H       0.38521113     -0.05779840     -2.75184150
H       1.14068813     -1.52314555     -2.46237225
H      -0.90512146     -1.44113422     -4.04472904
11
Frame 260  Energy = -268.5631914468 Hartree
C       0.79562889     -0.47534639     -0.61202724
C       0.41406282     -0.85232971     -2.02527836
C      -0.92152228     -1.54420872     -2.12515786
O      -1.55803246     -1.85886900     -1.13389252
O      -1.36605051     -1.83932628     -3.33315649
H       1.73501489      0.10368657     -0.69077602
H       0.06298312      0.07134953     -0.08072045
H       1.02534019     -1.33650760     -0.09199277
H       0.38682638     -0.05783709     -2.74134954
H       1.13919406     -1.51947167     -2.46158539
H      -0.90253163     -1.44270246     -4.04247523
11
Frame 265  Energy = -268.5635216167 Hartree
C       0.79410347     -0.47648741     -0.61302011
C       0.41383181     -0.85356670     -2.02827445
C      -0.92146872     -1.54265186     -2.12206592
O      -1.55726284     -1.85824930     -1.13256396
O      -1.36734183     -1.83937547     -3.33202787
H       1.72712964      0.09909601     -0.69144587
H       0.05568918      0.07274755     -0.09840578
H       1.02831070     -1.33563697     -0.09682735
H       0.38847966     -0.05558222     -2.73118252
H       1.13873330     -1.51667712     -2.46105897
H      -0.89720724     -1.44290889     -4.04243610
11
Frame 270  Energy = -268.5635803852 Hartree
C       0.79274766     -0.47743547     -0.61439682
C       0.41344535     -0.85483060     -2.03127851
C      -0.92153184     -1.54119437     -2.11851703
O      -1.55633158     -1.85764976     -1.13144743
O      -1.36886411     -1.83948704     -3.33093827
H       1.71849999      0.09484947     -0.69145561
H       0.04691416      0.07517751     -0.11483660
H       1.03218504     -1.33887109     -0.09854544
H       0.39044663     -0.05052424     -2.72194236
H       1.13974893     -1.51466861     -2.46069328
H      -0.88960031     -1.44199252     -4.04411835
11
Frame 275  Energy = -268.5635753334 Hartree
C       0.79153253     -0.47821204     -0.61616888
C       0.41300889     -0.85619002     -2.03429046
C      -0.92173053     -1.53981070     -2.11452781
O      -1.55527447     -1.85700975     -1.13045806
O      -1.37064696     -1.83960900     -3.32991963
H       1.70997337      0.09115520     -0.69087213
H       0.03626824      0.07861800     -0.12978860
H       1.03641428     -1.34582053     -0.09736776
H       0.39248253     -0.04252913     -2.71378851
H       1.14213440     -1.51409747     -2.46071473
H      -0.88032683     -1.44030029     -4.04676312
11
Frame 280  Energy = -268.5636224152 Hartree
C       0.79053010     -0.47888503     -0.61835299
C       0.41241886     -0.85763655     -2.03722898
C      -0.92192748     -1.53850390     -2.11013013
O      -1.55416693     -1.85641660     -1.12964161
O      -1.37260154     -1.83979191     -3.32898457
H       1.70167691      0.08832049     -0.68958048
H       0.02398341      0.08329677     -0.14352356
H       1.04087912     -1.35607394     -0.09350963
H       0.39439206     -0.03183229     -2.70698105
H       1.14577225     -1.51493354     -2.46125038
H      -0.86988563     -1.43805081     -4.04938273
11
Frame 285  Energy = -268.5635107395 Hartree
C       0.78971445     -0.47936196     -0.62088699
C       0.41169291     -0.85916693     -2.04008244
C      -0.92212254     -1.53728604     -2.10546961
O      -1.55296432     -1.85582104     -1.12902607
O      -1.37465312     -1.83998069     -3.32814605
H       1.69432500      0.08650385     -0.68787717
H       0.01053434      0.08865665     -0.15625834
H       1.04522737     -1.36849885     -0.08756466
H       0.39624710     -0.01869958     -2.70145269
H       1.15030352     -1.51725004     -2.46254753
H      -0.85891693     -1.43592183     -4.05122366
11
Frame 290  Energy = -268.5632223111 Hartree
C       0.78900033     -0.47990148     -0.62365411
C       0.41088700     -0.86075033     -2.04285371
C      -0.92231690     -1.53621333     -2.10058259
O      -1.55168746     -1.85526545     -1.12848592
O      -1.37679811     -1.84016003     -3.32738036
H       1.68843467      0.08618147     -0.68564647
H      -0.00349478      0.09433672     -0.16811015
H       1.04915531     -1.38200173     -0.07997208
H       0.39806392     -0.00346821     -2.69696382
H       1.15599544     -1.52069253     -2.46426347
H      -0.84827818     -1.43442982     -4.05169218
11
Frame 295  Energy = -268.5630197589 Hartree
C       0.78829620     -0.48056926     -0.62662908
C       0.41002866     -0.86240434     -2.04556945
C      -0.92249166     -1.53523397     -2.09564406
O      -1.55041516     -1.85476282     -1.12785062
O      -1.37894545     -1.84032159     -3.32678919
H       1.68386793      0.08770642     -0.68317950
H      -0.01771418      0.09976258     -0.17936228
H       1.05228782     -1.39509422     -0.07143388
H       0.40000803      0.01305808     -2.69277302
H       1.16243501     -1.52479912     -2.46639425
H      -0.83875068     -1.43403009     -4.04965345
11
Frame 300  Energy = -268.5632214839 Hartree
C       0.78746471     -0.48141193     -0.62965472
C       0.40929219     -0.86394268     -2.04820517
C      -0.92267206     -1.53439342     -2.09066200
O      -1.54919543     -1.85429319     -1.12721785
O      -1.38104179     -1.84040868     -3.32645821
H       1.68127946      0.09108834     -0.68048056
H      -0.03134298      0.10424495     -0.18979521
H       1.05421635     -1.40711505     -0.06267510
H       0.40191820      0.02977261     -2.68875598
H       1.16882320     -1.52903469     -2.46898546
H      -0.83019947     -1.43440650     -4.04451754
