11
Frame 5  Energy = -268.5673858927 Hartree
C       0.78652984     -0.48239994     -0.63271229
C       0.40868725     -0.86546234     -2.05083217
C      -0.92285956     -1.53366345     -2.08583591
O      -1.54803073     -1.85379366     -1.12653814
O      -1.38305900     -1.84047392     -3.32629295
H       1.68037369      0.09575475     -0.67712914
H      -0.04371853      0.10738196     -0.19944064
H       1.05452515     -1.41679548     -0.05448241
H       0.40366843      0.04600785     -2.68439557
H       1.17505464     -1.53344710     -2.47144217
H      -0.82288310     -1.43566001     -4.03677670
11
Frame 10  Energy = -268.5672092767 Hartree
C       0.78549487     -0.48351693     -0.63569975
C       0.40827308     -0.86682211     -2.05343837
C      -0.92303508     -1.53304242     -2.08122864
O      -1.54689030     -1.85336172     -1.12578160
O      -1.38500460     -1.84053328     -3.32626487
H       1.68088670      0.10193086     -0.67348162
H      -0.05467009      0.10937239     -0.20829611
H       1.05313706     -1.42348011     -0.04704539
H       0.40488020      0.06127836     -2.67990062
H       1.18079718     -1.53773295     -2.47375419
H      -0.81664848     -1.43782170     -4.02661429
11
Frame 15  Energy = -268.5671180938 Hartree
C       0.78444077     -0.48488357     -0.63859146
C       0.40811519     -0.86805708     -2.05614459
C      -0.92311386     -1.53237830     -2.07679411
O      -1.54586615     -1.85292286     -1.12495351
O      -1.38700841     -1.84055523     -3.32630734
H       1.68204010      0.10940575     -0.66986868
H      -0.06359104      0.11006440     -0.21667919
H       1.04991782     -1.42727518     -0.04064532
H       0.40555038      0.07479286     -2.67507076
H       1.18528124     -1.54164516     -2.47592483
H      -0.81136680     -1.44098964     -4.01417367
11
Frame 20  Energy = -268.5671289333 Hartree
C       0.78335995     -0.48645869     -0.64131196
C       0.40815576     -0.86908987     -2.05891706
C      -0.92312559     -1.53168948     -2.07273606
O      -1.54487158     -1.85248302     -1.12395682
O      -1.38899667     -1.84049615     -3.32640175
H       1.68368503      0.11793399     -0.66620434
H      -0.07016404      0.10890127     -0.22501881
H       1.04440380     -1.42747719     -0.03567835
H       0.40571624      0.08597760     -2.66939357
H       1.18825872     -1.54464528     -2.47800246
H      -0.80706018     -1.44486567     -4.00027582
11
Frame 25  Energy = -268.5672680275 Hartree
C       0.78232517     -0.48823188     -0.64386108
C       0.40839173     -0.86989531     -2.06175279
C      -0.92305876     -1.53111086     -2.06904091
O      -1.54400264     -1.85205656     -1.12274041
O      -1.39097073     -1.84033511     -3.32655646
H       1.68563046      0.12704071     -0.66223323
H      -0.07426516      0.10585070     -0.23302152
H       1.03708386     -1.42386194     -0.03259330
H       0.40532570      0.09440742     -2.66320586
H       1.18952713     -1.54632902     -2.47997154
H      -0.80347131     -1.44906970     -3.98553713
11
Frame 30  Energy = -268.5673162696 Hartree
C       0.78137500     -0.49018649     -0.64630304
C       0.40877959     -0.87045365     -2.06470137
C      -0.92293442     -1.53061219     -2.06590238
O      -1.54339330     -1.85173960     -1.12137670
O      -1.39292622     -1.84017346     -3.32667143
H       1.68733895      0.13611489     -0.65779647
H      -0.07569910      0.10095979     -0.24041523
H       1.02828842     -1.41680702     -0.03097838
H       0.40445087      0.09984388     -2.65641220
H       1.18892986     -1.54698621     -2.48158957
H      -0.79995102     -1.45315531     -3.97064625
11
Frame 35  Energy = -268.5672777311 Hartree
C       0.78050573     -0.49230095     -0.64851822
C       0.40944519     -0.87068387     -2.06773027
C      -0.92278107     -1.53012581     -2.06328612
O      -1.54295142     -1.85152061     -1.11975868
O      -1.39494930     -1.83999610     -3.32669072
H       1.68806368      0.14462671     -0.65312979
H      -0.07500394      0.09455967     -0.24737310
H       1.01797413     -1.40607189     -0.03082521
H       0.40309620      0.10201059     -2.64914240
H       1.18669731     -1.54651626     -2.48300191
H      -0.79579131     -1.45698518     -3.95636736
11
Frame 40  Energy = -268.5671557859 Hartree
C       0.77961531     -0.49432623     -0.65058884
C       0.41031878     -0.87063749     -2.07075340
C      -0.92249835     -1.52969408     -2.06118858
O      -1.54263270     -1.85137916     -1.11784540
O      -1.39707383     -1.83983923     -3.32653110
H       1.68762305      0.15201491     -0.64780356
H      -0.07238316      0.08678612     -0.25394380
H       1.00659323     -1.39265991     -0.03179810
H       0.40163934      0.10098778     -2.64156404
H       1.18263279     -1.54506261     -2.48472096
H      -0.78988139     -1.46047109     -3.94365697
11
Frame 45  Energy = -268.5668861621 Hartree
C       0.77878648     -0.49626909     -0.65253955
C       0.41136156     -0.87026908     -2.07378824
C      -0.92215681     -1.52933929     -2.05948451
O      -1.54251838     -1.85129185     -1.11569897
O      -1.39928106     -1.83965068     -3.32614419
H       1.68529633      0.15822101     -0.64218106
H      -0.06822583      0.07774063     -0.25984887
H       0.99381422     -1.37715576     -0.03333581
H       0.39952591      0.09694356     -2.63397936
H       1.17751445     -1.54310746     -2.48683476
H      -0.78256439     -1.46332803     -3.93292624
11
Frame 50  Energy = -268.5667888019 Hartree
C       0.77817306     -0.49812598     -0.65458219
C       0.41267452     -0.86962425     -2.07680586
C      -0.92178212     -1.52903528     -2.05825308
O      -1.54260258     -1.85123612     -1.11339004
O      -1.40158178     -1.83951244     -3.32555873
H       1.68120292      0.16279132     -0.63638323
H      -0.06330496      0.06841819     -0.26516196
H       0.98029049     -1.36058078     -0.03517576
H       0.39699140      0.09052284     -2.62676180
H       1.17167826     -1.54041608     -2.48916466
H      -0.77372664     -1.46534516     -3.92448365
11
Frame 55  Energy = -268.5665837367 Hartree
C       0.77774652     -0.49976276     -0.65669375
C       0.41418989     -0.86880118     -2.07968203
C      -0.92131943     -1.52884469     -2.05759509
O      -1.54284202     -1.85123441     -1.11087555
O      -1.40388637     -1.83944086     -3.32478196
H       1.67547616      0.16601621     -0.63061779
H      -0.05799698      0.05924340     -0.26972142
H       0.96630677     -1.34399528     -0.03693078
H       0.39395886      0.08229711     -2.61992688
H       1.16503783     -1.53778432     -2.49209683
H      -0.76355321     -1.46650995     -3.91836256
11
Frame 60  Energy = -268.5666400723 Hartree
C       0.77756576     -0.50109665     -0.65886951
C       0.41585010     -0.86778533     -2.08242465
C      -0.92082468     -1.52892766     -2.05737618
O      -1.54323711     -1.85130290     -1.10819819
O      -1.40622047     -1.83927588     -3.32382774
H       1.66805173      0.16777443     -0.62498331
H      -0.05322306      0.05098761     -0.27284081
H       0.95245063     -1.32866745     -0.03748718
H       0.39022125      0.07314946     -2.61424854
H       1.15806882     -1.53552642     -2.49561727
H      -0.75245422     -1.46708092     -3.91429928
11
Frame 65  Energy = -268.5667360994 Hartree
C       0.77755888     -0.50207924     -0.66115274
C       0.41759847     -0.86670821     -2.08487318
C      -0.92041635     -1.52920204     -2.05758715
O      -1.54375622     -1.85141855     -1.10537126
O      -1.40858234     -1.83904050     -3.32278248
H       1.65946645      0.16807493     -0.61931766
H      -0.04923164      0.04346419     -0.27446565
H       0.93885677     -1.31607910     -0.03617266
H       0.38608624      0.06386293     -2.61027654
H       1.15159600     -1.53342785     -2.50022435
H      -0.74109528     -1.46732062     -3.91210574
11
Frame 70  Energy = -268.5667749303 Hartree
C       0.77762680     -0.50269790     -0.66361796
C       0.41939361     -0.86563675     -2.08696183
C      -0.92019109     -1.52964494     -2.05825637
O      -1.54441332     -1.85161437     -1.10241964
O      -1.41078239     -1.83875913     -3.32160158
H       1.64983546      0.16696225     -0.61417280
H      -0.04616081      0.03716643     -0.27483532
H       0.92559361     -1.30777200     -0.03257499
H       0.38161431      0.05524471     -2.60878713
H       1.14590494     -1.53151151     -2.50624652
H      -0.73050258     -1.46763362     -3.91088494
11
Frame 75  Energy = -268.5666983587 Hartree
C       0.77773875     -0.50296903     -0.66622362
C       0.42127048     -0.86464691     -2.08868690
C      -0.92011628     -1.53025704     -2.05926265
O      -1.54512208     -1.85186342     -1.09928304
O      -1.41282496     -1.83833440     -3.32041456
H       1.63974521      0.16460943     -0.60914129
H      -0.04455830      0.03224554     -0.27391195
H       0.91302044     -1.30370144     -0.02642859
H       0.37706139      0.04795988     -2.60967564
H       1.14116840     -1.53009697     -2.51338241
H      -0.72122379     -1.46860482     -3.90999021
11
Frame 80  Energy = -268.5667272427 Hartree
C       0.77796008     -0.50293097     -0.66900715
C       0.42316337     -0.86386336     -2.09000090
C      -0.92029891     -1.53091275     -2.06047803
O      -1.54585169     -1.85205859     -1.09602972
O      -1.41467757     -1.83776254     -3.31916866
H       1.62997126      0.16135733     -0.60420034
H      -0.04460781      0.02921551     -0.27149000
H       0.90136286     -1.30390192     -0.01765892
H       0.37220165      0.04288841     -2.61329136
H       1.13760243     -1.52940899     -2.52149651
H      -0.71402657     -1.47069158     -3.90902916
11
Frame 85  Energy = -268.5668517404 Hartree
C       0.77824586     -0.50255519     -0.67193442
C       0.42494504     -0.86315480     -2.09086037
C      -0.92066259     -1.53167726     -2.06193101
O      -1.54645878     -1.85221575     -1.09272910
O      -1.41635311     -1.83703549     -3.31790196
H       1.62126364      0.15826758     -0.59924482
H      -0.04650490      0.02800225     -0.26776855
H       0.89054862     -1.30761439     -0.00700428
H       0.36733861      0.04024023     -2.62027991
H       1.13532409     -1.52966963     -2.53078162
H      -0.70933584     -1.47412874     -3.90766976
11
Frame 90  Energy = -268.5668032987 Hartree
C       0.77858777     -0.50197247     -0.67498325
C       0.42665860     -0.86259946     -2.09129873
C      -0.92117558     -1.53264707     -2.06364002
O      -1.54699895     -1.85233112     -1.08942841
O      -1.41787738     -1.83612172     -3.31664935
H       1.61402221      0.15567068     -0.59433188
H      -0.04994354      0.02831607     -0.26320018
H       0.88059049     -1.31451524      0.00474298
H       0.36233388      0.03999099     -2.63022740
H       1.13433782     -1.53062883     -2.54090141
H      -0.70729836     -1.47907408     -3.90615817
11
Frame 95  Energy = -268.5669212510 Hartree
C       0.77893247     -0.50127000     -0.67800265
C       0.42822044     -0.86210142     -2.09141072
C      -0.92184986     -1.53372170     -2.06551064
O      -1.54749198     -1.85236843     -1.08615090
O      -1.41920676     -1.83509486     -3.31536490
H       1.60863916      0.15337433     -0.58978858
H      -0.05472185      0.02995746     -0.25822041
H       0.87161447     -1.32407641      0.01643135
H       0.35754613      0.04193240     -2.64273947
H       1.13465663     -1.53244811     -2.55172492
H      -0.70813958     -1.48544809     -3.90439149
11
Frame 100  Energy = -268.5670125427 Hartree
C       0.77920458     -0.50055668     -0.68081765
C       0.42964714     -0.86174665     -2.09133000
C      -0.92276128     -1.53498055     -2.06748924
O      -1.54786266     -1.85238582     -1.08304175
O      -1.42034553     -1.83402088     -3.31413956
H       1.60561584      0.15216101     -0.58557109
H      -0.06052422      0.03253092     -0.25274198
H       0.86367552     -1.33497465      0.02739435
H       0.35282338      0.04561137     -2.65740899
H       1.13575999     -1.53493377     -2.56289599
H      -0.71153054     -1.49269990     -3.90268644
11
Frame 105  Energy = -268.5670399454 Hartree
C       0.77929122     -0.49987804     -0.68336655
C       0.43093600     -0.86145852     -2.09109416
C      -0.92385085     -1.53647090     -2.06942177
O      -1.54813817     -1.85234171     -1.08014972
O      -1.42136034     -1.83289256     -3.31290619
H       1.60527128      0.15192826     -0.58133625
H      -0.06702460      0.03608273     -0.24727270
H       0.85677033     -1.34592424      0.03693464
H       0.34812196      0.04994855     -2.67317048
H       1.13724131     -1.53758618     -2.57459404
H      -0.71728056     -1.50125313     -3.90128760
11
Frame 110  Energy = -268.5671639996 Hartree
C       0.77927203     -0.49921750     -0.68564397
C       0.43210463     -0.86122095     -2.09088019
C      -0.92508868     -1.53801946     -2.07123684
O      -1.54827880     -1.85224993     -1.07742026
O      -1.42220691     -1.83175456     -3.31166868
H       1.60786773      0.15256703     -0.57697335
H      -0.07341824      0.04029156     -0.24211837
H       0.85072533     -1.35597740      0.04393398
H       0.34395168      0.05428516     -2.68959702
H       1.13868246     -1.54008364     -2.58641067
H      -0.72449293     -1.51060947     -3.90020260
11
Frame 115  Energy = -268.5672379915 Hartree
C       0.77913909     -0.49871943     -0.68744192
C       0.43317441     -0.86100200     -2.09069537
C      -0.92648024     -1.53972603     -2.07290526
O      -1.54830992     -1.85216209     -1.07485789
O      -1.42302165     -1.83052262     -3.31039252
H       1.61284355      0.15393348     -0.57273986
H      -0.07885734      0.04446979     -0.23774446
H       0.84520636     -1.36463268      0.04792773
H       0.34028318      0.05783598     -2.70618522
H       1.13976314     -1.54184267     -2.59783349
H      -0.73229887     -1.52064555     -3.89995144
11
Frame 120  Energy = -268.5672019165 Hartree
C       0.77886724     -0.49830479     -0.68869246
C       0.43408409     -0.86076796     -2.09055739
C      -0.92797699     -1.54153175     -2.07448690
O      -1.54829196     -1.85192410     -1.07251603
O      -1.42374537     -1.82929321     -3.30906993
H       1.61979116      0.15564767     -0.56873419
H      -0.08312618      0.04817491     -0.23408443
H       0.84068481     -1.37099250      0.04861053
H       0.33665971      0.05990182     -2.72228230
H       1.14055596     -1.54275661     -2.60865298
H      -0.74016927     -1.53085636     -3.90134492
11
Frame 125  Energy = -268.5669372877 Hartree
C       0.77850275     -0.49794578     -0.68936353
C       0.43487359     -0.86047860     -2.09058491
C      -0.92961627     -1.54364403     -2.07600892
O      -1.54810389     -1.85164480     -1.07036602
O      -1.42445305     -1.82814258     -3.30756907
H       1.62826334      0.15796527     -0.56478345
H      -0.08614659      0.05138901     -0.23139898
H       0.83654452     -1.37497500      0.04605322
H       0.33332257      0.06008583     -2.73720994
H       1.14058222     -1.54263117     -2.61845181
H      -0.74743383     -1.54138397     -3.90482104
11
Frame 130  Energy = -268.5669172166 Hartree
C       0.77793591     -0.49751187     -0.68943069
C       0.43556396     -0.86015068     -2.09083740
C      -0.93134371     -1.54594583     -2.07732137
O      -1.54787012     -1.85128104     -1.06844907
O      -1.42517591     -1.82699396     -3.30590001
H       1.63792858      0.16005828     -0.56145068
H      -0.08712439      0.05384828     -0.23012230
H       0.83288110     -1.37676777      0.04000773
H       0.33019326      0.05850202     -2.75082233
H       1.13967398     -1.54166767     -2.62724920
H      -0.75372418     -1.55164068     -3.91050858
11
Frame 135  Energy = -268.5671415971 Hartree
C       0.77717195     -0.49700021     -0.68895093
C       0.43611943     -0.85988037     -2.09133743
C      -0.93318951     -1.54835961     -2.07836987
O      -1.54755103     -1.85080599     -1.06681281
O      -1.42595051     -1.82585621     -3.30411754
H       1.64795697      0.16156482     -0.55906417
H      -0.08608076      0.05585201     -0.23041177
H       0.82968924     -1.37682525      0.03082436
H       0.32771646      0.05520565     -2.76285673
H       1.13766876     -1.53946574     -2.63444534
H      -0.75848426     -1.56130030     -3.91892679
11
Frame 140  Energy = -268.5671592712 Hartree
C       0.77629648     -0.49650392     -0.68804707
C       0.43646848     -0.85960266     -2.09218023
C      -0.93517129     -1.55085095     -2.07908393
O      -1.54709173     -1.85020605     -1.06546341
O      -1.42683433     -1.82472908     -3.30228288
H       1.65747188      0.16200500     -0.55738637
H      -0.08300755      0.05714109     -0.23200336
H       0.82748693     -1.37485789      0.01865969
H       0.32574550      0.04975640     -2.77301874
H       1.13516081     -1.53630043     -2.64002716
H      -0.76166628     -1.57024220     -3.92950404
11
Frame 145  Energy = -268.5671644100 Hartree
C       0.77534940     -0.49592622     -0.68671530
C       0.43666559     -0.85918718     -2.09333864
C      -0.93727990     -1.55346511     -2.07949209
O      -1.54649518     -1.84956640     -1.06438526
O      -1.42775275     -1.82359479     -3.30034385
H       1.66633344      0.16134842     -0.55611684
H      -0.07803649      0.05799475     -0.23508602
H       0.82609581     -1.37112678      0.00390645
H       0.32409181      0.04250496     -2.78114762
H       1.13205369     -1.53237131     -2.64411047
H      -0.76369465     -1.57894507     -3.94175651
11
Frame 150  Energy = -268.5672969290 Hartree
C       0.77439570     -0.49523630     -0.68508379
C       0.43654467     -0.85874862     -2.09478810
C      -0.93940129     -1.55617013     -2.07963730
O      -1.54570031     -1.84882933     -1.06358046
O      -1.42881120     -1.82253037     -3.29834308
H       1.67355592      0.15896275     -0.55548062
H      -0.07184364      0.05876097     -0.23901523
H       0.82501205     -1.36622989     -0.01267408
H       0.32291075      0.03325822     -2.78683918
H       1.12854077     -1.52790214     -2.64631773
H      -0.76536699     -1.58730544     -3.95482376
11
Frame 155  Energy = -268.5672331107 Hartree
C       0.77350503     -0.49427788     -0.68307991
C       0.43619555     -0.85821247     -2.09649376
C      -0.94146085     -1.55886240     -2.07947869
O      -1.54487895     -1.84801245     -1.06303086
O      -1.42999774     -1.82157817     -3.29638355
H       1.67937878      0.15446096     -0.55544416
H      -0.06486737      0.05965442     -0.24408781
H       0.82474349     -1.36092975     -0.03057771
H       0.32260029      0.02258992     -2.79022513
H       1.12452288     -1.52294247     -2.64670216
H      -0.76689446     -1.59577633     -3.96820073
11
Frame 160  Energy = -268.5670595276 Hartree
C       0.77278233     -0.49289465     -0.68089790
C       0.43562872     -0.85763396     -2.09845950
C      -0.94348673     -1.56154272     -2.07900825
O      -1.54399175     -1.84728520     -1.06267692
O      -1.43123288     -1.82070228     -3.29448748
H       1.68361141      0.14789124     -0.55630497
H      -0.05747296      0.06081581     -0.25023412
H       0.82517256     -1.35622704     -0.04875212
H       0.32209533      0.01058903     -2.79174003
H       1.12016914     -1.51775309     -2.64547770
H      -0.76919569     -1.60426749     -3.98118130
11
Frame 165  Energy = -268.5671527660 Hartree
C       0.77227274     -0.49119994     -0.67869354
C       0.43488620     -0.85702752     -2.10061106
C      -0.94537439     -1.56410922     -2.07835554
O      -1.54293929     -1.84656631     -1.06249958
O      -1.43248669     -1.81986117     -3.29269866
H       1.68628459      0.13973658     -0.55778829
H      -0.04998499      0.06234242     -0.25698967
H       0.82641943     -1.35299481     -0.06675689
H       0.32189333     -0.00188865     -2.79149598
H       1.11597066     -1.51272334     -2.64340549
H      -0.77260131     -1.61302485     -3.99311886
11
Frame 170  Energy = -268.5672550978 Hartree
C       0.77192852     -0.48922356     -0.67652761
C       0.43394693     -0.85649561     -2.10286371
C      -0.94705673     -1.56651345     -2.07744811
O      -1.54183038     -1.84583396     -1.06244980
O      -1.43370096     -1.81904166     -3.29111979
H       1.68758161      0.13020386     -0.55983195
H      -0.04306010      0.06472265     -0.26356984
H       0.82841766     -1.35214904     -0.08370010
H       0.32227266     -0.01444854     -2.78994003
H       1.11270742     -1.50814670     -2.64048749
H      -0.77741454     -1.62201225     -4.00309826
11
Frame 175  Energy = -268.5671233658 Hartree
C       0.77189325     -0.48692584     -0.67451638
C       0.43283137     -0.85591382     -2.10520151
C      -0.94843761     -1.56882624     -2.07629808
O      -1.54065505     -1.84501983     -1.06257910
O      -1.43495845     -1.81828484     -3.28987068
H       1.68728576      0.11952840     -0.56248303
H      -0.03725087      0.06822555     -0.26956661
H       0.83133594     -1.35421081     -0.09873153
H       0.32298417     -0.02643553     -2.78744774
H       1.11061000     -1.50405657     -2.63648971
H      -0.78348537     -1.63108649     -4.01076928
11
Frame 180  Energy = -268.5668674414 Hartree
C       0.77216867     -0.48429794     -0.67269820
C       0.43140973     -0.85537192     -2.10762401
C      -0.94959849     -1.57097688     -2.07487187
O      -1.53947691     -1.84404374     -1.06292583
O      -1.43628435     -1.81765592     -3.28889089
H       1.68620892      0.10763501     -0.56576879
H      -0.03287090      0.07308414     -0.27496817
H       0.83542492     -1.35935349     -0.11178587
H       0.32382110     -0.03684877     -2.78469501
H       1.10996139     -1.50109121     -2.63176496
H      -0.79084986     -1.63995427     -4.01611310
11
Frame 185  Energy = -268.5669431478 Hartree
C       0.77262513     -0.48149431     -0.67110093
C       0.42974538     -0.85499918     -2.10992594
C      -0.95042743     -1.57295664     -2.07320605
O      -1.53829050     -1.84293995     -1.06343953
O      -1.43761678     -1.81709238     -3.28817613
H       1.68498808      0.09505334     -0.56934919
H      -0.03042079      0.07925897     -0.27919353
H       0.84032542     -1.36784481     -0.12268616
H       0.32441884     -0.04519539     -2.78243543
H       1.11096495     -1.49929403     -2.62693135
H      -0.79951181     -1.64904150     -4.01888356
11
Frame 190  Energy = -268.5669573145 Hartree
C       0.77326573     -0.47850726     -0.66982800
C       0.42787970     -0.85486979     -2.11190110
C      -0.95082103     -1.57464472     -2.07132771
O      -1.53711204     -1.84188988     -1.06407406
O      -1.43900293     -1.81665603     -3.28766346
H       1.68447363      0.08248028     -0.57329792
H      -0.03012429      0.08669797     -0.28259500
H       0.84589869     -1.37926329     -0.13122463
H       0.32477695     -0.05070592     -2.78138782
H       1.11350890     -1.49885942     -2.62215065
H      -0.80910517     -1.65779353     -4.01918648
11
Frame 195  Energy = -268.5671252576 Hartree
C       0.77397695     -0.47550448     -0.66888600
C       0.42578569     -0.85497410     -2.11358875
C      -0.95076758     -1.57613294     -2.06933518
O      -1.53597275     -1.84092946     -1.06475343
O      -1.44050505     -1.81630005     -3.28736357
H       1.68471450      0.07021859     -0.57776000
H      -0.03173068      0.09551167     -0.28484319
H       0.85216378     -1.39289009     -0.13728106
H       0.32450396     -0.05261872     -2.78203934
H       1.11785768     -1.49970949     -2.61719450
H      -0.81912503     -1.66630270     -4.01722647
11
Frame 200  Energy = -268.5672313595 Hartree
C       0.77469740     -0.47260379     -0.66834944
C       0.42346390     -0.85525277     -2.11497898
C      -0.95030089     -1.57739500     -2.06730444
O      -1.53484013     -1.84010302     -1.06540013
O      -1.44213025     -1.81602572     -3.28715981
H       1.68642534      0.05883475     -0.58257512
H      -0.03472701      0.10539506     -0.28601843
H       0.85852289     -1.40724883     -0.14149713
H       0.32354707     -0.05122559     -2.78449192
H       1.12387984     -1.50216312     -2.61214330
H      -0.82896222     -1.67445402     -4.01399402
11
Frame 205  Energy = -268.5672582178 Hartree
C       0.77539006     -0.46993557     -0.66812627
C       0.42090303     -0.85577991     -2.11595737
C      -0.94940084     -1.57847015     -2.06544696
O      -1.53380375     -1.83934853     -1.06606491
O      -1.44405214     -1.81579959     -3.28699355
H       1.69008603      0.04894087     -0.58758162
H      -0.03849330      0.11594971     -0.28585199
H       0.86455258     -1.42168120     -0.14418112
H       0.32190323     -0.04670486     -2.78848818
H       1.13143381     -1.50586916     -2.60694861
H      -0.83800798     -1.68180599     -4.01007846
11
Frame 210  Energy = -268.5674186938 Hartree
C       0.77597112     -0.46745595     -0.66807802
C       0.41828678     -0.85642535     -2.11664280
C      -0.94805952     -1.57932244     -2.06379175
O      -1.53283433     -1.83863655     -1.06670296
O      -1.44625049     -1.81572658     -3.28681401
H       1.69619631      0.04084610     -0.59281015
H      -0.04287436      0.12662170     -0.28470038
H       0.87049226     -1.43498267     -0.14580211
H       0.31950130     -0.03912425     -2.79401590
H       1.13994814     -1.51026871     -2.60139088
H      -0.84571144     -1.68806516     -4.00654044
11
Frame 215  Energy = -268.5675469475 Hartree
C       0.77648321     -0.46527471     -0.66822263
C       0.41562382     -0.85726028     -2.11718816
C      -0.94620006     -1.57997964     -2.06243617
O      -1.53189533     -1.83797793     -1.06722772
O      -1.44873669     -1.81580991     -3.28652638
H       1.70461920      0.03479315     -0.59815862
H      -0.04732294      0.13666364     -0.28268971
H       0.87569020     -1.44639174     -0.14685662
H       0.31682119     -0.02926190     -2.79988458
H       1.14893702     -1.51498617     -2.59534541
H      -0.85124633     -1.69349425     -4.00416572
11
Frame 220  Energy = -268.5675704731 Hartree
C       0.77690763     -0.46346064     -0.66861112
C       0.41288746     -0.85819388     -2.11750517
C      -0.94396442     -1.58036052     -2.06117660
O      -1.53100084     -1.83732182     -1.06771935
O      -1.45147743     -1.81604044     -3.28610745
H       1.71515360      0.03041771     -0.60337919
H      -0.05088436      0.14584440     -0.27989940
H       0.88005850     -1.45544612     -0.14781495
H       0.31391189     -0.01806980     -2.80541844
H       1.15827725     -1.51949279     -2.58871330
H      -0.85403845     -1.69806619     -4.00316020
11
Frame 225  Energy = -268.5675370913 Hartree
C       0.77725312     -0.46198229     -0.66915285
C       0.41019978     -0.85916987     -2.11766811
C      -0.94135536     -1.58043277     -2.06007919
O      -1.53018512     -1.83664211     -1.06807942
O      -1.45447020     -1.81641133     -3.28555978
H       1.72706700      0.02747375     -0.60886006
H      -0.05315047      0.15398979     -0.27652868
H       0.88389069     -1.46140177     -0.14872826
H       0.31096412     -0.00640136     -2.81048680
H       1.16728156     -1.52380394     -2.58148366
H      -0.85403003     -1.70138763     -4.00362480
11
Frame 230  Energy = -268.5676386450 Hartree
C       0.77758682     -0.46079784     -0.66978842
C       0.40757699     -0.86012257     -2.11771197
C      -0.93846539     -1.58028084     -2.05933805
O      -1.52955969     -1.83594224     -1.06830987
O      -1.45773346     -1.81694808     -3.28488184
H       1.73977710      0.02575801     -0.61450040
H      -0.05372932      0.16103757     -0.27262761
H       0.88684460     -1.46380072     -0.14963756
H       0.30812963      0.00489689     -2.81484349
H       1.17559331     -1.52734673     -2.57354631
H      -0.85198533     -1.70391428     -4.00579506
11
Frame 235  Energy = -268.5675656473 Hartree
C       0.77787952     -0.45991516     -0.67052216
C       0.40501235     -0.86106236     -2.11770061
C      -0.93526534     -1.57996031     -2.05896631
O      -1.52904166     -1.83528156     -1.06841480
O      -1.46112345     -1.81750495     -3.28418463
H       1.75285164      0.02480236     -0.61998779
H      -0.05229198      0.16650880     -0.26855457
H       0.88871087     -1.46245668     -0.15113897
H       0.30541114      0.01499921     -2.81771196
H       1.18287975     -1.52991869     -2.56448501
H      -0.84786607     -1.70562916     -4.00865876
11
Frame 240  Energy = -268.5674842682 Hartree
C       0.77813859     -0.45933551     -0.67139886
C       0.40258075     -0.86190332     -2.11776611
C      -0.93179862     -1.57942222     -2.05896634
O      -1.52863382     -1.83469598     -1.06846410
O      -1.46474519     -1.81811350     -3.28342307
H       1.76553385      0.02449066     -0.62534042
H      -0.04840325      0.17040036     -0.26458519
H       0.88961878     -1.45735450     -0.15293413
H       0.30291852      0.02316062     -2.81884263
H       1.18867256     -1.53158963     -2.55461616
H      -0.84242330     -1.70658181     -4.01194585
11
Frame 245  Energy = -268.5671821785 Hartree
C       0.77846120     -0.45891995     -0.67226437
C       0.40034168     -0.86265972     -2.11792238
C      -0.92812712     -1.57869813     -2.05933960
O      -1.52836895     -1.83419189     -1.06850296
O      -1.46848814     -1.81885872     -3.28264802
H       1.77706905      0.02432587     -0.63110945
H      -0.04194554      0.17285678     -0.26058121
H       0.88961922     -1.44906949     -0.15480619
H       0.30077690      0.02920338     -2.81772024
H       1.19304428     -1.53211466     -2.54377449
H      -0.83635554     -1.70702296     -4.01491980
11
Frame 250  Energy = -268.5672626373 Hartree
C       0.77885710     -0.45870047     -0.67315511
C       0.39817586     -0.86329700     -2.11812886
C      -0.92440750     -1.57783637     -2.06000704
O      -1.52808664     -1.83384101     -1.06843468
O      -1.47228218     -1.81966783     -3.28197418
H       1.78664127      0.02422480     -0.63720519
H      -0.03301651      0.17411234     -0.25623731
H       0.88878201     -1.43776849     -0.15664178
H       0.29893783      0.03301864     -2.81444172
H       1.19563909     -1.53142960     -2.53199740
H      -0.83051246     -1.70704428     -4.01654708
11
Frame 255  Energy = -268.5676240096 Hartree
C       0.77936382     -0.45863268     -0.67410668
C       0.39618993     -0.86378173     -2.11836787
C      -0.92071238     -1.57695651     -2.06087798
O      -1.52783075     -1.83361769     -1.06828768
O      -1.47606732     -1.82043772     -3.28134778
H       1.79360239      0.02377218     -0.64353838
H      -0.02190353      0.17415707     -0.25181310
H       0.88673701     -1.42466866     -0.15832197
H       0.29761242      0.03423219     -2.80954444
H       1.19672570     -1.52948036     -2.52008479
H      -0.82549756     -1.70669277     -4.01625429
11
Frame 260  Energy = -268.5674937801 Hartree
C       0.77998621     -0.45865164     -0.67520422
C       0.39447688     -0.86409728     -2.11854183
C      -0.91709870     -1.57597848     -2.06203948
O      -1.52757677     -1.83346516     -1.06806867
O      -1.47982537     -1.82131703     -3.28082414
H       1.79771530      0.02282668     -0.64998300
H      -0.00917236      0.17308147     -0.24722409
H       0.88400215     -1.41039359     -0.15905116
H       0.29647286      0.03267655     -2.80297917
H       1.19676415     -1.52633631     -2.50829222
H      -0.82137972     -1.70622568     -4.01391461
11
Frame 265  Energy = -268.5675923862 Hartree
C       0.78090161     -0.45861754     -0.67647284
C       0.39298988     -0.86414249     -2.11872839
C      -0.91350578     -1.57487537     -2.06348626
O      -1.52732964     -1.83342127     -1.06782665
O      -1.48345834     -1.82229016     -3.28040074
H       1.79903999      0.02134269     -0.65661994
H       0.00459272      0.17102593     -0.24233095
H       0.88069770     -1.39545603     -0.15870926
H       0.29565611      0.02856745     -2.79505615
H       1.19543646     -1.52229701     -2.49668631
H      -0.81889585     -1.70589176     -4.00898974
11
Frame 270  Energy = -268.5676687556 Hartree
C       0.78211662     -0.45848617     -0.67787685
C       0.39171915     -0.86396861     -2.11869350
C      -0.91005276     -1.57372142     -2.06509557
O      -1.52715988     -1.83350002     -1.06764273
O      -1.48701820     -1.82331104     -3.28007625
H       1.79775374      0.01953172     -0.66373431
H       0.01895061      0.16876735     -0.23711062
H       0.87735119     -1.38089603     -0.15686912
H       0.29549966      0.02204899     -2.78639302
H       1.19302481     -1.51772096     -2.48579090
H      -0.81832488     -1.70556904     -4.00174709
11
Frame 275  Energy = -268.5674534437 Hartree
C       0.78348491     -0.45824111     -0.67948783
C       0.39070385     -0.86360775     -2.11845836
C      -0.90683618     -1.57254998     -2.06674642
O      -1.52708690     -1.83357842     -1.06755962
O      -1.49041421     -1.82428343     -3.27985040
H       1.79386878      0.01725627     -0.67113616
H       0.03359519      0.16719350     -0.23138493
H       0.87408610     -1.36755357     -0.15271928
H       0.29552621      0.01385333     -2.77699902
H       1.18976511     -1.51288765     -2.47546204
H      -0.81984015     -1.70523821     -3.99228111
11
Frame 280  Energy = -268.5674146360 Hartree
C       0.78507416     -0.45798578     -0.68137402
C       0.38985820     -0.86305108     -2.11806498
C      -0.90389096     -1.57140863     -2.06841680
O      -1.52694974     -1.83367750     -1.06755974
O      -1.49371307     -1.82529006     -3.27964808
H       1.78765128      0.01457045     -0.67835902
H       0.04821248      0.16639487     -0.22471516
H       0.87059142     -1.35603840     -0.14650572
H       0.29577021      0.00470302     -2.76705458
H       1.18596055     -1.50820467     -2.46599592
H      -0.82291013     -1.70528372     -3.98106521
11
Frame 285  Energy = -268.5673321885 Hartree
C       0.78689309     -0.45768842     -0.68361417
C       0.38918505     -0.86247952     -2.11745051
C      -0.90139945     -1.57032086     -2.07012454
O      -1.52676597     -1.83377997     -1.06768259
O      -1.49696016     -1.82633504     -3.27954553
H       1.77974106      0.01127728     -0.68522678
H       0.06219550      0.16636730     -0.21753605
H       0.86729177     -1.34715592     -0.13808108
H       0.29638219     -0.00452633     -2.75726408
H       1.18212911     -1.50392137     -2.45775446
H      -0.82712703     -1.70525796     -3.96917010
11
Frame 290  Energy = -268.5673463645 Hartree
C       0.78895022     -0.45730889     -0.68624876
C       0.38866876     -0.86183694     -2.11661868
C      -0.89935967     -1.56936916     -2.07177957
O      -1.52655087     -1.83388695     -1.06790327
O      -1.50006748     -1.82739187     -3.27949954
H       1.77109918      0.00791113     -0.69236689
H       0.07496962      0.16705973     -0.20934792
H       0.86407237     -1.34133267     -0.12751703
H       0.29751294     -0.01289530     -2.74859623
H       1.17881661     -1.50023582     -2.45081699
H      -0.83184148     -1.70512574     -3.95738975
11
Frame 295  Energy = -268.5673315823 Hartree
C       0.79113217     -0.45692764     -0.68913739
C       0.38823962     -0.86100855     -2.11545707
C      -0.89785412     -1.56858751     -2.07334279
O      -1.52631690     -1.83405033     -1.06828813
O      -1.50306887     -1.82852810     -3.27934688
H       1.76248462      0.00494440     -0.69970721
H       0.08615022      0.16928605     -0.20047921
H       0.86107544     -1.33804451     -0.11466357
H       0.29869203     -0.01962458     -2.74161945
H       1.17613863     -1.49767303     -2.44538755
H      -0.83652350     -1.70456965     -3.94654235
11
Frame 300  Energy = -268.5672843630 Hartree
C       0.79338211     -0.45654253     -0.69220933
C       0.38798997     -0.86006846     -2.11397702
C      -0.89689219     -1.56801068     -2.07481636
O      -1.52607134     -1.83421086     -1.06887923
O      -1.50608005     -1.82971136     -3.27906466
H       1.75448871      0.00282036     -0.70723818
H       0.09556627      0.17267519     -0.19120538
H       0.85829463     -1.33691532     -0.10028165
H       0.29989242     -0.02407012     -2.73720182
H       1.17456312     -1.49645931     -2.44157339
H      -0.84043545     -1.70363525     -3.93756609
