11
Frame 5  Energy = -268.5741793620 Hartree
C       0.94865301     -0.42826846     -0.74508819
C       0.38665195     -0.85133136     -2.11449250
C      -0.99571004     -1.52815484     -2.03498422
O      -1.56178858     -1.86086731     -1.05468293
O      -1.55886810     -1.88123721     -3.26910500
H       1.93627986      0.02940527     -0.82131860
H       0.35330071      0.27967653     -0.22375844
H       0.95680889     -1.23240836     -0.07138188
H       0.32696785     -0.01937202     -2.83164942
H       1.03830335     -1.58777969     -2.60566566
H      -1.03940632     -1.37524402     -3.94414837
11
Frame 10  Energy = -268.5740868380 Hartree
C       0.94872645     -0.42853289     -0.74816730
C       0.38668113     -0.84878419     -2.11363509
C      -0.99533215     -1.52945727     -2.03647693
O      -1.56342104     -1.86110419     -1.05283206
O      -1.55746345     -1.88008806     -3.26721789
H       1.92622799      0.01971777     -0.82800794
H       0.36079912      0.28386250     -0.23282671
H       0.96714481     -1.24043082     -0.08210316
H       0.32967850     -0.03612590     -2.83030438
H       1.02951602     -1.58262776     -2.60247195
H      -1.03763804     -1.36668204     -3.94612503
11
Frame 15  Energy = -268.5742259687 Hartree
C       0.94883214     -0.42882238     -0.75147861
C       0.38664014     -0.84630651     -2.11268564
C      -0.99483676     -1.53084930     -2.03828653
O      -1.56514359     -1.86136271     -1.05081927
O      -1.55595704     -1.87883138     -3.26538773
H       1.91687486      0.01006629     -0.83521776
H       0.36592144      0.29021939     -0.24164251
H       0.97791508     -1.25160920     -0.09144520
H       0.33228468     -0.05184624     -2.82839092
H       1.02140782     -1.57734092     -2.59896515
H      -1.03768556     -1.36007173     -3.94698689
11
Frame 20  Energy = -268.5743464224 Hartree
C       0.94886336     -0.42904106     -0.75497728
C       0.38644293     -0.84393170     -2.11158161
C      -0.99422658     -1.53236338     -2.04029196
O      -1.56687769     -1.86162382     -1.04864055
O      -1.55426588     -1.87740987     -3.26353997
H       1.90959331      0.00099368     -0.84309639
H       0.36870326      0.29859316     -0.24992598
H       0.98928725     -1.26492110     -0.09939272
H       0.33486655     -0.06554627     -2.82709341
H       1.01400416     -1.57272144     -2.59547093
H      -1.03951463     -1.35530011     -3.94622399
11
Frame 25  Energy = -268.5744557489 Hartree
C       0.94876010     -0.42928008     -0.75868656
C       0.38596757     -0.84181628     -2.11026690
C      -0.99353372     -1.53391391     -2.04246247
O      -1.56855379     -1.86191329     -1.04646862
O      -1.55240161     -1.87580888     -3.26171604
H       1.90521257     -0.00743484     -0.85160805
H       0.36935724      0.30865724     -0.25740768
H       1.00108752     -1.27988658     -0.10653718
H       0.33702562     -0.07625471     -2.82745010
H       1.00757021     -1.56924538     -2.59213906
H      -1.04318080     -1.35265051     -3.94360541
11
Frame 30  Energy = -268.5744586032 Hartree
C       0.94851088     -0.42963858     -0.76236848
C       0.38526684     -0.83995804     -2.10878482
C      -0.99273015     -1.53543592     -2.04465051
O      -1.57019782     -1.86213694     -1.04430478
O      -1.55039250     -1.87405638     -3.25996514
H       1.90389388     -0.01504134     -0.86093303
H       0.36820394      0.32034560     -0.26441013
H       1.01322838     -1.29586691     -0.11314110
H       0.33894326     -0.08324638     -2.82941415
H       1.00248548     -1.56738424     -2.58920495
H      -1.04864908     -1.35207993     -3.93991690
11
Frame 35  Energy = -268.5745519698 Hartree
C       0.94791851     -0.43025823     -0.76604770
C       0.38434736     -0.83843376     -2.10715161
C      -0.99189136     -1.53699611     -2.04677248
O      -1.57174754     -1.86238458     -1.04212548
O      -1.54826585     -1.87221105     -3.25832409
H       1.90627749     -0.02125581     -0.87121692
H       0.36575103      0.33264248     -0.27096140
H       1.02511850     -1.31206760     -0.11947662
H       0.34064957     -0.08635368     -2.83358656
H       0.99873079     -1.56711309     -2.58621965
H      -1.05537882     -1.35326709     -3.93516897
11
Frame 40  Energy = -268.5745390096 Hartree
C       0.94712285     -0.43095292     -0.76972283
C       0.38318873     -0.83717550     -2.10539975
C      -0.99117909     -1.53858988     -2.04892920
O      -1.57317800     -1.86257855     -1.04007647
O      -1.54609305     -1.87021763     -3.25676412
H       1.91234263     -0.02622000     -0.88210809
H       0.36228347      0.34502642     -0.27699404
H       1.03652221     -1.32771156     -0.12617403
H       0.34238874     -0.08550693     -2.83992981
H       0.99663606     -1.56824162     -2.58342242
H      -1.06271491     -1.35547491     -3.92983104
11
Frame 45  Energy = -268.5744928142 Hartree
C       0.94616863     -0.43179799     -0.77317460
C       0.38170470     -0.83608449     -2.10360042
C      -0.99047951     -1.54019444     -2.05100595
O      -1.57443941     -1.86274847     -1.03809300
O      -1.54395112     -1.86813427     -3.25517280
H       1.92153730     -0.03042039     -0.89365830
H       0.35837482      0.35659904     -0.28307129
H       1.04730285     -1.34169599     -0.13345485
H       0.34415741     -0.08101924     -2.84766849
H       0.99602670     -1.57098086     -2.58099643
H      -1.07008279     -1.35835851     -3.92475023
11
Frame 50  Energy = -268.5748665327 Hartree
C       0.94517799     -0.43276889     -0.77648925
C       0.37991620     -0.83517098     -2.10185664
C      -0.98976231     -1.54174428     -2.05289814
O      -1.57556483     -1.86281637     -1.03628156
O      -1.54182759     -1.86600637     -3.25348964
H       1.93292542     -0.03384739     -0.90555139
H       0.35410540      0.36677732     -0.28923969
H       1.05717208     -1.35336719     -0.14145178
H       0.34632880     -0.07366326     -2.85631674
H       0.99735542     -1.57530879     -2.57896228
H      -1.07710574     -1.36139786     -3.92072755
11
Frame 55  Energy = -268.5747557002 Hartree
C       0.94417626     -0.43375909     -0.77958006
C       0.37780463     -0.83449696     -2.10024429
C      -0.98925023     -1.54327523     -2.05456126
O      -1.57654328     -1.86283321     -1.03464675
O      -1.53964034     -1.86387276     -3.25171139
H       1.94557236     -0.03674204     -0.91725169
H       0.34992802      0.37496617     -0.29540763
H       1.06598041     -1.36218579     -0.15056720
H       0.34831534     -0.06441247     -2.86511372
H       0.99996820     -1.58087089     -2.57689908
H      -1.08293864     -1.36385303     -3.91838555
11
Frame 60  Energy = -268.5746134322 Hartree
C       0.94327937     -0.43479876     -0.78247961
C       0.37543438     -0.83396739     -2.09871526
C      -0.98888220     -1.54479026     -2.05585754
O      -1.57741497     -1.86277992     -1.03309274
O      -1.53754816     -1.86185113     -3.24977987
H       1.95860410     -0.03925456     -0.92888710
H       0.34615554      0.38095985     -0.30151980
H       1.07365365     -1.36780769     -0.16063066
H       0.35004910     -0.05424209     -2.87375985
H       1.00362085     -1.58754073     -2.57485712
H      -1.08735927     -1.36557051     -3.91812199
11
Frame 65  Energy = -268.5744837612 Hartree
C       0.94260316     -0.43582667     -0.78523139
C       0.37285966     -0.83357316     -2.09740867
C      -0.98859115     -1.54630296     -2.05678519
O      -1.57815367     -1.86266226     -1.03167832
O      -1.53563936     -1.85991194     -3.24765807
H       1.97104849     -0.04190388     -0.94061005
H       0.34319000      0.38433670     -0.30770557
H       1.07994131     -1.37019623     -0.17181545
H       0.35143767     -0.04377178     -2.88158135
H       1.00871716     -1.59473290     -2.57284300
H      -1.09014076     -1.36631031     -3.92010914
11
Frame 70  Energy = -268.5744120096 Hartree
C       0.94219048     -0.43686256     -0.78779306
C       0.37018152     -0.83330287     -2.09633924
C      -0.98841548     -1.54775130     -2.05721977
O      -1.57869698     -1.86248848     -1.03036661
O      -1.53383031     -1.85805568     -3.24539061
H       1.98182885     -0.04471371     -0.95224888
H       0.34144533      0.38521448     -0.31427547
H       1.08486086     -1.36975136     -0.18355589
H       0.35260040     -0.03368875     -2.88765422
H       1.01438985     -1.60148884     -2.57038890
H      -1.09089486     -1.36622830     -3.92489407
11
Frame 75  Energy = -268.5744500773 Hartree
C       0.94196567     -0.43785833     -0.79014580
C       0.36749739     -0.83317028     -2.09564317
C      -0.98836974     -1.54915440     -2.05723270
O      -1.57909750     -1.86224782     -1.02922557
O      -1.53216834     -1.85633473     -3.24302062
H       1.98997522     -0.04756752     -0.96379240
H       0.34156439      0.38342004     -0.32109896
H       1.08877267     -1.36647775     -0.19531176
H       0.35321098     -0.02468339     -2.89187671
H       1.02009078     -1.60725405     -2.56762104
H      -1.08993734     -1.36529116     -3.93166620
11
Frame 80  Energy = -268.5746194784 Hartree
C       0.94205733     -0.43873367     -0.79239714
C       0.36475965     -0.83325934     -2.09542066
C      -0.98839731     -1.55049730     -2.05682847
O      -1.57942832     -1.86195117     -1.02833027
O      -1.53060166     -1.85466522     -3.24065101
H       1.99509335     -0.05121357     -0.97487194
H       0.34321267      0.37936816     -0.32819622
H       1.09171309     -1.36127346     -0.20664030
H       0.35357561     -0.01730433     -2.89368981
H       1.02499096     -1.61181992     -2.56436882
H      -1.08767647     -1.36389562     -3.94007409
11
Frame 85  Energy = -268.5746324776 Hartree
C       0.94235377     -0.43943550     -0.79459808
C       0.36204218     -0.83356573     -2.09573709
C      -0.98844199     -1.55171069     -2.05590207
O      -1.57962025     -1.86162491     -1.02767850
O      -1.52911277     -1.85301839     -3.23828812
H       1.99702349     -0.05539638     -0.98506602
H       0.34630389      0.37334315     -0.33513062
H       1.09346105     -1.35410869     -0.21719956
H       0.35388425     -0.01160407     -2.89285995
H       1.02907197     -1.61511532     -2.56083294
H      -1.08478986     -1.36222133     -3.94913102
11
Frame 90  Energy = -268.5745373196 Hartree
C       0.94290608     -0.43991443     -0.79677158
C       0.35931105     -0.83393215     -2.09659210
C      -0.98855215     -1.55277695     -2.05459257
O      -1.57964782     -1.86126344     -1.02725842
O      -1.52773488     -1.85138892     -3.23608123
H       1.99551213     -0.06003584     -0.99449106
H       0.35050936      0.36498753     -0.34170368
H       1.09442522     -1.34540718     -0.22662148
H       0.35372840     -0.00748490     -2.88939021
H       1.03194707     -1.61691588     -2.55647466
H      -1.08131616     -1.36095304     -3.95831002
11
Frame 95  Energy = -268.5746580492 Hartree
C       0.94381711     -0.44016809     -0.79887585
C       0.35659686     -0.83444093     -2.09794648
C      -0.98871935     -1.55372808     -2.05284289
O      -1.57949854     -1.86079740     -1.02709965
O      -1.52642323     -1.84978381     -3.23401460
H       1.99049512     -0.06475591     -1.00320521
H       0.35552375      0.35506165     -0.34756037
H       1.09438992     -1.33589014     -0.23405451
H       0.35314337     -0.00543030     -2.88331060
H       1.03330368     -1.61680794     -2.55121765
H      -1.07775625     -1.36075742     -3.96634630
11
Frame 100  Energy = -268.5747233089 Hartree
C       0.94514577     -0.44021259     -0.80100832
C       0.35397916     -0.83512559     -2.09982215
C      -0.98889031     -1.55443858     -2.05075577
O      -1.57919278     -1.86022610     -1.02718549
O      -1.52515914     -1.84818909     -3.23212530
H       1.98255471     -0.06959696     -1.01154925
H       0.36077259      0.34465340     -0.35208190
H       1.09346337     -1.32667969     -0.23960627
H       0.35224772     -0.00554497     -2.87491923
H       1.03320223     -1.61503336     -2.54542007
H      -1.07447973     -1.36193187     -3.97243855
11
Frame 105  Energy = -268.5746415838 Hartree
C       0.94683779     -0.44010810     -0.80324901
C       0.35146747     -0.83597829     -2.10213248
C      -0.98909666     -1.55502224     -2.04833382
O      -1.57876145     -1.85967475     -1.02753284
O      -1.52391692     -1.84655773     -3.23039104
H       1.97250242     -0.07442963     -1.01906580
H       0.36611714      0.33409345     -0.35529542
H       1.09168217     -1.31861480     -0.24265670
H       0.35101364     -0.00756780     -2.86441928
H       1.03207909     -1.61147400     -2.53917228
H      -1.07162299     -1.36440746     -3.97634878
11
Frame 110  Energy = -268.5746959131 Hartree
C       0.94889176     -0.43989781     -0.80564060
C       0.34906320     -0.83703169     -2.10485956
C      -0.98935070     -1.55542289     -2.04562097
O      -1.57819891     -1.85918383     -1.02813524
O      -1.52271543     -1.84482210     -3.22892853
H       1.96092389     -0.07917094     -1.02600619
H       0.37090129      0.32411404     -0.35685241
H       1.08917887     -1.31229240     -0.24293411
H       0.34917425     -0.01113632     -2.85262165
H       1.02983974     -1.60635857     -2.53271474
H      -1.06943269     -1.36815761     -3.97782975
11
Frame 115  Energy = -268.5744021854 Hartree
C       0.95114311     -0.43949245     -0.80824545
C       0.34669373     -0.83827531     -2.10776405
C      -0.98963980     -1.55558666     -2.04258457
O      -1.57768656     -1.85875413     -1.02897532
O      -1.52160508     -1.84308381     -3.22770580
H       1.94853198     -0.08351200     -1.03273720
H       0.37498446      0.31523362     -0.35642087
H       1.08652500     -1.30801369     -0.24041864
H       0.34653248     -0.01581852     -2.83965627
H       1.02653901     -1.59995428     -2.52652048
H      -1.06804291     -1.37312068     -3.97653435
11
Frame 120  Energy = -268.5743628645 Hartree
C       0.95359624     -0.43909546     -0.81110620
C       0.34430329     -0.83965285     -2.11099230
C      -0.98991707     -1.55549754     -2.03923606
O      -1.57716922     -1.85837562     -1.02991973
O      -1.52050771     -1.84131823     -3.22673585
H       1.93666302     -0.08683875     -1.03939943
H       0.37820483      0.30790031     -0.35361333
H       1.08350817     -1.30597285     -0.23496134
H       0.34320994     -0.02067902     -2.82620001
H       1.02274249     -1.59277790     -2.52106224
H      -1.06722245     -1.37950023     -3.97279615
11
Frame 125  Energy = -268.5744081745 Hartree
C       0.95605829     -0.43872313     -0.81424050
C       0.34192749     -0.84126697     -2.11434450
C      -0.99009562     -1.55519435     -2.03575264
O      -1.57673976     -1.85797963     -1.03093266
O      -1.51949539     -1.83957606     -3.22594586
H       1.92615966     -0.08916647     -1.04554358
H       0.37994737      0.30247745     -0.34843927
H       1.08007880     -1.30598621     -0.22633480
H       0.33976758     -0.02497787     -2.81339378
H       1.01891462     -1.58539228     -2.51699055
H      -1.06681322     -1.38657783     -3.96723852
11
Frame 130  Energy = -268.5742713053 Hartree
C       0.95849713     -0.43843814     -0.81753416
C       0.33945793     -0.84316448     -2.11766818
C      -0.99022721     -1.55465004     -2.03220881
O      -1.57632465     -1.85755918     -1.03193984
O      -1.51863682     -1.83788729     -3.22531621
H       1.91802935     -0.08973190     -1.05159265
H       0.38031140      0.29925753     -0.34091956
H       1.07635338     -1.30771921     -0.21483981
H       0.33588971     -0.02828304     -2.80148436
H       1.01538469     -1.57838946     -2.51436031
H      -1.06623933     -1.39386801     -3.96035385
11
Frame 135  Energy = -268.5743035787 Hartree
C       0.96079285     -0.43827483     -0.82094811
C       0.33690318     -0.84517392     -2.12087997
C      -0.99033480     -1.55391203     -2.02866288
O      -1.57584008     -1.85717160     -1.03304503
O      -1.51798077     -1.83627424     -3.22481347
H       1.91330712     -0.08829899     -1.05763346
H       0.37976196      0.29805351     -0.33146286
H       1.07251621     -1.31058402     -0.20139236
H       0.33129624     -0.03003714     -2.79130561
H       1.01234074     -1.57241574     -2.51323766
H      -1.06493808     -1.40121214     -3.95264007
11
Frame 140  Energy = -268.5744215033 Hartree
C       0.96288913     -0.43831059     -0.82431338
C       0.33438377     -0.84741456     -2.12389999
C      -0.99040645     -1.55293049     -2.02518304
O      -1.57541502     -1.85685689     -1.03411072
O      -1.51759554     -1.83473171     -3.22440103
H       1.91275427     -0.08495346     -1.06375866
H       0.37812994      0.29821286     -0.32058921
H       1.06855757     -1.31373117     -0.18690460
H       0.32576620     -0.02970696     -2.78328644
H       1.01029445     -1.56796527     -2.51406605
H      -1.06239633     -1.40801940     -3.94501077
11
Frame 145  Energy = -268.5745515284 Hartree
C       0.96474556     -0.43866662     -0.82755945
C       0.33183580     -0.84982956     -2.12659665
C      -0.99037700     -1.55171143     -2.02180575
O      -1.57505584     -1.85661297     -1.03505142
O      -1.51744640     -1.83324852     -3.22401084
H       1.91590547     -0.07955592     -1.07003599
H       0.37622037      0.29958544     -0.30853172
H       1.06452846     -1.31686242     -0.17228804
H       0.31942578     -0.02707917     -2.77812998
H       1.00950968     -1.56558880     -2.51724512
H      -1.05822919     -1.41389820     -3.93878073
11
Frame 150  Energy = -268.5746386301 Hartree
C       0.96646738     -0.43931676     -0.83052792
C       0.32921931     -0.85235384     -2.12907005
C      -0.99027007     -1.55031186     -2.01864969
O      -1.57469076     -1.85635846     -1.03584631
O      -1.51749348     -1.83192803     -3.22363156
H       1.92235640     -0.07248792     -1.07661659
H       0.37424169      0.30145794     -0.29604407
H       1.06063110     -1.31891609     -0.15812767
H       0.31236474     -0.02200804     -2.77567658
H       1.01021721     -1.56510076     -2.52265439
H      -1.05212164     -1.41850315     -3.93412176
11
Frame 155  Energy = -268.5742621929 Hartree
C       0.96797027     -0.44018239     -0.83314089
C       0.32653731     -0.85494319     -2.13131492
C      -0.99001035     -1.54881131     -2.01566932
O      -1.57449023     -1.85613328     -1.03639987
O      -1.51778644     -1.83077414     -3.22321247
H       1.93153646     -0.06428100     -1.08300347
H       0.37259607      0.30379912     -0.28363681
H       1.05698843     -1.31944683     -0.14507644
H       0.30458038     -0.01443650     -2.77557325
H       1.01209577     -1.56642539     -2.53037144
H      -1.04386894     -1.42206109     -3.93135083
11
Frame 160  Energy = -268.5741326723 Hartree
C       0.96936198     -0.44127217     -0.83562985
C       0.32388494     -0.85758579     -2.13334774
C      -0.98969521     -1.54713641     -2.01281038
O      -1.57435829     -1.85598962     -1.03675076
O      -1.51823350     -1.82970315     -3.22273303
H       1.94257981     -0.05508794     -1.08850328
H       0.37196055      0.30595255     -0.27166770
H       1.05381093     -1.31791968     -0.13367382
H       0.29593571     -0.00518779     -2.77749278
H       1.01488013     -1.56951615     -2.54025172
H      -1.03358484     -1.42489960     -3.93083334
11
Frame 165  Energy = -268.5740314350 Hartree
C       0.97064690     -0.44239944     -0.83778761
C       0.32137035     -0.86032456     -2.13508431
C      -0.98925174     -1.54529234     -2.01024081
O      -1.57428431     -1.85591645     -1.03691983
O      -1.51887343     -1.82867469     -3.22222032
H       1.95464717     -0.04538983     -1.09252679
H       0.37265947      0.30728808     -0.26094496
H       1.05092675     -1.31392151     -0.12408299
H       0.28696985      0.00510846     -2.78102587
H       1.01808806     -1.57412594     -2.55243509
H      -1.02148980     -1.42662458     -3.93186125
11
Frame 170  Energy = -268.5737718321 Hartree
C       0.97175907     -0.44363834     -0.83963435
C       0.31911722     -0.86301757     -2.13650060
C      -0.98876464     -1.54336383     -2.00797641
O      -1.57425787     -1.85594894     -1.03682248
O      -1.51976781     -1.82771365     -3.22163671
H       1.96657938     -0.03571897     -1.09509453
H       0.37470302      0.30739530     -0.25214386
H       1.04852915     -1.30761130     -0.11674034
H       0.27736183      0.01577320     -2.78578382
H       1.02130201     -1.57960728     -2.56637323
H      -1.00812735     -1.42739113     -3.93396618
11
Frame 175  Energy = -268.5737324548 Hartree
C       0.97277268     -0.44484897     -0.84116682
C       0.31712582     -0.86563601     -2.13771391
C      -0.98818775     -1.54139709     -2.00610865
O      -1.57423647     -1.85606978     -1.03644683
O      -1.52077345     -1.82684317     -3.22109695
H       1.97725880     -0.02628116     -1.09668068
H       0.37816699      0.30630530     -0.24554821
H       1.04659456     -1.29896112     -0.11189671
H       0.26700319      0.02572349     -2.79101125
H       1.02386780     -1.58541941     -2.58169596
H      -0.99382242     -1.42779563     -3.93607862
11
Frame 180  Energy = -268.5738115405 Hartree
C       0.97374274     -0.44600336     -0.84229842
C       0.31553392     -0.86813340     -2.13874385
C      -0.98757803     -1.53930877     -2.00476773
O      -1.57427576     -1.85623338     -1.03578077
O      -1.52184738     -1.82597471     -3.22062772
H       1.98610399     -0.01756412     -1.09717239
H       0.38278273      0.30390160     -0.24109167
H       1.04506283     -1.28872849     -0.10931661
H       0.25608904      0.03403344     -2.79640366
H       1.02500179     -1.59074489     -2.59775238
H      -0.97943470     -1.42861886     -3.93719442
11
Frame 185  Energy = -268.5736809795 Hartree
C       0.97476360     -0.44705343     -0.84315969
C       0.31434437     -0.87042352     -2.13970516
C      -0.98696672     -1.53715809     -2.00392012
O      -1.57440430     -1.85641016     -1.03494946
O      -1.52301580     -1.82515869     -3.22026857
H       1.99239199     -0.01007541     -1.09643567
H       0.38899289      0.30049485     -0.23919244
H       1.04424519     -1.27754659     -0.10859119
H       0.24456223      0.04019432     -2.80124990
H       1.02480193     -1.59514894     -2.61442505
H      -0.96551675     -1.43026901     -3.93695108
11
Frame 190  Energy = -268.5736325598 Hartree
C       0.97592778     -0.44782615     -0.84369036
C       0.31363019     -0.87260294     -2.14068743
C      -0.98629789     -1.53500920     -2.00351096
O      -1.57453917     -1.85661726     -1.03392903
O      -1.52420059     -1.82434652     -3.22011706
H       1.99579476     -0.00414847     -1.09428491
H       0.39675052      0.29608720     -0.23976977
H       1.04442097     -1.26563059     -0.10982771
H       0.23280664      0.04404026     -2.80496442
H       1.02308930     -1.59849319     -2.63111511
H      -0.95236558     -1.43278192     -3.93489229
11
Frame 195  Energy = -268.5737062833 Hartree
C       0.97726707     -0.44841463     -0.84397171
C       0.31336370     -0.87452359     -2.14182215
C      -0.98563582     -1.53293529     -2.00359012
O      -1.57469346     -1.85691256     -1.03262291
O      -1.52531945     -1.82341155     -3.22016083
H       1.99621571      0.00032613     -1.09075014
H       0.40524854      0.29104355     -0.24262541
H       1.04549724     -1.25371745     -0.11259788
H       0.22099248      0.04523340     -2.80720931
H       1.01934923     -1.60039696     -2.64759249
H      -0.94084771     -1.43659024     -3.93116267
11
Frame 200  Energy = -268.5737042959 Hartree
C       0.97873164     -0.44877274     -0.84415843
C       0.31346321     -0.87616423     -2.14310864
C      -0.98510189     -1.53093054     -2.00400173
O      -1.57492704     -1.85729580     -1.03101621
O      -1.52634391     -1.82241911     -3.22027967
H       1.99356215      0.00308942     -1.08566479
H       0.41415112      0.28558770     -0.24759898
H       1.04752870     -1.24253849     -0.11630385
H       0.20934005      0.04357870     -2.80781499
H       1.01345400     -1.60028599     -2.66341209
H      -0.93113004     -1.44197885     -3.92539000
11
Frame 205  Energy = -268.5738521319 Hartree
C       0.98036792     -0.44886906     -0.84429700
C       0.31394514     -0.87753276     -2.14447362
C      -0.98462521     -1.52903592     -2.00473166
O      -1.57525817     -1.85776331     -1.02925689
O      -1.52725374     -1.82140605     -3.22053717
H       1.98792902      0.00375094     -1.07954494
H       0.42325069      0.28030262     -0.25423787
H       1.05053937     -1.23247577     -0.12035771
H       0.19811907      0.03945524     -2.80677491
H       1.00555664     -1.59841355     -2.67869345
H      -0.92339092     -1.44868707     -3.91747268
11
Frame 210  Energy = -268.5737440790 Hartree
C       0.98226902     -0.44887630     -0.84435292
C       0.31491512     -0.87865704     -2.14591487
C      -0.98436321     -1.52706227     -2.00563894
O      -1.57560531     -1.85823054     -1.02732270
O      -1.52818746     -1.82039305     -3.22096315
H       1.98017303      0.00287858     -1.07241891
H       0.43217953      0.27566440     -0.26236981
H       1.05481285     -1.22413503     -0.12440595
H       0.18741096      0.03282545     -2.80434570
H       0.99564861     -1.59451274     -2.69278666
H      -0.91752784     -1.45653851     -3.90812980
11
Frame 215  Energy = -268.5735829686 Hartree
C       0.98433897     -0.44865749     -0.84447345
C       0.31635656     -0.87944539     -2.14732664
C      -0.98428089     -1.52513373     -2.00674923
O      -1.57594853     -1.85881951     -1.02530412
O      -1.52912304     -1.81935130     -3.22153971
H       1.97044503      0.00094909     -1.06481103
H       0.44006860      0.27233492     -0.27118625
H       1.06036581     -1.21819732     -0.12768069
H       0.17724270      0.02376519     -2.80079902
H       0.98389401     -1.58892071     -2.70605740
H      -0.91296430     -1.46560931     -3.89775629
11
Frame 220  Energy = -268.5734591119 Hartree
C       0.98664379     -0.44829905     -0.84473871
C       0.31825978     -0.88000295     -2.14870483
C      -0.98443254     -1.52330267     -2.00807870
O      -1.57631673     -1.85948996     -1.02316932
O      -1.52995277     -1.81824412     -3.22219808
H       1.95926141     -0.00170145     -1.05695664
H       0.44661591      0.27074215     -0.28038272
H       1.06731237     -1.21522628     -0.12984158
H       0.16760446      0.01284162     -2.79644910
H       0.97092404     -1.58193658     -2.71874798
H      -0.90925211     -1.47541045     -3.88719262
11
Frame 225  Energy = -268.5734241060 Hartree
C       0.98910556     -0.44775525     -0.84520478
C       0.32049569     -0.88036946     -2.15004355
C      -0.98488180     -1.52169446     -2.00946789
O      -1.57676126     -1.86021002     -1.02092896
O      -1.53083776     -1.81708893     -3.22285389
H       1.94820636     -0.00490092     -1.04871041
H       0.45129295      0.27124987     -0.28960020
H       1.07571755     -1.21554580     -0.13086069
H       0.15898130      0.00083092     -2.79143366
H       0.95738855     -1.57386936     -2.73045159
H      -0.90605044     -1.48552466     -3.87719845
11
Frame 230  Energy = -268.5733796574 Hartree
C       0.99157619     -0.44712654     -0.84583727
C       0.32302797     -0.88051682     -2.15126222
C      -0.98561595     -1.52032931     -2.01085939
O      -1.57725325     -1.86086635     -1.01863488
O      -1.53178455     -1.81591165     -3.22358404
H       1.93828044     -0.00843389     -1.04084393
H       0.45383162      0.27440902     -0.29860418
H       1.08512344     -1.21938050     -0.13089389
H       0.15102622     -0.01153093     -2.78590072
H       0.94354682     -1.56537391     -2.74147956
H      -0.90290925     -1.49546282     -3.86853942
11
Frame 235  Energy = -268.5733938237 Hartree
C       0.99400994     -0.44653936     -0.84662049
C       0.32584479     -0.88045568     -2.15227409
C      -0.98663267     -1.51927709     -2.01220971
O      -1.57772525     -1.86147664     -1.01633114
O      -1.53285677     -1.81473422     -3.22431765
H       1.93064864     -0.01134151     -1.03341622
H       0.45368466      0.28042212     -0.30709182
H       1.09533155     -1.22585041     -0.13010842
H       0.14377367     -0.02329350     -2.78046816
H       0.93005274     -1.55660023     -2.75211740
H      -0.89937816     -1.50515615     -3.86170428
11
Frame 240  Energy = -268.5734609467 Hartree
C       0.99640208     -0.44610920     -0.84747227
C       0.32889504     -0.88026299     -2.15317117
C      -0.98794019     -1.51851734     -2.01345096
O      -1.57810640     -1.86205734     -1.01400583
O      -1.53397433     -1.81360638     -3.22494347
H       1.92646874     -0.01335786     -1.02696339
H       0.45093095      0.28873531     -0.31499792
H       1.10575935     -1.23443716     -0.12878545
H       0.13709202     -0.03366395     -2.77572192
H       0.91754032     -1.54770516     -2.76241188
H      -0.89502009     -1.51437567     -3.85735097
11
Frame 245  Energy = -268.5734658165 Hartree
C       0.99856224     -0.44588410     -0.84835720
C       0.33208698     -0.87990499     -2.15376222
C      -0.98966098     -1.51803592     -2.01448963
O      -1.57843726     -1.86254659     -1.01173572
O      -1.53528371     -1.81258338     -3.22547244
H       1.92655047     -0.01402116     -1.02186915
H       0.44603534      0.29877933     -0.32257459
H       1.11632937     -1.24455768     -0.12727937
H       0.13076047     -0.04192486     -2.77177480
H       0.90620826     -1.53922184     -2.77258465
H      -0.88950639     -1.52262754     -3.85567427
11
Frame 250  Energy = -268.5732322639 Hartree
C       1.00052061     -0.44591861     -0.84927095
C       0.33546210     -0.87948546     -2.15404741
C      -0.99162969     -1.51792383     -2.01529142
O      -1.57870980     -1.86291682     -1.00949976
O      -1.53673619     -1.81162568     -3.22586760
H       1.93121646     -0.01361057     -1.01780901
H       0.43943630      0.31008980     -0.32978592
H       1.12690501     -1.25557772     -0.12612029
H       0.12473997     -0.04745074     -2.76947742
H       0.89652348     -1.53185895     -2.78287644
H      -0.88279081     -1.53063460     -3.85666351
11
Frame 255  Energy = -268.5732968517 Hartree
C       1.00212982     -0.44605135     -0.85014016
C       0.33879954     -0.87902631     -2.15403412
C      -0.99386701     -1.51805228     -2.01584488
O      -1.57889020     -1.86324380     -1.00738277
O      -1.53830222     -1.81068204     -3.22618568
H       1.94008394     -0.01201908     -1.01496763
H       0.43147611      0.32215042     -0.33691151
H       1.13758019     -1.26691685     -0.12568766
H       0.11911184     -0.04963777     -2.76886109
H       0.88871784     -1.52620712     -2.79361817
H      -0.87524134     -1.53854689     -3.85998616
11
Frame 260  Energy = -268.5732907549 Hartree
C       1.00348275     -0.44628495     -0.85078872
C       0.34210052     -0.87842029     -2.15368478
C      -0.99630154     -1.51850092     -2.01617248
O      -1.57900608     -1.86346531     -1.00542457
O      -1.53993725     -1.80974575     -3.22643043
H       1.95234397     -0.00928506     -1.01339149
H       0.42245846      0.33327760     -0.34432348
H       1.14787701     -1.27756712     -0.12609883
H       0.11364803     -0.04809090     -2.76979717
H       0.88341740     -1.52212158     -2.80498971
H      -0.86729471     -1.54643984     -3.86566934
11
Frame 265  Energy = -268.5734609000 Hartree
C       1.00479985     -0.44661094     -0.85119821
C       0.34528062     -0.87771054     -2.15311144
C      -0.99884788     -1.51926295     -2.01633456
O      -1.57910617     -1.86361653     -1.00363550
O      -1.54163956     -1.80878161     -3.22665366
H       1.96734952     -0.00607191     -1.01281822
H       0.41345799      0.34287750     -0.35227729
H       1.15745614     -1.28695244     -0.12791321
H       0.10824803     -0.04308230     -2.77224058
H       0.88062549     -1.51957981     -2.81688190
H      -0.85967379     -1.55471152     -3.87259380
11
Frame 270  Energy = -268.5735013227 Hartree
C       1.00601352     -0.44690019     -0.85145467
C       0.34843946     -0.87688975     -2.15227721
C      -1.00148253     -1.52032310     -2.01631062
O      -1.57914664     -1.86356799     -1.00207798
O      -1.54331530     -1.80779097     -3.22677377
H       1.98355893     -0.00294009     -1.01286036
H       0.40481263      0.35094529     -0.36070877
H       1.16617743     -1.29455972     -0.13162539
H       0.10316717     -0.03527869     -2.77607096
H       0.88059794     -1.51855966     -2.82893059
H      -0.85328839     -1.56306300     -3.88038711
11
Frame 275  Energy = -268.5736291996 Hartree
C       1.00728746     -0.44723991     -0.85150237
C       0.35137851     -0.87590186     -2.15126747
C      -1.00414471     -1.52149837     -2.01605737
O      -1.57908882     -1.86337268     -1.00081454
O      -1.54499529     -1.80666621     -3.22682223
H       1.99998051     -0.00009141     -1.01336994
H       0.39691266      0.35690747     -0.36982569
H       1.17389289     -1.30032039     -0.13712032
H       0.09868806     -0.02562530     -2.78033485
H       0.88311177     -1.51859229     -2.84048144
H      -0.84886678     -1.57177466     -3.88810613
11
Frame 280  Energy = -268.5736123387 Hartree
C       1.00870457     -0.44760289     -0.85151353
C       0.35421446     -0.87481888     -2.15012925
C      -1.00686563     -1.52279225     -2.01556794
O      -1.57895840     -1.86300097     -0.99970744
O      -1.54667527     -1.80551366     -3.22689579
H       2.01549719      0.00239717     -1.01389616
H       0.39001404      0.36080142     -0.37995760
H       1.18032710     -1.30381202     -0.14459089
H       0.09489834     -0.01483111     -2.78483406
H       0.88753930     -1.51890395     -2.85113087
H      -0.84643746     -1.58103542     -3.89485875
11
Frame 285  Energy = -268.5735169422 Hartree
C       1.01025782     -0.44795124     -0.85145910
C       0.35684359     -0.87365674     -2.14893239
C      -1.00953660     -1.52424697     -2.01480695
O      -1.57866211     -1.86250803     -0.99878888
O      -1.54833170     -1.80440473     -3.22707084
H       2.02930724      0.00409877     -1.01441821
H       0.38434341      0.36210995     -0.39095109
H       1.18516050     -1.30535872     -0.15360634
H       0.09237192     -0.00319375     -2.78886026
H       0.89368006     -1.51910005     -2.86058015
H      -0.84646852     -1.59074114     -3.90012153
11
Frame 290  Energy = -268.5733167348 Hartree
C       1.01198628     -0.44814687     -0.85135264
C       0.35930021     -0.87242203     -2.14783181
C      -1.01227814     -1.52594809     -2.01378771
O      -1.57828144     -1.86192386     -0.99805784
O      -1.54994704     -1.80339417     -3.22735829
H       2.04049672      0.00450888     -1.01523830
H       0.37988792      0.36098411     -0.40241369
H       1.18892054     -1.30515610     -0.16398096
H       0.09143475      0.00838294     -2.79203962
H       0.90123055     -1.51915016     -2.86876260
H      -0.84931869     -1.60088084     -3.90382809
11
Frame 295  Energy = -268.5734547402 Hartree
C       1.01393679     -0.44820661     -0.85108033
C       0.36167491     -0.87106615     -2.14691972
C      -1.01496464     -1.52785435     -2.01256072
O      -1.57789120     -1.86118706     -0.99746516
O      -1.55154743     -1.80229085     -3.22779168
H       2.04850129      0.00353870     -1.01625858
H       0.37699346      0.35753595     -0.41379187
H       1.19115611     -1.30351217     -0.17533660
H       0.09233082      0.01943101     -2.79360949
H       0.90958575     -1.51836405     -2.87489928
H      -0.85461338     -1.61111645     -3.90609835
11
Frame 300  Energy = -268.5733425429 Hartree
C       1.01624742     -0.44807013     -0.85075582
C       0.36396836     -0.86952019     -2.14630548
C      -1.01751022     -1.52991444     -2.01121717
O      -1.57753471     -1.86029403     -0.99701538
O      -1.55318057     -1.80116340     -3.22834897
H       2.05315141      0.00145179     -1.01725420
H       0.37576258      0.35187577     -0.42489299
H       1.19210412     -1.30068185     -0.18700230
H       0.09487632      0.02910263     -2.79332924
H       0.91811424     -1.51655287     -2.87874372
H      -0.86173333     -1.62129940     -3.90708359
