11
Frame 5  Energy = -268.5714763249 Hartree
C       0.79567641     -0.45621339     -0.69536584
C       0.38798553     -0.85918797     -2.11201428
C      -0.89647350     -1.56758150     -2.07608515
O      -1.52565123     -1.83432812     -1.06967343
O      -1.50912517     -1.83091031     -3.27860060
H       1.74826739      0.00156618     -0.71487596
H       0.10346016      0.17750875     -0.18167556
H       0.85617318     -1.33736418     -0.08480835
H       0.30109754     -0.02592392     -2.73559897
H       1.17430511     -1.49684659     -2.43931389
H      -0.84253669     -1.70190394     -3.93098200
11
Frame 10  Energy = -268.5713515047 Hartree
C       0.79791490     -0.45599685     -0.69852854
C       0.38815610     -0.85833612     -2.10965927
C      -0.89660001     -1.56728435     -2.07713397
O      -1.52508041     -1.83438846     -1.07059763
O      -1.51217551     -1.83218907     -3.27788010
H       1.74458287      0.00151349     -0.72239245
H       0.11021907      0.18327343     -0.17200103
H       0.85440928     -1.33923192     -0.06862040
H       0.30226893     -0.02465321     -2.73692617
H       1.17519422     -1.49885293     -2.43912958
H      -0.84276747     -1.69943289     -3.92804463
11
Frame 15  Energy = -268.5714124425 Hartree
C       0.79998872     -0.45592432     -0.70171242
C       0.38845247     -0.85758614     -2.10690060
C      -0.89731739     -1.56716294     -2.07803634
O      -1.52445798     -1.83436768     -1.07174471
O      -1.51530465     -1.83347718     -3.27690187
H       1.74380316      0.00309003     -0.72951011
H       0.11620093      0.18988201     -0.16283401
H       0.85292935     -1.34166144     -0.05270125
H       0.30392377     -0.02032166     -2.74080816
H       1.17695464     -1.50228708     -2.44070320
H      -0.84123034     -1.69696174     -3.92838110
11
Frame 20  Energy = -268.5712817754 Hartree
C       0.80189148     -0.45605541     -0.70473731
C       0.38887938     -0.85694241     -2.10367116
C      -0.89855484     -1.56718214     -2.07869348
O      -1.52388521     -1.83430619     -1.07306955
O      -1.51838927     -1.83477975     -3.27576063
H       1.74607615      0.00604448     -0.73663448
H       0.12188881      0.19711146     -0.15419434
H       0.85186096     -1.34360260     -0.03768657
H       0.30585684     -0.01362031     -2.74677869
H       1.17931142     -1.50670721     -2.44399754
H      -0.83843321     -1.69433183     -3.93137770
11
Frame 25  Energy = -268.5713154566 Hartree
C       0.80352468     -0.45635814     -0.70751669
C       0.38939214     -0.85630201     -2.10008075
C      -0.90024463     -1.56739416     -2.07908263
O      -1.52323483     -1.83421937     -1.07445599
O      -1.52142280     -1.83613645     -3.27460382
H       1.75121377      0.01048881     -0.74370693
H       0.12742594      0.20460124     -0.14690722
H       0.85131626     -1.34436477     -0.02406021
H       0.30760223     -0.00511792     -2.75402264
H       1.18173107     -1.51117188     -2.44895454
H      -0.83513426     -1.69168894     -3.93660746
11
Frame 30  Energy = -268.5712599078 Hartree
C       0.80501627     -0.45679887     -0.71000078
C       0.39002232     -0.85560822     -2.09630164
C      -0.90240456     -1.56764888     -2.07926324
O      -1.52246741     -1.83407874     -1.07589499
O      -1.52434300     -1.83751127     -3.27341565
H       1.75903618      0.01562521     -0.75064924
H       0.13310285      0.21206541     -0.14130307
H       0.85128063     -1.34384898     -0.01267867
H       0.30913271      0.00425144     -2.76211033
H       1.18411246     -1.51612010     -2.45479848
H      -0.83197805     -1.68920223     -3.94358973
11
Frame 35  Energy = -268.5712728018 Hartree
C       0.80627657     -0.45743702     -0.71208336
C       0.39082904     -0.85484769     -2.09243900
C      -0.90491960     -1.56787347     -2.07928821
O      -1.52167799     -1.83387935     -1.07736788
O      -1.52708722     -1.83881450     -3.27225456
H       1.76858413      0.02142081     -0.75765599
H       0.13891712      0.21899181     -0.13779957
H       0.85167384     -1.34129596     -0.00397293
H       0.31082667      0.01347022     -2.77034604
H       1.18598318     -1.52089423     -2.46166131
H      -0.83006130     -1.68679286     -3.95120141
11
Frame 40  Energy = -268.5711331897 Hartree
C       0.80734284     -0.45827933     -0.71373181
C       0.39194137     -0.85402916     -2.08861164
C      -0.90790350     -1.56816581     -2.07916087
O      -1.52079562     -1.83369850     -1.07888954
O      -1.52958000     -1.84007549     -3.27115888
H       1.77928730      0.02773859     -0.76430010
H       0.14509361      0.22506035     -0.13651071
H       0.85282622     -1.33678551      0.00188172
H       0.31284499      0.02190099     -2.77812132
H       1.18700599     -1.52524929     -2.46951571
H      -0.82987059     -1.68457780     -3.95820531
11
Frame 45  Energy = -268.5710554933 Hartree
C       0.80849063     -0.45919231     -0.71487021
C       0.39324849     -0.85315470     -2.08495807
C      -0.91131908     -1.56847451     -2.07893617
O      -1.51985730     -1.83361423     -1.08051018
O      -1.53180733     -1.84121077     -3.27013779
H       1.79022540      0.03389713     -0.77054845
H       0.15152951      0.23048870     -0.13760940
H       0.85466310     -1.33042414      0.00510381
H       0.31517896      0.02883225     -2.78482447
H       1.18685457     -1.52876169     -2.47826717
H      -0.83212911     -1.68288469     -3.96423225
11
Frame 50  Energy = -268.5711219961 Hartree
C       0.80978787     -0.46006449     -0.71547550
C       0.39465288     -0.85230568     -2.08149097
C      -0.91501963     -1.56875974     -2.07876854
O      -1.51887806     -1.83356063     -1.08210090
O      -1.53375509     -1.84224824     -3.26923658
H       1.80048886      0.03933576     -0.77635383
H       0.15830859      0.23533694     -0.14138596
H       0.85677275     -1.32230276      0.00583883
H       0.31779919      0.03404630     -2.78992653
H       1.18526326     -1.53158015     -2.48738498
H      -0.83707235     -1.68165620     -3.96875470
11
Frame 55  Energy = -268.5710798353 Hartree
C       0.81128256     -0.46085739     -0.71560258
C       0.39613355     -0.85143098     -2.07836542
C      -0.91893368     -1.56901332     -2.07858286
O      -1.51783860     -1.83361364     -1.08354050
O      -1.53536646     -1.84324742     -3.26853420
H       1.80946057      0.04398520     -0.78153014
H       0.16544280      0.23963212     -0.14746551
H       0.85954018     -1.31278601      0.00414280
H       0.32083225      0.03678373     -2.79309753
H       1.18219866     -1.53325920     -2.49645092
H      -0.84491382     -1.68125848     -3.97174267
11
Frame 60  Energy = -268.5709554803 Hartree
C       0.81309788     -0.46150462     -0.71526895
C       0.39773975     -0.85047081     -2.07567214
C      -0.92304986     -1.56916514     -2.07843953
O      -1.51677848     -1.83373807     -1.08486257
O      -1.53669811     -1.84423860     -3.26804285
H       1.81679291      0.04735526     -0.78603911
H       0.17299924      0.24329583     -0.15571944
H       0.86326248     -1.30203097      0.00012319
H       0.32399704      0.03676465     -2.79418468
H       1.17738371     -1.53370368     -2.50510809
H      -0.85521137     -1.68160192     -3.97321856
11
Frame 65  Energy = -268.5710735837 Hartree
C       0.81517708     -0.46193457     -0.71445033
C       0.39939563     -0.84941746     -2.07343569
C      -0.92734530     -1.56927127     -2.07832011
O      -1.51582270     -1.83390038     -1.08612818
O      -1.53773582     -1.84519765     -3.26772426
H       1.82192406      0.04927302     -0.79017822
H       0.18037958      0.24648830     -0.16608542
H       0.86759882     -1.29066452     -0.00559592
H       0.32789421      0.03408641     -2.79306321
H       1.17120614     -1.53275792     -2.51326423
H      -0.86760337     -1.68239568     -3.97327380
11
Frame 70  Energy = -268.5711379815 Hartree
C       0.81754706     -0.46212234     -0.71321783
C       0.40099031     -0.84837808     -2.07172334
C      -0.93165168     -1.56931691     -2.07833793
O      -1.51505839     -1.83415003     -1.08717691
O      -1.53854554     -1.84613253     -3.26753414
H       1.82459323      0.04967305     -0.79377642
H       0.18721460      0.24934124     -0.17770513
H       0.87266232     -1.27944810     -0.01225656
H       0.33208518      0.02846684     -2.78984849
H       1.16341338     -1.53076807     -2.52090274
H      -0.88162893     -1.68351282     -3.97264737
11
Frame 75  Energy = -268.5711294778 Hartree
C       0.82027909     -0.46198039     -0.71172015
C       0.40259141     -0.84745190     -2.07042483
C      -0.93594249     -1.56922789     -2.07856936
O      -1.51429715     -1.83446879     -1.08795565
O      -1.53917442     -1.84704160     -3.26732426
H       1.82463277      0.04850027     -0.79673381
H       0.19351227      0.25221115     -0.19038931
H       0.87852384     -1.26935656     -0.01926241
H       0.33662789      0.02055689     -2.78468019
H       1.15439240     -1.52795383     -2.52804039
H      -0.89660576     -1.68466309     -3.97178459
11
Frame 80  Energy = -268.5710385275 Hartree
C       0.82324353     -0.46156624     -0.71000813
C       0.40404009     -0.84666807     -2.06955388
C      -0.94024558     -1.56901750     -2.07892960
O      -1.51373207     -1.83476806     -1.08848157
O      -1.53975434     -1.84797225     -3.26707029
H       1.82203586      0.04559606     -0.79915877
H       0.19853885      0.25563851     -0.20405935
H       0.88500844     -1.26136705     -0.02571658
H       0.34128399      0.01071617     -2.77765628
H       1.14453098     -1.52450609     -2.53450934
H      -0.91201351     -1.68572933     -3.97173914
11
Frame 85  Energy = -268.5709118759 Hartree
C       0.82648127     -0.46073184     -0.70820634
C       0.40546585     -0.84603214     -2.06909711
C      -0.94444124     -1.56872322     -2.07946633
O      -1.51335846     -1.83511941     -1.08875323
O      -1.54033489     -1.84885208     -3.26678588
H       1.81735528      0.04130577     -0.80084611
H       0.20228288      0.25968670     -0.21823530
H       0.89222943     -1.25643673     -0.03133489
H       0.34636457     -0.00028569     -2.76927224
H       1.13415627     -1.52048318     -2.54062782
H      -0.92666854     -1.68621555     -3.97296376
11
Frame 90  Energy = -268.5709735145 Hartree
C       0.83009299     -0.45952079     -0.70650522
C       0.40676276     -0.84542053     -2.06895826
C      -0.94839595     -1.56831431     -2.08028970
O      -1.51320252     -1.83563568     -1.08864862
O      -1.54097540     -1.84974155     -3.26637998
H       1.81100162      0.03594672     -0.80199808
H       0.20440084      0.26436024     -0.23243465
H       0.90030503     -1.25478622     -0.03536245
H       0.35125755     -0.01131645     -2.75978145
H       1.12390844     -1.51615191     -2.54648354
H      -0.93992140     -1.68617864     -3.97604433
11
Frame 95  Energy = -268.5710848514 Hartree
C       0.83386227     -0.45791337     -0.70490355
C       0.40796928     -0.84493986     -2.06910180
C      -0.95199899     -1.56773256     -2.08139072
O      -1.51326335     -1.83623092     -1.08818784
O      -1.54171480     -1.85070883     -3.26587245
H       1.80374651      0.02989151     -0.80261832
H       0.20474326      0.27020622     -0.24694608
H       0.90929791     -1.25684830     -0.03754954
H       0.35594905     -0.02168999     -2.75028478
H       1.11448169     -1.51238783     -2.55193897
H      -0.95107145     -1.68539159     -3.98132616
11
Frame 100  Energy = -268.5712118298 Hartree
C       0.83784077     -0.45604218     -0.70343646
C       0.40897736     -0.84468734     -2.06942022
C      -0.95520479     -1.56695037     -2.08270449
O      -1.51354388     -1.83696724     -1.08740058
O      -1.54253698     -1.85170721     -3.26526401
H       1.79678591      0.02401722     -0.80277164
H       0.20328865      0.27722406     -0.26109454
H       0.91915495     -1.26207694     -0.03775765
H       0.36047987     -0.03003262     -2.74187274
H       1.10596589     -1.50914489     -2.55703991
H      -0.95984012     -1.68343460     -3.98903320
11
Frame 105  Energy = -268.5712325502 Hartree
C       0.84194604     -0.45394319     -0.70210187
C       0.40969375     -0.84464390     -2.06986291
C      -0.95798175     -1.56607380     -2.08427127
O      -1.51399555     -1.83791271     -1.08629217
O      -1.54343120     -1.85280146     -3.26462024
H       1.79098765      0.01865865     -0.80235623
H       0.20062495      0.28547649     -0.27476637
H       0.92933558     -1.26988125     -0.03632734
H       0.36485779     -0.03544599     -2.73460320
H       1.09864184     -1.50680084     -2.56185379
H      -0.96638188     -1.68046158     -3.99885942
11
Frame 110  Energy = -268.5711275203 Hartree
C       0.84606784     -0.45168496     -0.70083387
C       0.41008995     -0.84487750     -2.07038040
C      -0.96043888     -1.56491103     -2.08602275
O      -1.51468166     -1.83897737     -1.08489377
O      -1.54439808     -1.85403953     -3.26396769
H       1.78734968      0.01386343     -0.80156207
H       0.19699122      0.29437944     -0.28745816
H       0.93975648     -1.27975163     -0.03315749
H       0.36871858     -0.03756964     -2.72924479
H       1.09261550     -1.50548124     -2.56668386
H      -0.97149250     -1.67665333     -4.00991053
11
Frame 115  Energy = -268.5711714399 Hartree
C       0.85018253     -0.44950233     -0.69961821
C       0.41015671     -0.84543818     -2.07102717
C      -0.96267602     -1.56351744     -2.08789545
O      -1.51561926     -1.84017541     -1.08324385
O      -1.54542069     -1.85534150     -3.26341600
H       1.78646125      0.01051170     -0.80046654
H       0.19198340      0.30362553     -0.29926944
H       0.95038051     -1.29082389     -0.02929500
H       0.37204721     -0.03581340     -2.72644713
H       1.08817858     -1.50546929     -2.57152141
H      -0.97558636     -1.67233100     -4.02163655
11
Frame 120  Energy = -268.5711066554 Hartree
C       0.85426383     -0.44740566     -0.69845019
C       0.40986495     -0.84636563     -2.07176706
C      -0.96461662     -1.56201281     -2.08988149
O      -1.51678195     -1.84144447     -1.08143018
O      -1.54642569     -1.85663549     -3.26287662
H       1.78930549      0.00868391     -0.79926950
H       0.18595499      0.31285271     -0.31005300
H       0.96060619     -1.30191371     -0.02564646
H       0.37463490     -0.02992951     -2.72596567
H       1.08558286     -1.50675731     -2.57651940
H      -0.97929759     -1.66771725     -4.03328816
11
Frame 125  Energy = -268.5709821032 Hartree
C       0.85815292     -0.44542461     -0.69725487
C       0.40930115     -0.84767155     -2.07251226
C      -0.96636321     -1.56027803     -2.09196252
O      -1.51813838     -1.84274680     -1.07951238
O      -1.54739055     -1.85791963     -3.26249892
H       1.79586214      0.00822039     -0.79859658
H       0.17930400      0.32164893     -0.31989980
H       0.96998377     -1.31263684     -0.02213949
H       0.37680169     -0.02026235     -2.72749519
H       1.08410676     -1.50949297     -2.58166791
H      -0.98315841     -1.66280193     -4.04380066
11
Frame 130  Energy = -268.5708666707 Hartree
C       0.86184348     -0.44363329     -0.69596892
C       0.40844884     -0.84929741     -2.07326129
C      -0.96789124     -1.55829200     -2.09398041
O      -1.51965536     -1.84407648     -1.07747348
O      -1.54834705     -1.85920259     -3.26226397
H       1.80627587      0.00935180     -0.79770441
H       0.17284593      0.32972544     -0.32896624
H       0.97824463     -1.32219604     -0.01915531
H       0.37841959     -0.00778827     -2.73066043
H       1.08432358     -1.51369016     -2.58695180
H      -0.98764906     -1.65759609     -4.05236249
11
Frame 135  Energy = -268.5707613099 Hartree
C       0.86535798     -0.44200450     -0.69457691
C       0.40731762     -0.85113627     -2.07420801
C      -0.96915520     -1.55608118     -2.09580490
O      -1.52124160     -1.84541823     -1.07534333
O      -1.54934232     -1.86058665     -3.26211601
H       1.82019637      0.01215336     -0.79672463
H       0.16724861      0.33626214     -0.33708700
H       0.98521010     -1.32963844     -0.01726817
H       0.37905285      0.00664022     -2.73503922
H       1.08617027     -1.51914078     -2.59213526
H      -0.99273288     -1.65235055     -4.05894447
11
Frame 140  Energy = -268.5709189602 Hartree
C       0.86876446     -0.44052624     -0.69322938
C       0.40602412     -0.85304119     -2.07515254
C      -0.97020391     -1.55379821     -2.09734863
O      -1.52288741     -1.84682975     -1.07317921
O      -1.55031088     -1.86201370     -3.26226476
H       1.83643539      0.01578402     -0.79549439
H       0.16252426      0.34098912     -0.34425985
H       0.99086795     -1.33481951     -0.01641877
H       0.37888958      0.02185122     -2.73977053
H       1.08938035     -1.52533487     -2.59721407
H      -0.99873553     -1.64716623     -4.06289843
11
Frame 145  Energy = -268.5711513887 Hartree
C       0.87199243     -0.43912832     -0.69194388
C       0.40459584     -0.85494204     -2.07625456
C      -0.97113790     -1.55133254     -2.09862326
O      -1.52458191     -1.84822310     -1.07092914
O      -1.55126145     -1.86342830     -3.26266557
H       1.85322905      0.01995946     -0.79414588
H       0.15911004      0.34382849     -0.35065787
H       0.99523624     -1.33678788     -0.01714269
H       0.37787545      0.03646031     -2.74408503
H       1.09338573     -1.53159676     -2.60183005
H      -1.00600045     -1.64207662     -4.06389627
11
Frame 150  Energy = -268.5712305711 Hartree
C       0.87523294     -0.43786109     -0.69063184
C       0.40307035     -0.85675668     -2.07775440
C      -0.97195984     -1.54877853     -2.09964723
O      -1.52625607     -1.84966610     -1.06870668
O      -1.55219710     -1.86483827     -3.26336854
H       1.86969264      0.02367655     -0.79267434
H       0.15707357      0.34457250     -0.35636970
H       0.99841074     -1.33545373     -0.01897660
H       0.37619140      0.04984218     -2.74721713
H       1.09735578     -1.53726771     -2.60567832
H      -1.01399297     -1.63726208     -4.06200091
11
Frame 155  Energy = -268.5711055291 Hartree
C       0.87843485     -0.43672156     -0.68935491
C       0.40154098     -0.85849819     -2.07959217
C      -0.97264018     -1.54618112     -2.10041897
O      -1.52799663     -1.85111593     -1.06656344
O      -1.55312057     -1.86617687     -3.26430558
H       1.88512736      0.02684241     -0.79106198
H       0.15669939      0.34323137     -0.36090311
H       1.00022801     -1.33095991     -0.02200594
H       0.37378736      0.06148182     -2.74858448
H       1.10085151     -1.54255098     -2.60852423
H      -1.02289903     -1.63232830     -4.05794865
11
Frame 160  Energy = -268.5710816144 Hartree
C       0.88178283     -0.43555828     -0.68803249
C       0.40007176     -0.86016600     -2.08171448
C      -0.97321255     -1.54353421     -2.10087486
O      -1.52973792     -1.85252981     -1.06456373
O      -1.55400361     -1.86753934     -3.26545842
H       1.89898207      0.02944449     -0.78949966
H       0.15797845      0.33970647     -0.36446192
H       1.00109668     -1.32378962     -0.02592638
H       0.37090828      0.07085652     -2.74845149
H       1.10372884     -1.54726489     -2.61028860
H      -1.03187867     -1.62724573     -4.05226920
11
Frame 165  Energy = -268.5710341752 Hartree
C       0.88523437     -0.43443608     -0.68680875
C       0.39864255     -0.86174964     -2.08417536
C      -0.97373136     -1.54090718     -2.10092967
O      -1.53139271     -1.85394987     -1.06268986
O      -1.55478257     -1.86900275     -3.26668633
H       1.91009998      0.03137797     -0.78771749
H       0.16110728      0.33414782     -0.36687890
H       1.00083052     -1.31447910     -0.03025151
H       0.36796852      0.07721944     -2.74695983
H       1.10617856     -1.55094899     -2.61093070
H      -1.04034133     -1.62175697     -4.04501613
11
Frame 170  Energy = -268.5710413261 Hartree
C       0.88892201     -0.43330486     -0.68563540
C       0.39730439     -0.86325773     -2.08697644
C      -0.97424137     -1.53838538     -2.10056143
O      -1.53303341     -1.85530260     -1.06098407
O      -1.55555508     -1.87046615     -3.26799310
H       1.91836021      0.03215845     -0.78562261
H       0.16573359      0.32707254     -0.36801612
H       0.99941817     -1.30346965     -0.03492306
H       0.36488463      0.07993162     -2.74363658
H       1.10754375     -1.55387773     -2.61030867
H      -1.04783161     -1.61574440     -4.03738610
11
Frame 175  Energy = -268.5712760248 Hartree
C       0.89282030     -0.43214734     -0.68470190
C       0.39611096     -0.86459006     -2.09002598
C      -0.97466375     -1.53599304     -2.09973098
O      -1.53453780     -1.85656469     -1.05959740
O      -1.55629909     -1.87193961     -3.26935314
H       1.92332548      0.03173061     -0.78307463
H       0.17124454      0.31884394     -0.36758688
H       0.99664657     -1.29142848     -0.03919629
H       0.36162900      0.07967343     -2.73878429
H       1.10737553     -1.55570511     -2.60878264
H      -1.05388153     -1.60919221     -4.03047168
11
Frame 180  Energy = -268.5713346651 Hartree
C       0.89680968     -0.43084937     -0.68412393
C       0.39500790     -0.86570757     -2.09321618
C      -0.97504668     -1.53359912     -2.09851291
O      -1.53596237     -1.85770349     -1.05853715
O      -1.55714547     -1.87339500     -3.27065126
H       1.92524299      0.03040387     -0.78053440
H       0.17770523      0.30981702     -0.36573954
H       0.99299374     -1.27933248     -0.04253228
H       0.35848252      0.07631370     -2.73230959
H       1.10589192     -1.55644790     -2.60659473
H      -1.05789929     -1.60172459     -4.02505713
11
Frame 185  Energy = -268.5712888193 Hartree
C       0.90092078     -0.42950202     -0.68386842
C       0.39399664     -0.86662880     -2.09656049
C      -0.97549516     -1.53134814     -2.09689847
O      -1.53738800     -1.85873805     -1.05769656
O      -1.55807657     -1.87489777     -3.27176643
H       1.92401494      0.02838565     -0.77787881
H       0.18427244      0.30067474     -0.36200107
H       0.98889751     -1.26804928     -0.04424192
H       0.35538294      0.06990186     -2.72455637
H       1.10305269     -1.55611776     -2.60354169
H      -1.06001838     -1.59290790     -4.02150905
11
Frame 190  Energy = -268.5710569739 Hartree
C       0.90529367     -0.42801474     -0.68401020
C       0.39314928     -0.86740522     -2.10001513
C      -0.97605053     -1.52919875     -2.09472669
O      -1.53875452     -1.85965705     -1.05717118
O      -1.55919622     -1.87640334     -3.27261047
H       1.92002345      0.02568243     -0.77501942
H       0.19073129      0.29205591     -0.35665856
H       0.98412613     -1.25840402     -0.04433792
H       0.35225783      0.06113127     -2.71571756
H       1.09939804     -1.55485281     -2.59985312
H      -1.06012970     -1.58277099     -4.01989148
11
Frame 195  Energy = -268.5711313390 Hartree
C       0.90979143     -0.42652242     -0.68468922
C       0.39242133     -0.86800657     -2.10351060
C      -0.97663446     -1.52716132     -2.09202971
O      -1.54006546     -1.86040141     -1.05682859
O      -1.56045459     -1.87781735     -3.27327846
H       1.91446327      0.02239489     -0.77204288
H       0.19675787      0.28438021     -0.34956193
H       0.97905370     -1.25091561     -0.04230399
H       0.34913215      0.05068641     -2.70680417
H       1.09521839     -1.55297220     -2.59577279
H      -1.05834470     -1.57161562     -4.02013288
11
Frame 200  Energy = -268.5711678180 Hartree
C       0.91442934     -0.42500863     -0.68598664
C       0.39182758     -0.86844333     -2.10703574
C      -0.97737238     -1.52519096     -2.08890937
O      -1.54124549     -1.86099359     -1.05678522
O      -1.56169176     -1.87917732     -3.27378033
H       1.90770109      0.01909028     -0.76941005
H       0.20191500      0.27834911     -0.34081939
H       0.97353479     -1.24594631     -0.03814046
H       0.34602965      0.03956368     -2.69842614
H       1.09021886     -1.55059862     -2.59138975
H      -1.05496316     -1.55968792     -4.02155928
11
Frame 205  Energy = -268.5710165537 Hartree
C       0.91909239     -0.42345989     -0.68776939
C       0.39124832     -0.86875139     -2.11045101
C      -0.97825384     -1.52344038     -2.08543300
O      -1.54228389     -1.86145363     -1.05692239
O      -1.56290444     -1.88050414     -3.27422024
H       1.90053432      0.01596746     -0.76708866
H       0.20615180      0.27400275     -0.33020425
H       0.96750697     -1.24364354     -0.03197854
H       0.34289834      0.02848159     -2.69105116
H       1.08537067     -1.54818613     -2.58713462
H      -1.05044497     -1.54722703     -4.02345765
11
Frame 210  Energy = -268.5707485836 Hartree
C       0.92366944     -0.42197414     -0.68994280
C       0.39077770     -0.86892049     -2.11361795
C      -0.97924752     -1.52192861     -2.08162699
O      -1.54318809     -1.86184472     -1.05722489
O      -1.56409546     -1.88183539     -3.27461577
H       1.89402323      0.01363006     -0.76512610
H       0.20947564      0.27156487     -0.31810720
H       0.96156336     -1.24379626     -0.02404758
H       0.33975923      0.01834054     -2.68533346
H       1.08111363     -1.54650200     -2.58336405
H      -1.04540163     -1.53478922     -4.02529783
11
Frame 215  Energy = -268.5707126511 Hartree
C       0.92802400     -0.42063053     -0.69258067
C       0.39032043     -0.86914832     -2.11646275
C      -0.98035741     -1.52061971     -2.07742258
O      -1.54398977     -1.86217279     -1.05769062
O      -1.56517846     -1.88311635     -3.27495346
H       1.88907765      0.01194127     -0.76349959
H       0.21204627      0.27076101     -0.30486291
H       0.95584720     -1.24618170     -0.01440286
H       0.33656681      0.01035332     -2.68196310
H       1.07729855     -1.54603064     -2.58046592
H      -1.04043557     -1.52274120     -4.02645349
11
Frame 220  Energy = -268.5707536261 Hartree
C       0.93202043     -0.41952860     -0.69560879
C       0.38990144     -0.86940161     -2.11893161
C      -0.98155580     -1.51957187     -2.07305601
O      -1.54466089     -1.86234563     -1.05823797
O      -1.56609820     -1.88425841     -3.27529820
H       1.88659600      0.01147635     -0.76256126
H       0.21420032      0.27123702     -0.29082976
H       0.95036606     -1.25000048     -0.00374373
H       0.33365022      0.00536129     -2.68162416
H       1.07426230     -1.54658559     -2.57837494
H      -1.03635812     -1.51136320     -4.02620087
11
Frame 225  Energy = -268.5710211870 Hartree
C       0.93550856     -0.41865258     -0.69882270
C       0.38954093     -0.86969578     -2.12095398
C      -0.98284465     -1.51882570     -2.06864061
O      -1.54526647     -1.86234634     -1.05889340
O      -1.56685834     -1.88526629     -3.27565952
H       1.88718603      0.01244909     -0.76225709
H       0.21603301      0.27261460     -0.27631907
H       0.94501574     -1.25449004      0.00705917
H       0.33097834      0.00409959     -2.68478147
H       1.07219469     -1.54816515     -2.57730423
H      -1.03364510     -1.50084804     -4.02409739
11
Frame 230  Energy = -268.5711341587 Hartree
C       0.93839702     -0.41810858     -0.70213660
C       0.38913451     -0.86992750     -2.12243376
C      -0.98417535     -1.51830219     -2.06433782
O      -1.54582451     -1.86225440     -1.05961748
O      -1.56745564     -1.88607069     -3.27611764
H       1.89103609      0.01519909     -0.76296339
H       0.21810412      0.27476575     -0.26182667
H       0.93991979     -1.25870147      0.01708951
H       0.32850851      0.00662070     -2.69116524
H       1.07106288     -1.55109408     -2.57768272
H      -1.03263192     -1.49108512     -4.01994255
11
Frame 235  Energy = -268.5711079909 Hartree
C       0.94077572     -0.41793261     -0.70539262
C       0.38865712     -0.87012774     -2.12351627
C      -0.98557556     -1.51801845     -2.06016595
O      -1.54635823     -1.86210268     -1.06027189
O      -1.56780425     -1.88668578     -3.27666109
H       1.89785529      0.01950199     -0.76441153
H       0.22068227      0.27721371     -0.24762752
H       0.93492857     -1.26231886      0.02551206
H       0.32636006      0.01218443     -2.70045296
H       1.07126051     -1.55540419     -2.57914061
H      -1.03329721     -1.48268882     -4.01337244
11
Frame 240  Energy = -268.5710020243 Hartree
C       0.94271179     -0.41816164     -0.70864153
C       0.38816736     -0.87020536     -2.12423785
C      -0.98698654     -1.51790571     -2.05604632
O      -1.54693259     -1.86194582     -1.06085332
O      -1.56787545     -1.88708289     -3.27718407
H       1.90712119      0.02485588     -0.76606035
H       0.22404191      0.27948560     -0.23418958
H       0.93043924     -1.26454950      0.03199862
H       0.32410926      0.01966464     -2.71240321
H       1.07245472     -1.56087986     -2.58179482
H      -1.03539175     -1.47551411     -4.00451936
11
Frame 245  Energy = -268.5705689040 Hartree
C       0.94425508     -0.41879410     -0.71188808
C       0.38775285     -0.87021060     -2.12452607
C      -0.98840977     -1.51794283     -2.05197709
O      -1.54756779     -1.86177320     -1.06138736
O      -1.56774448     -1.88729174     -3.27771203
H       1.91804026      0.03080309     -0.76794764
H       0.22812604      0.28146721     -0.22157265
H       0.92653339     -1.26509168      0.03606003
H       0.32213125      0.02818946     -2.72631396
H       1.07417000     -1.56721261     -2.58522026
H      -1.03870272     -1.46961282     -3.99381721
11
Frame 250  Energy = -268.5702815130 Hartree
C       0.94547542     -0.41955401     -0.71512498
C       0.38739920     -0.87011061     -2.12439271
C      -0.98982202     -1.51819023     -2.04814955
O      -1.54835450     -1.86153873     -1.06184639
O      -1.56740159     -1.88732294     -3.27816750
H       1.92986442      0.03695967     -0.77041164
H       0.23368320      0.28278011     -0.21013681
H       0.92337904     -1.26419453      0.03734607
H       0.32054759      0.03674107     -2.74143927
H       1.07619233     -1.57400936     -2.58921978
H      -1.04271785     -1.46438523     -3.98192400
11
Frame 255  Energy = -268.5703360824 Hartree
C       0.94636787     -0.42047873     -0.71831761
C       0.38695497     -0.86971424     -2.12392329
C      -0.99114924     -1.51846740     -2.04469684
O      -1.54924520     -1.86126556     -1.06214415
O      -1.56692573     -1.88719696     -3.27851944
H       1.94115099      0.04296625     -0.77340662
H       0.24095297      0.28355862     -0.20079038
H       0.92110254     -1.26165696      0.03642575
H       0.31912548      0.04467669     -2.75676824
H       1.07834338     -1.58098132     -2.59348896
H      -1.04704214     -1.45952402     -3.96985061
11
Frame 260  Energy = -268.5703793578 Hartree
C       0.94700243     -0.42151893     -0.72144944
C       0.38651157     -0.86902278     -2.12318956
C      -0.99233270     -1.51895139     -2.04171283
O      -1.55021403     -1.86100156     -1.06231760
O      -1.56638711     -1.88695249     -3.27867395
H       1.95125708      0.04856562     -0.77668388
H       0.24959776      0.28392998     -0.19366857
H       0.91961617     -1.25791808      0.03266885
H       0.31831324      0.05069495     -2.77154597
H       1.08010338     -1.58763736     -2.59787571
H      -1.05142156     -1.45456305     -3.95837254
11
Frame 265  Energy = -268.5703721699 Hartree
C       0.94745414     -0.42256492     -0.72439959
C       0.38622122     -0.86801861     -2.12225924
C      -0.99338279     -1.51963826     -2.03915882
O      -1.55119188     -1.86075466     -1.06232320
O      -1.56581289     -1.88656410     -3.27862623
H       1.95947463      0.05303651     -0.78024103
H       0.25958933      0.28355657     -0.18880585
H       0.91890373     -1.25316936      0.02617554
H       0.31795302      0.05392011     -2.78558613
H       1.08074533     -1.59322814     -2.60221783
H      -1.05503094     -1.44904180     -3.94841928
11
Frame 270  Energy = -268.5704250407 Hartree
C       0.94774024     -0.42359780     -0.72706381
C       0.38608201     -0.86672414     -2.12126925
C      -0.99426129     -1.52046152     -2.03691839
O      -1.55222260     -1.86057793     -1.06211440
O      -1.56519821     -1.88602097     -3.27837017
H       1.96529681      0.05631773     -0.78459995
H       0.27066018      0.28268073     -0.18615151
H       0.91934153     -1.24778741      0.01721575
H       0.31788287      0.05426012     -2.79829645
H       1.08015968     -1.59765191     -2.60595323
H      -1.05707197     -1.44273381     -3.94060188
11
Frame 275  Energy = -268.5705924771 Hartree
C       0.94800963     -0.42461767     -0.72958672
C       0.38603816     -0.86510306     -2.12025737
C      -0.99495882     -1.52139429     -2.03521880
O      -1.55329130     -1.86044838     -1.06173850
O      -1.56450413     -1.88550672     -3.27780722
H       1.96839851      0.05795597     -0.78942227
H       0.28269639      0.28123380     -0.18598999
H       0.92078007     -1.24186874      0.00637536
H       0.31816815      0.05140076     -2.80929216
H       1.07803553     -1.60045037     -2.60887476
H      -1.05734028     -1.43540177     -3.93536683
11
Frame 280  Energy = -268.5707572401 Hartree
C       0.94817994     -0.42556600     -0.73203988
C       0.38608350     -0.86321183     -2.11925599
C      -0.99547286     -1.52235077     -2.03401668
O      -1.55444208     -1.86037806     -1.06113717
O      -1.56378005     -1.88496772     -3.27692430
H       1.96859549      0.05756660     -0.79436071
H       0.29509714      0.27971337     -0.18810820
H       0.92352091     -1.23616802     -0.00575015
H       0.31849897      0.04570961     -2.81825781
H       1.07465362     -1.60158578     -2.61106692
H      -1.05604109     -1.42674610     -3.93299805
11
Frame 285  Energy = -268.5707349801 Hartree
C       0.94836280     -0.42637621     -0.73446815
C       0.38610895     -0.86114748     -2.11818960
C      -0.99579652     -1.52334064     -2.03324470
O      -1.55573403     -1.86037308     -1.06024173
O      -1.56306751     -1.88438384     -3.27577093
H       1.96610170      0.05543886     -0.79924633
H       0.30766031      0.27833449     -0.19233671
H       0.92774520     -1.23130784     -0.01898920
H       0.31921466      0.03721431     -2.82469520
H       1.06989353     -1.60133457     -2.61222421
H      -1.05336405     -1.41666568     -3.93317901
11
Frame 290  Energy = -268.5704364408 Hartree
C       0.94852810     -0.42709652     -0.73695687
C       0.38627446     -0.85885922     -2.11722114
C      -0.99594889     -1.52443637     -2.03295758
O      -1.55717353     -1.86039867     -1.05913665
O      -1.56232101     -1.88378272     -3.27436985
H       1.96151646      0.05131785     -0.80416372
H       0.32018581      0.27710460     -0.19866589
H       0.93325875     -1.22784938     -0.03262066
H       0.32052237      0.02595664     -2.82900193
H       1.06345997     -1.59962230     -2.61199305
H      -1.04966014     -1.40585450     -3.93521595
11
Frame 295  Energy = -268.5703182906 Hartree
C       0.94860439     -0.42757859     -0.73954125
C       0.38648141     -0.85633895     -2.11626546
C      -0.99596986     -1.52562319     -2.03311997
O      -1.55867244     -1.86046855     -1.05790321
O      -1.56133297     -1.88309526     -3.27277419
H       1.95474948      0.04537200     -0.80924268
H       0.33234912      0.27652351     -0.20614578
H       0.93988034     -1.22647291     -0.04615237
H       0.32232800      0.01240828     -2.83138960
H       1.05568420     -1.59650489     -2.61054974
H      -1.04573569     -1.39499481     -3.93833970
11
Frame 300  Energy = -268.5702315160 Hartree
C       0.94863144     -0.42794899     -0.74223818
C       0.38659716     -0.85380946     -2.11532768
C      -0.99591078     -1.52689606     -2.03384894
O      -1.56022012     -1.86061497     -1.05640791
O      -1.56016126     -1.88224932     -3.27100379
H       1.94600798      0.03809607     -0.81492546
H       0.34368047      0.27737657     -0.21470206
H       0.94772204     -1.22781385     -0.05926865
H       0.32432544     -0.00291691     -2.83216760
H       1.04713501     -1.59258148     -2.60836777
H      -1.04225159     -1.38472476     -3.94139706
