11
Frame 5  Energy = -268.5519905577 Hartree
C       0.69283526     -0.73056849     -0.31647469
C       0.51983705     -1.08203832     -1.84690390
C      -0.86365727     -1.63057643     -2.10795253
O      -1.72492803     -1.92487760     -1.34296168
O      -1.06353156     -1.98965364     -3.43206343
H       1.53128011     -0.07596759     -0.11545181
H      -0.18114204     -0.13943933     -0.04620361
H       0.78787005     -1.66222989      0.18298902
H       0.70288540     -0.22043550     -2.51386656
H       1.18432907     -1.91730245     -2.13603377
H      -0.28392115     -1.71925662     -3.91913467
11
Frame 10  Energy = -268.5517990140 Hartree
C       0.69183611     -0.73327375     -0.31635883
C       0.52126357     -1.08201575     -1.84840426
C      -0.86631523     -1.62712685     -2.10851730
O      -1.72540461     -1.92676727     -1.34030745
O      -1.05977245     -1.99108375     -3.43043455
H       1.53120893     -0.08045226     -0.12674146
H      -0.18742874     -0.15542662     -0.04351248
H       0.77585782     -1.67214696      0.18699261
H       0.70423953     -0.23710099     -2.52088873
H       1.18033128     -1.91811297     -2.12966608
H      -0.28084261     -1.72096269     -3.92269943
11
Frame 15  Energy = -268.5512451335 Hartree
C       0.69086305     -0.73595268     -0.31660166
C       0.52261462     -1.08196859     -1.84971715
C      -0.86900331     -1.62400524     -2.10921414
O      -1.72585728     -1.92867732     -1.33744705
O      -1.05587293     -1.99249487     -3.42876329
H       1.53198778     -0.08534755     -0.13821697
H      -0.19370370     -0.17241234     -0.03984455
H       0.76320092     -1.68265524      0.19264115
H       0.70546022     -0.25396077     -2.52719404
H       1.17616412     -1.91793125     -2.12309265
H      -0.27795955     -1.72307627     -3.92695382
11
Frame 20  Energy = -268.5513203855 Hartree
C       0.68977896     -0.73870475     -0.31729279
C       0.52392431     -1.08195480     -1.85078597
C      -0.87178946     -1.62125704     -2.11008725
O      -1.72632286     -1.93054002     -1.33462374
O      -1.05189915     -1.99390001     -3.42704935
H       1.53360569     -0.09058624     -0.14992731
H      -0.20027728     -0.19001052     -0.03522810
H       0.74999473     -1.69333397      0.19957350
H       0.70696382     -0.27038185     -2.53347240
H       1.17173119     -1.91719330     -2.11650199
H      -0.27535589     -1.72551835     -3.93155422
11
Frame 25  Energy = -268.5511887362 Hartree
C       0.68862827     -0.74143493     -0.31838284
C       0.52513075     -1.08195552     -1.85148931
C      -0.87456880     -1.61886635     -2.11103448
O      -1.72674823     -1.93223444     -1.33178675
O      -1.04790447     -1.99521008     -3.42533531
H       1.53598069     -0.09574119     -0.16142522
H      -0.20717933     -0.20767895     -0.02965896
H       0.73676841     -1.70344592      0.20686337
H       0.70870033     -0.28556179     -2.53987319
H       1.16733112     -1.91625623     -2.10997177
H      -0.27333820     -1.72791743     -3.93636298
11
Frame 30  Energy = -268.5512379928 Hartree
C       0.68743090     -0.74431999     -0.31968012
C       0.52614945     -1.08202484     -1.85183182
C      -0.87732055     -1.61688648     -2.11206060
O      -1.72701030     -1.93376630     -1.32887880
O      -1.04384732     -1.99645517     -3.42364417
H       1.53906900     -0.10109050     -0.17285759
H      -0.21452200     -0.22530288     -0.02364046
H       0.72347275     -1.71195067      0.21443194
H       0.71093292     -0.29909206     -2.54690411
H       1.16362642     -1.91560863     -2.10388224
H      -0.27193924     -1.73034944     -3.94105449
11
Frame 35  Energy = -268.5510915173 Hartree
C       0.68602768     -0.74737122     -0.32127846
C       0.52698910     -1.08220661     -1.85180357
C      -0.88004129     -1.61530910     -2.11323511
O      -1.72713042     -1.93510575     -1.32591585
O      -1.03970949     -1.99759851     -3.42195544
H       1.54275693     -0.10631749     -0.18380043
H      -0.22183347     -0.24288266     -0.01706548
H       0.71078720     -1.71831012      0.22199174
H       0.71367420     -0.31046181     -2.55458625
H       1.16089514     -1.91543366     -2.09806483
H      -0.27164850     -1.73274438     -3.94525900
11
Frame 40  Energy = -268.5509932773 Hartree
C       0.68454708     -0.75059013     -0.32308794
C       0.52761467     -1.08242449     -1.85133433
C      -0.88271450     -1.61408937     -2.11455095
O      -1.72712151     -1.93627997     -1.32287878
O      -1.03558142     -1.99869834     -3.42034019
H       1.54697933     -0.11168633     -0.19405645
H      -0.22929766     -0.26023965     -0.01003963
H       0.69877272     -1.72259651      0.22903166
H       0.71750407     -0.31948510     -2.56340648
H       1.15910946     -1.91598323     -2.09280033
H      -0.27187086     -1.73506939     -3.94900791
11
Frame 45  Energy = -268.5509603033 Hartree
C       0.68300920     -0.75398524     -0.32517931
C       0.52781366     -1.08278625     -1.85051887
C      -0.88538948     -1.61322038     -2.11593019
O      -1.72697482     -1.93729608     -1.31980610
O      -1.03152987     -1.99973506     -3.41885934
H       1.55197107     -0.11731396     -0.20349373
H      -0.23643812     -0.27687049     -0.00267279
H       0.68780201     -1.72433214      0.23522739
H       0.72235063     -0.32642547     -2.57321984
H       1.15868863     -1.91748144     -2.08829903
H      -0.27250433     -1.73706566     -3.95214922
11
Frame 50  Energy = -268.5510638231 Hartree
C       0.68143248     -0.75751430     -0.32750679
C       0.52763626     -1.08322097     -1.84940707
C      -0.88805857     -1.61273914     -2.11734747
O      -1.72671744     -1.93816685     -1.31682376
O      -1.02760220     -2.00072929     -3.41737746
H       1.55739650     -0.12313939     -0.21194083
H      -0.24298450     -0.29254949      0.00532885
H       0.67789939     -1.72357783      0.24039924
H       0.72802878     -0.33120995     -2.58347759
H       1.15964891     -1.91996539     -2.08441799
H      -0.27340574     -1.73881107     -3.95461769
11
Frame 55  Energy = -268.5510350475 Hartree
C       0.67978923     -0.76124038     -0.32993826
C       0.52717652     -1.08371467     -1.84798089
C      -0.89065531     -1.61253934     -2.11875409
O      -1.72637839     -1.93889116     -1.31395261
O      -1.02375121     -2.00167418     -3.41599091
H       1.56238848     -0.12953760     -0.21911617
H      -0.24890924     -0.30692154      0.01355191
H       0.66908737     -1.72039239      0.24431969
H       0.73455627     -0.33372603     -2.59376710
H       1.16172610     -1.92364128     -2.08085651
H      -0.27441237     -1.74044856     -3.95628194
11
Frame 60  Energy = -268.5511096306 Hartree
C       0.67806996     -0.76502814     -0.33247689
C       0.52643900     -1.08423706     -1.84621267
C      -0.89321807     -1.61262694     -2.12004898
O      -1.72597760     -1.93940177     -1.31118534
O      -1.01993833     -2.00259988     -3.41465735
H       1.56671855     -0.13659526     -0.22503824
H      -0.25387294     -0.31990685      0.02182531
H       0.66195431     -1.71517888      0.24678302
H       0.74189992     -0.33488032     -2.60327612
H       1.16446738     -1.92818915     -2.07810858
H      -0.27473812     -1.74217434     -3.95702937
11
Frame 65  Energy = -268.5512880253 Hartree
C       0.67628963     -0.76889503     -0.33524393
C       0.52551885     -1.08482090     -1.84420916
C      -0.89560227     -1.61313621     -2.12134853
O      -1.72543806     -1.93976914     -1.30851153
O      -1.01630836     -2.00350709     -3.41336536
H       1.57024799     -0.14422558     -0.22947214
H      -0.25792985     -0.33119999      0.02985676
H       0.65711726     -1.70847397      0.24836420
H       0.74973041     -0.33494738     -2.61157237
H       1.16746638     -1.93290424     -2.07596222
H      -0.27459287     -1.74393545     -3.95728992
11
Frame 70  Energy = -268.5514111557 Hartree
C       0.67439068     -0.77279299     -0.33810398
C       0.52440476     -1.08559845     -1.84204375
C      -0.89779897     -1.61399906     -2.12265090
O      -1.72477838     -1.93998866     -1.30595087
O      -1.01284373     -2.00438633     -3.41211540
H       1.57288341     -0.15238011     -0.23214949
H      -0.26070968     -0.34078239      0.03736984
H       0.65439366     -1.70046290      0.24906974
H       0.75742636     -0.33439209     -2.61818705
H       1.17042715     -1.93785611     -2.07395695
H      -0.27396010     -1.74540269     -3.95734960
11
Frame 75  Energy = -268.5515988172 Hartree
C       0.67243225     -0.77665581     -0.34095069
C       0.52305542     -1.08642192     -1.83978622
C      -0.89982888     -1.61513060     -2.12381434
O      -1.72388563     -1.94003658     -1.30358807
O      -1.00969186     -2.00524612     -3.41092081
H       1.57434657     -0.16134084     -0.23338215
H      -0.26204519     -0.34893651      0.04426422
H       0.65383292     -1.69189108      0.24878084
H       0.76503114     -0.33359317     -2.62284409
H       1.17333455     -1.94241000     -2.07235599
H      -0.27287125     -1.74640275     -3.95704078
11
Frame 80  Energy = -268.5518518356 Hartree
C       0.67045476     -0.78039560     -0.34382747
C       0.52149320     -1.08737144     -1.83744514
C      -0.90165650     -1.61653794     -2.12482101
O      -1.72281773     -1.93987771     -1.30148899
O      -1.00680622     -2.00610299     -3.40983765
H       1.57449327     -0.17114583     -0.23342689
H      -0.26212757     -0.35520546      0.05021488
H       0.65537845     -1.68367631      0.24790377
H       0.77234718     -0.33290895     -2.62532268
H       1.17615548     -1.94612004     -2.07076661
H      -0.27109166     -1.74682231     -3.95631850
11
Frame 85  Energy = -268.5518250483 Hartree
C       0.66840961     -0.78389067     -0.34675422
C       0.51975621     -1.08840513     -1.83509197
C      -0.90324756     -1.61814233     -2.12569857
O      -1.72172692     -1.93959249     -1.29951162
O      -1.00415482     -2.00698261     -3.40887249
H       1.57347168     -0.18151796     -0.23222650
H      -0.26105432     -0.35957286      0.05503803
H       0.65885400     -1.67633109      0.24687194
H       0.77910253     -0.33213116     -2.62529967
H       1.17862577     -1.94903191     -2.06894001
H      -0.26844396     -1.74642806     -3.95519183
11
Frame 90  Energy = -268.5519103074 Hartree
C       0.66621392     -0.78719666     -0.34979938
C       0.51789818     -1.08957013     -1.83283657
C      -0.90448316     -1.62004181     -2.12632259
O      -1.72057544     -1.93915322     -1.29762672
O      -1.00172382     -2.00800383     -3.40802006
H       1.57127102     -0.19197776     -0.22938045
H      -0.25832624     -0.36179358      0.05878905
H       0.66426248     -1.67088744      0.24571032
H       0.78563782     -0.33155342     -2.62267541
H       1.18030955     -1.95136264     -2.06707769
H      -0.26488127     -1.74540251     -3.95386290
11
Frame 95  Energy = -268.5521933954 Hartree
C       0.66400396     -0.79031937     -0.35283551
C       0.51596935     -1.09087268     -1.83067524
C      -0.90527687     -1.62225695     -2.12676837
O      -1.71936741     -1.93854083     -1.29584099
O      -0.99957231     -2.00908485     -3.40732689
H       1.56854532     -0.20201799     -0.22529197
H      -0.25442461     -0.36201614      0.06128931
H       0.67155129     -1.66754010      0.24502642
H       0.79169602     -0.33208595     -2.61744423
H       1.18130085     -1.95256725     -2.06527208
H      -0.26063862     -1.74406147     -3.95214989
11
Frame 100  Energy = -268.5522298442 Hartree
C       0.66166569     -0.79321169     -0.35593135
C       0.51405661     -1.09218778     -1.82868633
C      -0.90578075     -1.62474919     -2.12706325
O      -1.71808701     -1.93776447     -1.29424161
O      -0.99759444     -2.01021431     -3.40668960
H       1.56483518     -0.21165644     -0.21979593
H      -0.24985605     -0.36027232      0.06254214
H       0.68013350     -1.66649207      0.24469341
H       0.79705008     -0.33345413     -2.60935110
H       1.18140981     -1.95217026     -2.06338867
H      -0.25563797     -1.74220338     -3.94992123
11
Frame 105  Energy = -268.5522503001 Hartree
C       0.65926397     -0.79601761     -0.35908118
C       0.51211745     -1.09366297     -1.82692202
C      -0.90595791     -1.62743219     -2.12715963
O      -1.71673764     -1.93684952     -1.29276132
O      -0.99580632     -2.01134184     -3.40619834
H       1.56068408     -0.22078132     -0.21301791
H      -0.24460966     -0.35664062      0.06289068
H       0.69038590     -1.66783087      0.24503119
H       0.80175012     -0.33511365     -2.59871029
H       1.18085156     -1.95050590     -2.06153282
H      -0.25033194     -1.74001592     -3.94682214
11
Frame 110  Energy = -268.5523829818 Hartree
C       0.65686318     -0.79872000     -0.36218627
C       0.51014671     -1.09520832     -1.82529951
C      -0.90582429     -1.63026630     -2.12709790
O      -1.71531995     -1.93584019     -1.29137801
O      -0.99420444     -2.01246669     -3.40579468
H       1.55652837     -0.22941090     -0.20539585
H      -0.23896631     -0.35122283      0.06239588
H       0.70182667     -1.67189759      0.24587430
H       0.80525139     -0.33697326     -2.58578674
H       1.17960791     -1.94755931     -2.05979645
H      -0.24519959     -1.73735861     -3.94284177
11
Frame 115  Energy = -268.5521978009 Hartree
C       0.65450114     -0.80135167     -0.36520112
C       0.50799000     -1.09681466     -1.82374258
C      -0.90528835     -1.63332095     -2.12683245
O      -1.71381769     -1.93475389     -1.29011103
O      -0.99278907     -2.01362398     -3.40546288
H       1.55238959     -0.23682710     -0.19690046
H      -0.23293592     -0.34361482      0.06110661
H       0.71418600     -1.67869836      0.24702411
H       0.80781719     -0.33905737     -2.57059060
H       1.17792985     -1.94380712     -2.05833437
H      -0.24015015     -1.73443599     -3.93807690
11
Frame 120  Energy = -268.5522468027 Hartree
C       0.65203473     -0.80383788     -0.36810890
C       0.50573496     -1.09856765     -1.82221558
C      -0.90457331     -1.63645984     -2.12637953
O      -1.71232124     -1.93362687     -1.28890961
O      -0.99150821     -2.01486258     -3.40529389
H       1.54863744     -0.24273154     -0.18802233
H      -0.22637964     -0.33427270      0.05935235
H       0.72726328     -1.68729274      0.24816652
H       0.80967178     -0.34131594     -2.55371371
H       1.17582866     -1.93925218     -2.05709691
H      -0.23562518     -1.73097779     -3.93261234
11
Frame 125  Energy = -268.5521143370 Hartree
C       0.64935386     -0.80622029     -0.37074832
C       0.50350455     -1.10047853     -1.82085151
C      -0.90357082     -1.63969799     -2.12579849
O      -1.71072507     -1.93247775     -1.28778756
O      -0.99045498     -2.01617208     -3.40526216
H       1.54542696     -0.24739123     -0.17881260
H      -0.21971307     -0.32343262      0.05714754
H       0.74086625     -1.69738342      0.24876139
H       0.81067617     -0.34276644     -2.53534861
H       1.17336812     -1.93418954     -2.05607645
H      -0.23200346     -1.72779321     -3.92606662
11
Frame 130  Energy = -268.5516505371 Hartree
C       0.64667490     -0.80857701     -0.37314810
C       0.50123005     -1.10259486     -1.81943282
C      -0.90224223     -1.64313428     -2.12500502
O      -1.70907716     -1.93118871     -1.28683556
O      -0.98957768     -2.01750128     -3.40538003
H       1.54291272     -0.25101107     -0.16880967
H      -0.21298071     -0.31128555      0.05471739
H       0.75438572     -1.70839044      0.24851986
H       0.81108207     -0.34256916     -2.51647547
H       1.17099743     -1.92914118     -2.05560291
H      -0.22869277     -1.72471088     -3.91847075
11
Frame 135  Energy = -268.5516039267 Hartree
C       0.64407322     -0.81097924     -0.37526597
C       0.49893970     -1.10493234     -1.81801385
C      -0.90052789     -1.64679886     -2.12408385
O      -1.70731681     -1.92986067     -1.28603333
O      -0.98882051     -2.01885741     -3.40565037
H       1.54090525     -0.25366356     -0.15861751
H      -0.20623804     -0.29823944      0.05218466
H       0.76753490     -1.71943280      0.24692484
H       0.81062978     -0.34054532     -2.49757002
H       1.16861460     -1.92470184     -2.05577532
H      -0.22586002     -1.72128218     -3.91007856
11
Frame 140  Energy = -268.5518152438 Hartree
C       0.64161401     -0.81337932     -0.37694903
C       0.49662711     -1.10735813     -1.81656041
C      -0.89846376     -1.65060473     -2.12303759
O      -1.70548535     -1.92838652     -1.28537839
O      -0.98820113     -2.02017587     -3.40605204
H       1.53929680     -0.25517660     -0.14846296
H      -0.19962731     -0.28452566      0.04965722
H       0.77975329     -1.72981106      0.24393352
H       0.80964208     -0.33656663     -2.47942633
H       1.16665933     -1.92108756     -2.05663744
H      -0.22347576     -1.71758361     -3.90144533
11
Frame 145  Energy = -268.5520266513 Hartree
C       0.63930631     -0.81586959     -0.37812336
C       0.49418589     -1.10995693     -1.81498105
C      -0.89600667     -1.65449370     -2.12197026
O      -1.70367904     -1.92684785     -1.28485127
O      -0.98776406     -2.02147811     -3.40665069
H       1.53811899     -0.25543217     -0.13923881
H      -0.19337314     -0.27083485      0.04636715
H       0.79104843     -1.73908058      0.23899104
H       0.80861972     -0.33014930     -2.46294267
H       1.16520491     -1.91872343     -2.05804401
H      -0.22140246     -1.71381839     -3.89238926
11
Frame 150  Energy = -268.5520160156 Hartree
C       0.63722922     -0.81847151     -0.37879274
C       0.49161483     -1.11276788     -1.81332119
C      -0.89329814     -1.65845672     -2.12079440
O      -1.70200630     -1.92531243     -1.28429743
O      -0.98746130     -2.02275287     -3.40736387
H       1.53736182     -0.25465835     -0.13081957
H      -0.18742501     -0.25748778      0.04260676
H       0.80127614     -1.74693697      0.23235042
H       0.80721312     -0.32125509     -2.44819594
H       1.16432621     -1.91724641     -2.05983409
H      -0.21954629     -1.70981255     -3.88293037
11
Frame 155  Energy = -268.5520285940 Hartree
C       0.63540031     -0.82108274     -0.37900408
C       0.48907466     -1.11574395     -1.81166628
C      -0.89030378     -1.66252446     -2.11960732
O      -1.70034324     -1.92375227     -1.28384336
O      -0.98727310     -2.02406557     -3.40814861
H       1.53671510     -0.25328550     -0.12341963
H      -0.18233272     -0.24447509      0.03860152
H       0.81014806     -1.75314902      0.22397868
H       0.80577945     -0.31013075     -2.43505952
H       1.16397160     -1.91692972     -2.06215709
H      -0.21715485     -1.70592687     -3.87380660
11
Frame 160  Energy = -268.5520339461 Hartree
C       0.63375872     -0.82367933     -0.37876591
C       0.48657958     -1.11876645     -1.81000334
C      -0.88701114     -1.66664496     -2.11832039
O      -1.69875046     -1.92218075     -1.28356488
O      -0.98717159     -2.02542479     -3.40897479
H       1.53542274     -0.25204436     -0.11724572
H      -0.17796258     -0.23181506      0.03461137
H       0.81711729     -1.75787326      0.21403612
H       0.80397280     -0.29706070     -2.42364976
H       1.16429106     -1.91793480     -2.06505513
H      -0.21424429     -1.70170347     -3.86529880
11
Frame 165  Energy = -268.5521318098 Hartree
C       0.63242972     -0.82623806     -0.37792302
C       0.48405386     -1.12190383     -1.80843096
C      -0.88347939     -1.67088191     -2.11695140
O      -1.69728497     -1.92058942     -1.28344807
O      -0.98718792     -2.02679463     -3.40984490
H       1.53404219     -0.25100267     -0.11204295
H      -0.17427667     -0.22046678      0.03050592
H       0.82203934     -1.76082873      0.20322567
H       0.80159663     -0.28244105     -2.41395695
H       1.16546414     -1.91996170     -2.06846322
H      -0.21097132     -1.69742939     -3.85745123
11
Frame 170  Energy = -268.5519674647 Hartree
C       0.63138633     -0.82882803     -0.37660348
C       0.48163334     -1.12508738     -1.80688097
C      -0.87972134     -1.67512416     -2.11556927
O      -1.69594235     -1.91906911     -1.28340509
O      -0.98734857     -2.02818230     -3.41075228
H       1.53238096     -0.25006978     -0.10827514
H      -0.17085530     -0.21034366      0.02588988
H       0.82468604     -1.76224506      0.19200110
H       0.79814636     -0.26719201     -2.40538773
H       1.16693011     -1.92264953     -2.07263162
H      -0.20765116     -1.69344637     -3.85023083
11
Frame 175  Energy = -268.5517562990 Hartree
C       0.63066709     -0.83149601     -0.37479019
C       0.47939083     -1.12821492     -1.80532595
C      -0.87577732     -1.67945423     -2.11420997
O      -1.69471938     -1.91760885     -1.28347183
O      -0.98758486     -2.02954770     -3.41175402
H       1.53049075     -0.24941317     -0.10596256
H      -0.16792346     -0.20135307      0.02150080
H       0.82526946     -1.76283916      0.18040940
H       0.79301578     -0.25207831     -2.39712789
H       1.16892088     -1.92610549     -2.07727718
H      -0.20428271     -1.68932914     -3.84364223
11
Frame 180  Energy = -268.5515948169 Hartree
C       0.63023810     -0.83414381     -0.37251689
C       0.47727732     -1.13113965     -1.80383783
C      -0.87168865     -1.68387907     -2.11287605
O      -1.69360580     -1.91622741     -1.28362332
O      -0.98801435     -2.03087844     -3.41276447
H       1.52836555     -0.24905200     -0.10493991
H      -0.16561332     -0.19430468      0.01725412
H       0.82384237     -1.76267911      0.16924718
H       0.78583842     -0.23763466     -2.38891164
H       1.17115734     -1.92998319     -2.08264071
H      -0.20093768     -1.68517248     -3.83759766
11
Frame 185  Energy = -268.5515912666 Hartree
C       0.62995762     -0.83671613     -0.36986054
C       0.47541078     -1.13386061     -1.80246069
C      -0.86757979     -1.68828257     -2.11157073
O      -1.69256719     -1.91485431     -1.28387750
O      -0.98858278     -2.03229521     -3.41370516
H       1.52620284     -0.24912318     -0.10557680
H      -0.16356838     -0.18925551      0.01294926
H       0.82049502     -1.76222600      0.15875301
H       0.77727240     -0.22437371     -2.38071257
H       1.17329444     -1.93367613     -2.08851726
H      -0.19773241     -1.68127793     -3.83258969
11
Frame 190  Energy = -268.5511823392 Hartree
C       0.62981843     -0.83902662     -0.36682234
C       0.47385167     -1.13634939     -1.80116347
C      -0.86339326     -1.69274275     -2.11030818
O      -1.69156185     -1.91350131     -1.28422044
O      -0.98931296     -2.03378214     -3.41467553
H       1.52427901     -0.24976571     -0.10763255
H      -0.16206506     -0.18618683      0.00908080
H       0.81503463     -1.76217246      0.14956412
H       0.76698224     -0.21291903     -2.37235459
H       1.17529803     -1.93690526     -2.09496839
H      -0.19504055     -1.67823127     -3.82838784
11
Frame 195  Energy = -268.5512776009 Hartree
C       0.62994126     -0.84112457     -0.36342373
C       0.47260843     -1.13872227     -1.79994727
C      -0.85916822     -1.69731045     -2.10905095
O      -1.69063510     -1.91216334     -1.28460303
O      -0.99007272     -2.03523774     -3.41564503
H       1.52259614     -0.25121345     -0.11129481
H      -0.16127962     -0.18480773      0.00579741
H       0.80767023     -1.76284069      0.14245207
H       0.75513929     -0.20371080     -2.36402017
H       1.17737080     -1.93911185     -2.10171262
H      -0.19297388     -1.67586712     -3.82508123
11
Frame 200  Energy = -268.5511946751 Hartree
C       0.63029678     -0.84295336     -0.35984345
C       0.47176516     -1.14087054     -1.79884817
C      -0.85496328     -1.70186608     -2.10793039
O      -1.68967574     -1.91088149     -1.28497781
O      -0.99083752     -2.03666495     -3.41655740
H       1.52101199     -0.25347547     -0.11651397
H      -0.16112148     -0.18517643      0.00294622
H       0.79846132     -1.76459392      0.13797731
H       0.74191401     -0.19679896     -2.35544444
H       1.17926497     -1.93971458     -2.10842376
H      -0.19156102     -1.67447944     -3.82324953
11
Frame 205  Energy = -268.5512352170 Hartree
C       0.63086454     -0.84448117     -0.35606832
C       0.47133419     -1.14277854     -1.79783057
C      -0.85082187     -1.70644108     -2.10690463
O      -1.68882567     -1.90962755     -1.28535466
O      -0.99157991     -2.03810545     -3.41751006
H       1.51970168     -0.25629313     -0.12325560
H      -0.16169514     -0.18752498      0.00120514
H       0.78754922     -1.76774358      0.13621478
H       0.72720357     -0.19264836     -2.34684597
H       1.18093344     -1.93897198     -2.11495777
H      -0.19088777     -1.67455505     -3.82228621
11
Frame 210  Energy = -268.5511884945 Hartree
C       0.63173322     -0.84572554     -0.35217633
C       0.47128577     -1.14452209     -1.79695021
C      -0.84687865     -1.71109844     -2.10582508
O      -1.68809429     -1.90840180     -1.28569117
O      -0.99225575     -2.03955122     -3.41852075
H       1.51891823     -0.25925700     -0.13075016
H      -0.16294871     -0.19180621     -0.00027394
H       0.77553709     -1.77231127      0.13680516
H       0.71097511     -0.19126117     -2.33873624
H       1.18230816     -1.93670736     -2.12153376
H      -0.19123193     -1.67596278     -3.82196513
11
Frame 215  Energy = -268.5512653125 Hartree
C       0.63279418     -0.84679182     -0.34829154
C       0.47161963     -1.14607389     -1.79621909
C      -0.84314542     -1.71589956     -2.10473025
O      -1.68740077     -1.90718716     -1.28612690
O      -0.99290506     -2.04094933     -3.41953929
H       1.51884626     -0.26240126     -0.13908042
H      -0.16490239     -0.19795593     -0.00065780
H       0.76285868     -1.77845553      0.13993506
H       0.69369423     -0.19238117     -2.33142108
H       1.18349758     -1.93255923     -2.12760972
H      -0.19295089     -1.67865349     -3.82256426
11
Frame 220  Energy = -268.5511268380 Hartree
C       0.63393755     -0.84767930     -0.34431012
C       0.47236788     -1.14744266     -1.79557239
C      -0.83961359     -1.72062161     -2.10370926
O      -1.68677011     -1.90594227     -1.28672385
O      -0.99351260     -2.04225179     -3.42056706
H       1.52008147     -0.26558700     -0.14808859
H      -0.16741756     -0.20568039     -0.00006614
H       0.74898678     -1.78631067      0.14551647
H       0.67523033     -0.19559463     -2.32438645
H       1.18465204     -1.92640472     -2.13332949
H      -0.19554572     -1.68215505     -3.82423775
11
Frame 225  Energy = -268.5510603476 Hartree
C       0.63520048     -0.84848114     -0.34027092
C       0.47356048     -1.14865003     -1.79503830
C      -0.83631011     -1.72525486     -2.10269773
O      -1.68621814     -1.90467910     -1.28745218
O      -0.99410703     -2.04350833     -3.42153561
H       1.52257819     -0.26863405     -0.15742757
H      -0.17063542     -0.21447327      0.00110388
H       0.73388871     -1.79507610      0.15364401
H       0.65605508     -0.20076679     -2.31824888
H       1.18561109     -1.91865639     -2.13913642
H      -0.19840828     -1.68653816     -3.82718104
11
Frame 230  Energy = -268.5507739082 Hartree
C       0.63658416     -0.84920266     -0.33620705
C       0.47504246     -1.14974815     -1.79457252
C      -0.83332931     -1.72992894     -2.10176950
O      -1.68566148     -1.90343269     -1.28817018
O      -0.99462195     -2.04478485     -3.42242849
H       1.52663005     -0.27161563     -0.16665218
H      -0.17501574     -0.22450131      0.00328876
H       0.71786308     -1.80443769      0.16395046
H       0.63630632     -0.20719716     -2.31332836
H       1.18711431     -1.90942752     -2.14476636
H      -0.20166278     -1.69141810     -3.83152013
11
Frame 235  Energy = -268.5509266410 Hartree
C       0.63805654     -0.84994914     -0.33212401
C       0.47678599     -1.15070505     -1.79411109
C      -0.83071503     -1.73453625     -2.10097036
O      -1.68514026     -1.90220301     -1.28892993
O      -0.99516906     -2.04609839     -3.42327761
H       1.53260572     -0.27456324     -0.17555510
H      -0.17997647     -0.23535540      0.00644302
H       0.70154252     -1.81368090      0.17578823
H       0.61616704     -0.21393986     -2.30958441
H       1.18926795     -1.89911781     -2.15024446
H      -0.20562585     -1.69678964     -3.83729812
11
Frame 240  Energy = -268.5508962354 Hartree
C       0.63963559     -0.85080745     -0.32808674
C       0.47874247     -1.15156341     -1.79372963
C      -0.82831303     -1.73910480     -2.10026978
O      -1.68474656     -1.90107617     -1.28971681
O      -0.99568543     -2.04745033     -3.42410089
H       1.53999042     -0.27726816     -0.18383929
H      -0.18536154     -0.24661551      0.01080774
H       0.68487924     -1.82203086      0.18842921
H       0.59592860     -0.22021790     -2.30721852
H       1.19242693     -1.88785179     -2.15556913
H      -0.20985725     -1.70261020     -3.84444493
11
Frame 245  Energy = -268.5509549786 Hartree
C       0.64119193     -0.85183584     -0.32405612
C       0.48085017     -1.15241719     -1.79324407
C      -0.82620658     -1.74363062     -2.09963844
O      -1.68445555     -1.89998905     -1.29048949
O      -0.99617489     -2.04887480     -3.42485197
H       1.54824733     -0.28009316     -0.19122612
H      -0.19142793     -0.25782860      0.01618482
H       0.66820030     -1.82892407      0.20195483
H       0.57596061     -0.22529888     -2.30679935
H       1.19684810     -1.87579774     -2.16053407
H      -0.21421734     -1.70865988     -3.85291479
11
Frame 250  Energy = -268.5508368695 Hartree
C       0.64271413     -0.85310031     -0.31995721
C       0.48302219     -1.15324966     -1.79266532
C      -0.82438114     -1.74818567     -2.09898160
O      -1.68430052     -1.89895957     -1.29120214
O      -0.99672162     -2.05034254     -3.42554625
H       1.55695201     -0.28328063     -0.19760704
H      -0.19810031     -0.26887045      0.02237791
H       0.65172805     -1.83353561      0.21580861
H       0.55631909     -0.22893345     -2.30895491
H       1.20261467     -1.86345582     -2.16524720
H      -0.21808872     -1.71530650     -3.86266577
11
Frame 255  Energy = -268.5507643254 Hartree
C       0.64424145     -0.85451402     -0.31574648
C       0.48518232     -1.15416626     -1.79203412
C      -0.82263324     -1.75277763     -2.09848415
O      -1.68421862     -1.89802819     -1.29198577
O      -0.99732757     -2.05185288     -3.42616926
H       1.56607894     -0.28705482     -0.20314319
H      -0.20508939     -0.27959348      0.02899617
H       0.63552882     -1.83579105      0.22971428
H       0.53709279     -0.23069506     -2.31320226
H       1.21005187     -1.85107788     -2.17001540
H      -0.22144301     -1.72216249     -3.87378053
11
Frame 260  Energy = -268.5510776423 Hartree
C       0.64578925     -0.85596027     -0.31143778
C       0.48740584     -1.15512064     -1.79123617
C      -0.82112444     -1.75735285     -2.09825361
O      -1.68425752     -1.89712089     -1.29283136
O      -0.99790554     -2.05334161     -3.42669471
H       1.57543039     -0.29137890     -0.20708985
H      -0.21224724     -0.28946577      0.03601085
H       0.62046386     -1.83520862      0.24307482
H       0.51868345     -0.23056658     -2.31926954
H       1.21923163     -1.83918303     -2.17495328
H      -0.22443948     -1.72943752     -3.88559140
11
Frame 265  Energy = -268.5508184828 Hartree
C       0.64747562     -0.85755345     -0.30694004
C       0.48965012     -1.15610668     -1.79022539
C      -0.81974659     -1.76175286     -2.09824076
O      -1.68429898     -1.89622180     -1.29371057
O      -0.99857298     -2.05487936     -3.42707324
H       1.58403192     -0.29658535     -0.20936471
H      -0.21931711     -0.29855834      0.04314478
H       0.60659756     -1.83188900      0.25570468
H       0.50063364     -0.22860299     -2.32689840
H       1.23027846     -1.82732380     -2.18027499
H      -0.22701575     -1.73682193     -3.89816810
11
Frame 270  Energy = -268.5508753743 Hartree
C       0.64914385     -0.85925133     -0.30245381
C       0.49194515     -1.15705941     -1.78892324
C      -0.81861158     -1.76621039     -2.09828886
O      -1.68439661     -1.89536293     -1.29469069
O      -0.99928845     -2.05650834     -3.42740048
H       1.59151327     -0.30247800     -0.21034599
H      -0.22592036     -0.30716041      0.05011023
H       0.59410334     -1.82590398      0.26729963
H       0.48325451     -0.22521281     -2.33605906
H       1.24289559     -1.81556692     -2.18581060
H      -0.22941338     -1.74484243     -3.91128834
11
Frame 275  Energy = -268.5508565103 Hartree
C       0.65084433     -0.86110084     -0.29793798
C       0.49422508     -1.15796669     -1.78747361
C      -0.81767018     -1.77054035     -2.09846925
O      -1.68457493     -1.89455194     -1.29563559
O      -0.99994166     -2.05813964     -3.42759261
H       1.59807491     -0.30914331     -0.20989043
H      -0.23172938     -0.31493150      0.05683220
H       0.58306150     -1.81736194      0.27788312
H       0.46669016     -0.22112230     -2.34614756
H       1.25703114     -1.80389620     -2.19187661
H      -0.23185865     -1.75295633     -3.92482571
11
Frame 280  Energy = -268.5507215229 Hartree
C       0.65242960     -0.86312419     -0.29343935
C       0.49659886     -1.15879007     -1.78594378
C      -0.81683403     -1.77477085     -2.09872169
O      -1.68486272     -1.89385601     -1.29651719
O      -1.00056249     -2.05974805     -3.42771518
H       1.60348425     -0.31657131     -0.20768973
H      -0.23601509     -0.32187567      0.06336008
H       0.57332944     -1.80718736      0.28756948
H       0.45084744     -0.21709641     -2.35618097
H       1.27246763     -1.79243880     -2.19863480
H      -0.23451033     -1.76164124     -3.93792620
11
Frame 285  Energy = -268.5508162414 Hartree
C       0.65390936     -0.86526782     -0.28894034
C       0.49899022     -1.15948253     -1.78441316
C      -0.81610486     -1.77887529     -2.09898155
O      -1.68523926     -1.89324620     -1.29742078
O      -1.00117399     -2.06143296     -3.42783271
H       1.60766711     -0.32428334     -0.20401483
H      -0.23884650     -0.32799144      0.06927017
H       0.56513187     -1.79572020      0.29642354
H       0.43606692     -0.21374447     -2.36600825
H       1.28887153     -1.78093426     -2.20592879
H      -0.23745695     -1.77082910     -3.95027054
11
Frame 290  Energy = -268.5505842090 Hartree
C       0.65530526     -0.86741167     -0.28441867
C       0.50142866     -1.16004092     -1.78292686
C      -0.81547152     -1.78287886     -2.09934920
O      -1.68570053     -1.89269868     -1.29838842
O      -1.00180630     -2.06315104     -3.42786571
H       1.61051983     -0.33260213     -0.19866964
H      -0.24025699     -0.33301540      0.07492008
H       0.55887993     -1.78381700      0.30407456
H       0.42255395     -0.21134148     -2.37483335
H       1.30576466     -1.76898525     -2.21308373
H      -0.24129068     -1.78082314     -3.96146177
11
Frame 295  Energy = -268.5506314216 Hartree
C       0.65660315     -0.86949304     -0.28003741
C       0.50390845     -1.16047603     -1.78163627
C      -0.81474091     -1.78677121     -2.09987338
O      -1.68622705     -1.89221022     -1.29938374
O      -1.00246975     -2.06496315     -3.42783878
H       1.61196863     -0.34134996     -0.19178638
H      -0.24044217     -0.33690248      0.07953397
H       0.55427319     -1.77201667      0.31129660
H       0.41011652     -0.21014458     -2.38189170
H       1.32294198     -1.75589813     -2.21962985
H      -0.24617173     -1.79136972     -3.97157627
11
Frame 300  Energy = -268.5507709003 Hartree
C       0.65782746     -0.87148618     -0.27590096
C       0.50642293     -1.16075115     -1.78048797
C      -0.81395330     -1.79043556     -2.10058806
O      -1.68687318     -1.89182288     -1.30036513
O      -1.00316419     -2.06690493     -3.42778914
H       1.61254188     -0.35020456     -0.18341430
H      -0.23876614     -0.33964344      0.08368292
H       0.55160332     -1.76116426      0.31834862
H       0.39898995     -0.21030038     -2.38739455
H       1.33947286     -1.74197529     -2.22562011
H      -0.25219552     -1.80241571     -3.98023014
