11
Frame 5  Energy = -268.5714210768 Hartree
C       0.76593900     -0.58204498     -0.51916646
C       0.39461770     -0.80521223     -1.97427937
C      -0.90830098     -1.55167856     -2.11010851
O      -1.61207743     -1.95623114     -1.19353705
O      -1.20482198     -1.73613319     -3.42269566
H       1.70895611     -0.04121474     -0.45277880
H       0.00105473      0.01363511     -0.00373286
H       0.88336338     -1.53454340     -0.01712512
H       0.30719764      0.15768503     -2.46942177
H       1.17437866     -1.39005431     -2.46888441
H      -0.52500922     -1.35447248     -4.01377887
11
Frame 10  Energy = -268.5711854228 Hartree
C       0.76296826     -0.58301596     -0.51834387
C       0.39715738     -0.80439472     -1.97439257
C      -0.90869243     -1.54732359     -2.10913515
O      -1.61306387     -1.95732177     -1.19335054
O      -1.20390225     -1.73738521     -3.42239908
H       1.70282668     -0.04725957     -0.45383975
H       0.00313805      0.02675191     -0.00790325
H       0.88332452     -1.53618810     -0.04279538
H       0.32487241      0.15449356     -2.46349830
H       1.16892333     -1.39511132     -2.47069928
H      -0.52660584     -1.36425556     -4.01606524
11
Frame 15  Energy = -268.5708287723 Hartree
C       0.75993529     -0.58385597     -0.51749860
C       0.39965773     -0.80363382     -1.97425026
C      -0.90915933     -1.54297090     -2.10809688
O      -1.61392487     -1.95832725     -1.19347597
O      -1.20318518     -1.73870629     -3.42200952
H       1.69694265     -0.05321943     -0.45503608
H       0.00565979      0.03879046     -0.01268787
H       0.88297753     -1.53866058     -0.06767156
H       0.34255598      0.15199748     -2.45842377
H       1.16334114     -1.39977130     -2.47250985
H      -0.52860934     -1.37412311     -4.01701160
11
Frame 20  Energy = -268.5709931508 Hartree
C       0.75684260     -0.58450284     -0.51668139
C       0.40217343     -0.80304490     -1.97391286
C      -0.90961195     -1.53865075     -2.10692025
O      -1.61468702     -1.95922846     -1.19390606
O      -1.20262352     -1.74012095     -3.42153777
H       1.69178571     -0.05913596     -0.45591450
H       0.00878664      0.04951796     -0.01765310
H       0.88256897     -1.54221652     -0.09050611
H       0.35981033      0.15017183     -2.45429432
H       1.15783391     -1.40474175     -2.47455349
H      -0.53045142     -1.38365491     -4.01664252
11
Frame 25  Energy = -268.5710809497 Hartree
C       0.75372524     -0.58501345     -0.51592790
C       0.40473954     -0.80251691     -1.97335225
C      -0.91011620     -1.53436273     -2.10564205
O      -1.61530773     -1.95997153     -1.19467231
O      -1.20227719     -1.74164616     -3.42102035
H       1.68793454     -0.06496528     -0.45664328
H       0.01218909      0.05859568     -0.02268147
H       0.88176521     -1.54736850     -0.11086241
H       0.37623365      0.14966071     -2.45204454
H       1.15258870     -1.40959059     -2.47658296
H      -0.53146965     -1.39269637     -4.01517584
11
Frame 30  Energy = -268.5711432315 Hartree
C       0.75058675     -0.58533894     -0.51533651
C       0.40728652     -0.80203702     -1.97266916
C      -0.91062175     -1.53014425     -2.10432372
O      -1.61575680     -1.96058030     -1.19580514
O      -1.20213826     -1.74331710     -3.42044211
H       1.68566759     -0.07014376     -0.45752134
H       0.01575385      0.06599994     -0.02758761
H       0.88040265     -1.55437164     -0.12870553
H       0.39221638      0.15046713     -2.45188254
H       1.14756497     -1.41420581     -2.47868128
H      -0.53129451     -1.40094496     -4.01308086
11
Frame 35  Energy = -268.5714644086 Hartree
C       0.74745351     -0.58553858     -0.51485091
C       0.40963376     -0.80155038     -1.97193593
C      -0.91121505     -1.52609402     -2.10303451
O      -1.61594384     -1.96113404     -1.19733575
O      -1.20226035     -1.74511240     -3.41979962
H       1.68501934     -0.07487030     -0.45811619
H       0.01927819      0.07146532     -0.03191808
H       0.87853603     -1.56308220     -0.14350197
H       0.40728509      0.15238827     -2.45354810
H       1.14339616     -1.41886582     -2.48080981
H      -0.52992246     -1.40835888     -4.01057713
11
Frame 40  Energy = -268.5714704355 Hartree
C       0.74444414     -0.58562875     -0.51447245
C       0.41188569     -0.80110374     -1.97103815
C      -0.91186150     -1.52223619     -2.10168065
O      -1.61589196     -1.96163939     -1.19925227
O      -1.20259031     -1.74709428     -3.41907351
H       1.68564269     -0.07888302     -0.45849151
H       0.02275447      0.07463113     -0.03600937
H       0.87592806     -1.57339690     -0.15533437
H       0.42162208      0.15524892     -2.45702880
H       1.13975318     -1.42351863     -2.48305227
H      -0.52720070     -1.41477210     -4.00813157
11
Frame 45  Energy = -268.5714734085 Hartree
C       0.74155879     -0.58562962     -0.51422145
C       0.41403423     -0.80070088     -1.96997619
C      -0.91258500     -1.51852632     -2.10030447
O      -1.61566282     -1.96206185     -1.20158779
O      -1.20310474     -1.74911629     -3.41823186
H       1.68765801     -0.08248981     -0.45827937
H       0.02593533      0.07602686     -0.03974522
H       0.87257911     -1.58486815     -0.16422829
H       0.43513025      0.15885893     -2.46176265
H       1.13642415     -1.42834818     -2.48499635
H      -0.52342246     -1.42038404     -4.00565841
11
Frame 50  Energy = -268.5714900096 Hartree
C       0.73877170     -0.58563219     -0.51401210
C       0.41599990     -0.80018483     -1.96877496
C      -0.91337802     -1.51502008     -2.09890906
O      -1.61533753     -1.96239063     -1.20419613
O      -1.20382756     -1.75123368     -3.41716679
H       1.69090452     -0.08567569     -0.45798839
H       0.02856402      0.07617436     -0.04289973
H       0.86846351     -1.59695789     -0.17021230
H       0.44773699      0.16288515     -2.46775806
H       1.13355650     -1.43331986     -2.48678145
H      -0.51817782     -1.42520791     -4.00313425
11
Frame 55  Energy = -268.5714940716 Hartree
C       0.73626631     -0.58570035     -0.51382749
C       0.41787371     -0.79958680     -1.96750947
C      -0.91412427     -1.51168006     -2.09748912
O      -1.61486298     -1.96252364     -1.20709709
O      -1.20471325     -1.75347269     -3.41601571
H       1.69531410     -0.08873201     -0.45763112
H       0.03039081      0.07539420     -0.04499287
H       0.86365932     -1.60869678     -0.17336450
H       0.45935115      0.16709046     -2.47447540
H       1.13140852     -1.43825335     -2.48844380
H      -0.51188693     -1.42905468     -4.00026137
11
Frame 60  Energy = -268.5714794914 Hartree
C       0.73401141     -0.58585208     -0.51363177
C       0.41967688     -0.79892324     -1.96618099
C      -0.91487967     -1.50850222     -2.09614827
O      -1.61419855     -1.96248569     -1.21030815
O      -1.20576953     -1.75581542     -3.41486375
H       1.70054721     -0.09179417     -0.45697538
H       0.03094334      0.07372172     -0.04550682
H       0.85812415     -1.61982002     -0.17352854
H       0.46999828      0.17127748     -2.48177734
H       1.12994271     -1.44327985     -2.49007385
H      -0.50499908     -1.43265085     -3.99701350
11
Frame 65  Energy = -268.5716390487 Hartree
C       0.73206892     -0.58611849     -0.51353564
C       0.42129780     -0.79810462     -1.96483013
C      -0.91567832     -1.50558593     -2.09488071
O      -1.61329574     -1.96223589     -1.21369793
O      -1.20698137     -1.75818388     -3.41369237
H       1.70602625     -0.09520917     -0.45599299
H       0.02986734      0.07121290     -0.04459476
H       0.85192478     -1.62924061     -0.17104137
H       0.47931812      0.17458287     -2.48969714
H       1.12926015     -1.44811877     -2.49128622
H      -0.49802354     -1.43564652     -3.99312077
11
Frame 70  Energy = -268.5717681237 Hartree
C       0.73043310     -0.58661103     -0.51361467
C       0.42277348     -0.79701735     -1.96343288
C      -0.91643590     -1.50289952     -2.09363054
O      -1.61223037     -1.96182156     -1.21728337
O      -1.20823559     -1.76055286     -3.41248512
H       1.71141048     -0.09892326     -0.45467247
H       0.02737774      0.06807367     -0.04243012
H       0.84480317     -1.63621839     -0.16632987
H       0.48709034      0.17647925     -2.49785899
H       1.12861195     -1.45299080     -2.49177183
H      -0.49096568     -1.43826116     -3.98874462
11
Frame 75  Energy = -268.5717513658 Hartree
C       0.72915209     -0.58731030     -0.51367899
C       0.42418869     -0.79580906     -1.96208151
C      -0.91712373     -1.50035382     -2.09260941
O      -1.61105358     -1.96130580     -1.22094745
O      -1.20956152     -1.76291601     -3.41131585
H       1.71651264     -0.10301260     -0.45272244
H       0.02370934      0.06450841     -0.03930640
H       0.83664044     -1.64033615     -0.15968756
H       0.49362975      0.17671730     -2.50561118
H       1.12822220     -1.45772996     -2.49123398
H      -0.48400534     -1.44074446     -3.98397497
11
Frame 80  Energy = -268.5717840623 Hartree
C       0.72824478     -0.58831274     -0.51376086
C       0.42551823     -0.79430924     -1.96082253
C      -0.91773468     -1.49790132     -2.09174908
O      -1.60980572     -1.96069157     -1.22466394
O      -1.21098712     -1.76523644     -3.41009188
H       1.72127458     -0.10744782     -0.45002411
H       0.01891050      0.06019251     -0.03502663
H       0.82726045     -1.64105469     -0.15101300
H       0.49865045      0.17504873     -2.51329261
H       1.12775072     -1.46219786     -2.49004192
H      -0.47797302     -1.44315136     -3.97835116
11
Frame 85  Energy = -268.5717132529 Hartree
C       0.72773160     -0.58946104     -0.51375726
C       0.42666851     -0.79265527     -1.95968135
C      -0.91827384     -1.49556698     -2.09103827
O      -1.60853436     -1.95993727     -1.22837152
O      -1.21235734     -1.76759264     -3.40896057
H       1.72482540     -0.11252592     -0.44671067
H       0.01308139      0.05487035     -0.02970063
H       0.81707841     -1.63866977     -0.14045878
H       0.50229911      0.17141421     -2.52049798
H       1.12728451     -1.46656023     -2.48764820
H      -0.47347609     -1.44601907     -3.97186656
11
Frame 90  Energy = -268.5718278443 Hartree
C       0.72757690     -0.59078515     -0.51380030
C       0.42774030     -0.79079027     -1.95866764
C      -0.91865584     -1.49328361     -2.09064949
O      -1.60721756     -1.95907649     -1.23214495
O      -1.21377322     -1.76985438     -3.40789596
H       1.72689971     -0.11867727     -0.44281159
H       0.00663317      0.04907720     -0.02392132
H       0.80616885     -1.63366627     -0.12841386
H       0.50479460      0.16584209     -2.52671748
H       1.12658088     -1.47026405     -2.48404504
H      -0.47035595     -1.44930345     -3.96492893
11
Frame 95  Energy = -268.5716700348 Hartree
C       0.72791176     -0.59222070     -0.51380413
C       0.42872224     -0.78891949     -1.95785991
C      -0.91885661     -1.49116484     -2.09061614
O      -1.60588400     -1.95815559     -1.23598866
O      -1.21517100     -1.77200852     -3.40683838
H       1.72749832     -0.12552510     -0.43822794
H      -0.00025175      0.04240234     -0.01760799
H       0.79443776     -1.62590598     -0.11514059
H       0.50638763      0.15882405     -2.53244857
H       1.12562970     -1.47333336     -2.47929337
H      -0.46860328     -1.45319192     -3.95699795
11
Frame 100  Energy = -268.5718352793 Hartree
C       0.72863087     -0.59379617     -0.51371172
C       0.42963248     -0.78709831     -1.95726627
C      -0.91880350     -1.48919221     -2.09090091
O      -1.60454403     -1.95711653     -1.23977553
O      -1.21647514     -1.77415148     -3.40574965
H       1.72691449     -0.13290061     -0.43273326
H      -0.00724149      0.03480606     -0.01085302
H       0.78220623     -1.61582186     -0.10071359
H       0.50720495      0.15072128     -2.53741943
H       1.12448393     -1.47553868     -2.47344808
H      -0.46791509     -1.45711892     -3.94872351
11
Frame 105  Energy = -268.5718123554 Hartree
C       0.72965418     -0.59543748     -0.51344350
C       0.43044258     -0.78535254     -1.95678966
C      -0.91859780     -1.48732999     -2.09150798
O      -1.60329197     -1.95596418     -1.24347755
O      -1.21781472     -1.77623139     -3.40473770
H       1.72527683     -0.14035615     -0.42632699
H      -0.01391707      0.02619379     -0.00401070
H       0.76989761     -1.60413138     -0.08516351
H       0.50716944      0.14172947     -2.54175252
H       1.12316538     -1.47682073     -2.46653827
H      -0.46822352     -1.46100683     -3.94028121
11
Frame 110  Energy = -268.5720739567 Hartree
C       0.73090722     -0.59708715     -0.51309469
C       0.43111655     -0.78364286     -1.95645787
C      -0.91817721     -1.48553862     -2.09243579
O      -1.60211636     -1.95482195     -1.24696908
O      -1.21920981     -1.77811738     -3.40379226
H       1.72253822     -0.14818304     -0.41912576
H      -0.01998337      0.01661022      0.00259870
H       0.75720484     -1.59109850     -0.06880151
H       0.50567947      0.13234918     -2.54515117
H       1.12208783     -1.47715380     -2.45874591
H      -0.46967745     -1.46482821     -3.93231903
11
Frame 115  Energy = -268.5718041664 Hartree
C       0.73222062     -0.59876209     -0.51262854
C       0.43157814     -0.78196234     -1.95639023
C      -0.91750165     -1.48386423     -2.09374794
O      -1.60114144     -1.95363802     -1.25033758
O      -1.22062102     -1.77983942     -3.40276213
H       1.71928266     -0.15615583     -0.41115979
H      -0.02518362      0.00652779      0.00905484
H       0.74419942     -1.57773626     -0.05156985
H       0.50358596      0.12338230     -2.54838359
H       1.12118667     -1.47725774     -2.45047665
H      -0.47152158     -1.46850858     -3.92497077
11
Frame 120  Energy = -268.5719974386 Hartree
C       0.73352430     -0.60042400     -0.51200335
C       0.43189604     -0.78040698     -1.95632173
C      -0.91658174     -1.48229326     -2.09537758
O      -1.60028368     -1.95238660     -1.25353860
O      -1.22200153     -1.78154177     -3.40175060
H       1.71576538     -0.16376415     -0.40265445
H      -0.02959980     -0.00388637      0.01500305
H       0.73125329     -1.56465181     -0.03359755
H       0.50113858      0.11526032     -2.55185021
H       1.12059527     -1.47723624     -2.44184825
H      -0.47336505     -1.47222623     -3.91836411
11
Frame 125  Energy = -268.5721405457 Hartree
C       0.73482318     -0.60202850     -0.51127630
C       0.43205175     -0.77898663     -1.95620242
C      -0.91556619     -1.48079954     -2.09731958
O      -1.59953234     -1.95112945     -1.25644238
O      -1.22337086     -1.78321489     -3.40066021
H       1.71274159     -0.17068435     -0.39369926
H      -0.03284928     -0.01438729      0.02049480
H       0.71852994     -1.55252551     -0.01510062
H       0.49804238      0.10805116     -2.55577044
H       1.12066050     -1.47709746     -2.43281163
H      -0.47506637     -1.47579974     -3.91272734
11
Frame 130  Energy = -268.5719910832 Hartree
C       0.73608354     -0.60364477     -0.51041835
C       0.43195354     -0.77773109     -1.95610324
C      -0.91445592     -1.47943643     -2.09962979
O      -1.59893474     -1.94987803     -1.25909983
O      -1.22482625     -1.78478139     -3.39952729
H       1.71038428     -0.17666063     -0.38425943
H      -0.03501286     -0.02465724      0.02529508
H       0.70605312     -1.54166162      0.00390163
H       0.49451673      0.10221836     -2.55997560
H       1.12119930     -1.47734210     -2.42346277
H      -0.47615124     -1.47886370     -3.90852506
11
Frame 135  Energy = -268.5717139414 Hartree
C       0.73726432     -0.60522512     -0.50937712
C       0.43159988     -0.77658238     -1.95592159
C      -0.91316734     -1.47829517     -2.10236007
O      -1.59851452     -1.94860397     -1.26151168
O      -1.22643984     -1.78634663     -3.39832100
H       1.70896043     -0.18171966     -0.37423208
H      -0.03609079     -0.03469188      0.02880832
H       0.69359085     -1.53231786      0.02306178
H       0.49045259      0.09812562     -2.56515696
H       1.12286099     -1.47772610     -2.41375880
H      -0.47630445     -1.48197823     -3.90646010
11
Frame 140  Energy = -268.5716446501 Hartree
C       0.73830755     -0.60670349     -0.50816603
C       0.43105303     -0.77558999     -1.95571679
C      -0.91165702     -1.47730511     -2.10537839
O      -1.59823895     -1.94728599     -1.26376168
O      -1.22815196     -1.78790149     -3.39707348
H       1.70849128     -0.18563667     -0.36379554
H      -0.03605848     -0.04441492      0.03067450
H       0.68145528     -1.52460008      0.04219683
H       0.48612097      0.09604129     -2.57096953
H       1.12528681     -1.47789696     -2.40405130
H      -0.47564330     -1.48477268     -3.90643897
11
Frame 145  Energy = -268.5716666721 Hartree
C       0.73923748     -0.60802553     -0.50685578
C       0.43031727     -0.77489126     -1.95546217
C      -0.91000086     -1.47654678     -2.10860122
O      -1.59803227     -1.94600042     -1.26583238
O      -1.22990915     -1.78939745     -3.39583963
H       1.70913518     -0.18838926     -0.35331509
H      -0.03528225     -0.05321919      0.03141482
H       0.66964202     -1.51885551      0.06132037
H       0.48131903      0.09540940     -2.57707855
H       1.12836896     -1.47824593     -2.39466873
H      -0.47419238     -1.48687881     -3.90823241
11
Frame 150  Energy = -268.5714797704 Hartree
C       0.74006935     -0.60921044     -0.50541510
C       0.42936095     -0.77439659     -1.95518083
C      -0.90836285     -1.47604334     -2.11217163
O      -1.59804280     -1.94471166     -1.26769028
O      -1.23174460     -1.79092940     -3.39458926
H       1.71108405     -0.19033911     -0.34295788
H      -0.03359078     -0.06070814      0.03119972
H       0.65841891     -1.51505389      0.07985471
H       0.47634456      0.09614659     -2.58342920
H       1.13243128     -1.47860941     -2.38562836
H      -0.47259200     -1.48838363     -3.91153145
11
Frame 155  Energy = -268.5712942069 Hartree
C       0.74080640     -0.61036093     -0.50378291
C       0.42828170     -0.77407318     -1.95489134
C      -0.90667421     -1.47580861     -2.11598901
O      -1.59814313     -1.94337143     -1.26931004
O      -1.23352472     -1.79243131     -3.39341140
H       1.71413237     -0.19128814     -0.33227710
H      -0.03148571     -0.06676990      0.03027313
H       0.64832838     -1.51282495      0.09764811
H       0.47092661      0.09807541     -2.58973939
H       1.13718260     -1.47969999     -2.37700736
H      -0.47160045     -1.48982552     -3.91636678
11
Frame 160  Energy = -268.5713122566 Hartree
C       0.74148733     -0.61141986     -0.50191236
C       0.42705358     -0.77395116     -1.95461447
C      -0.90501549     -1.47581460     -2.12002104
O      -1.59816308     -1.94199570     -1.27080235
O      -1.23531251     -1.79394055     -3.39238431
H       1.71791030     -0.19169155     -0.32149078
H      -0.02939463     -0.07064175      0.02862620
H       0.63973832     -1.51201089      0.11409394
H       0.46520477      0.10105231     -2.59590625
H       1.14243532     -1.48100721     -2.36924304
H      -0.47127959     -1.49131683     -3.92211307
11
Frame 165  Energy = -268.5713992559 Hartree
C       0.74212758     -0.61249747     -0.49971579
C       0.42572387     -0.77404469     -1.95429272
C      -0.90344048     -1.47607587     -2.12415033
O      -1.59818436     -1.94051895     -1.27212708
O      -1.23697124     -1.79535712     -3.39155118
H       1.72188857     -0.19175135     -0.31072225
H      -0.02724355     -0.07161141      0.02639620
H       0.63273956     -1.51244659      0.12837406
H       0.45919826      0.10460277     -2.60150589
H       1.14781438     -1.48224082     -2.36198437
H      -0.47222570     -1.49325102     -3.92848713
11
Frame 170  Energy = -268.5714189553 Hartree
C       0.74261488     -0.61361184     -0.49717249
C       0.42423199     -0.77437610     -1.95388766
C      -0.90187907     -1.47656049     -2.12818296
O      -1.59810688     -1.93888630     -1.27326467
O      -1.23846277     -1.79667620     -3.39088213
H       1.72575086     -0.19149274     -0.30016716
H      -0.02547526     -0.06952261      0.02367491
H       0.62743577     -1.51347990      0.14007792
H       0.45309656      0.10858795     -2.60636606
H       1.15345802     -1.48358552     -2.35516815
H      -0.47499802     -1.49554609     -3.93546166
11
Frame 175  Energy = -268.5712163276 Hartree
C       0.74308723     -0.61469141     -0.49431259
C       0.42270763     -0.77486947     -1.95349760
C      -0.90023269     -1.47737055     -2.13220746
O      -1.59800205     -1.93711542     -1.27428728
O      -1.23980905     -1.79783677     -3.39042940
H       1.72900483     -0.19091551     -0.28990054
H      -0.02431527     -0.06423957      0.02055227
H       0.62336559     -1.51477711      0.14928669
H       0.44701284      0.11245093     -2.60997626
H       1.15938691     -1.48486777     -2.34917046
H      -0.47978057     -1.49821734     -3.94280053
11
Frame 180  Energy = -268.5714145271 Hartree
C       0.74356321     -0.61575730     -0.49107016
C       0.42128111     -0.77553629     -1.95306011
C      -0.89870905     -1.47840292     -2.13614941
O      -1.59782418     -1.93518375     -1.27519403
O      -1.24094578     -1.79880968     -3.39020744
H       1.73171017     -0.19048219     -0.27996017
H      -0.02353312     -0.05586552      0.01687973
H       0.62058395     -1.51598461      0.15561321
H       0.44099459      0.11582020     -2.61206891
H       1.16537077     -1.48615202     -2.34419363
H      -0.48613294     -1.50158099     -3.95022507
11
Frame 185  Energy = -268.5714400856 Hartree
C       0.74403054     -0.61682771     -0.48749782
C       0.41998183     -0.77628822     -1.95255340
C      -0.89735098     -1.47967957     -2.13999278
O      -1.59757459     -1.93315973     -1.27599798
O      -1.24182490     -1.79963169     -3.39023593
H       1.73382256     -0.19005652     -0.27094456
H      -0.02307817     -0.04487211      0.01294810
H       0.61923647     -1.51738860      0.15901464
H       0.43540327      0.11861257     -2.61222806
H       1.17136087     -1.48748388     -2.34043900
H      -0.49406239     -1.50580087     -3.95776663
11
Frame 190  Energy = -268.5713650953 Hartree
C       0.74445774     -0.61798458     -0.48359182
C       0.41872626     -0.77718161     -1.95204131
C      -0.89603727     -1.48124581     -2.14364892
O      -1.59732163     -1.93107264     -1.27672514
O      -1.24251750     -1.80033307     -3.39048224
H       1.73487865     -0.18990624     -0.26255044
H      -0.02292611     -0.03129648      0.00882896
H       0.61919985     -1.51915197      0.15944036
H       0.43000012      0.12037540     -2.61054686
H       1.17692199     -1.48821355     -2.33790975
H      -0.50339821     -1.51051959     -3.96541633
11
Frame 195  Energy = -268.5711462706 Hartree
C       0.74475171     -0.61918614     -0.47934980
C       0.41762851     -0.77813142     -1.95154878
C      -0.89481758     -1.48305630     -2.14717665
O      -1.59705885     -1.92888696     -1.27743668
O      -1.24298765     -1.80086955     -3.39091401
H       1.73495234     -0.19014482     -0.25492250
H      -0.02327266     -0.01548444      0.00428334
H       0.62006987     -1.52118908      0.15735731
H       0.42509356      0.12118327     -2.60700920
H       1.18178349     -1.48824095     -2.33632681
H      -0.51400535     -1.51558882     -3.97359134
11
Frame 200  Energy = -268.5711555453 Hartree
C       0.74489959     -0.62035670     -0.47466973
C       0.41673883     -0.77919344     -1.95122686
C      -0.89369341     -1.48525554     -2.15052469
O      -1.59670416     -1.92665107     -1.27805276
O      -1.24329546     -1.80134811     -3.39155889
H       1.73396366     -0.19080869     -0.24815909
H      -0.02319580      0.00183101     -0.00083292
H       0.62186552     -1.52300156      0.15244429
H       0.42067070      0.12109504     -2.60166162
H       1.18520440     -1.48728717     -2.33558033
H      -0.52526924     -1.52076626     -3.98199094
11
Frame 205  Energy = -268.5712307629 Hartree
C       0.74492002     -0.62140996     -0.46969692
C       0.41591713     -0.78044027     -1.95096840
C      -0.89272125     -1.48780967     -2.15369158
O      -1.59629542     -1.92433682     -1.27865868
O      -1.24351635     -1.80186149     -3.39242728
H       1.73174846     -0.19177781     -0.24256352
H      -0.02237040      0.02026513     -0.00659420
H       0.62460789     -1.52476729      0.14531402
H       0.41683285      0.11999926     -2.59492163
H       1.18757989     -1.48537299     -2.33559454
H      -0.53626866     -1.52609406     -3.99068020
11
Frame 210  Energy = -268.5711734378 Hartree
C       0.74483009     -0.62226773     -0.46460452
C       0.41522771     -0.78186882     -1.95071123
C      -0.89191919     -1.49065831     -2.15658868
O      -1.59587542     -1.92199149     -1.27919888
O      -1.24373686     -1.80241134     -3.39338654
H       1.72897945     -0.19308338     -0.23801439
H      -0.02101543      0.03932573     -0.01273038
H       0.62819365     -1.52648812      0.13606217
H       0.41357419      0.11827482     -2.58666121
H       1.18892424     -1.48218072     -2.33617243
H      -0.54695095     -1.53113039     -3.99997347
11
Frame 215  Energy = -268.5709400666 Hartree
C       0.74454227     -0.62289096     -0.45921557
C       0.41470276     -0.78350243     -1.95041183
C      -0.89110724     -1.49371003     -2.15910046
O      -1.59543422     -1.91945718     -1.27965360
O      -1.24397031     -1.80308372     -3.39450002
H       1.72554055     -0.19448856     -0.23463779
H      -0.01833464      0.05829710     -0.01961210
H       0.63246629     -1.52843914      0.12525096
H       0.41077373      0.11566661     -2.57681451
H       1.18941944     -1.47756736     -2.33737936
H      -0.55705952     -1.53598740     -4.00976141
11
Frame 220  Energy = -268.5709577441 Hartree
C       0.74400081     -0.62321072     -0.45367078
C       0.41430839     -0.78533687     -1.94995806
C      -0.89033407     -1.49703016     -2.16125457
O      -1.59501199     -1.91687116     -1.28006989
O      -1.24425637     -1.80376431     -3.39579001
H       1.72156897     -0.19629808     -0.23229851
H      -0.01405149      0.07633621     -0.02683929
H       0.63679322     -1.53109579      0.11342796
H       0.40861524      0.11289081     -2.56594241
H       1.18911802     -1.47179984     -2.33964584
H      -0.56657806     -1.54011709     -4.01994875
11
Frame 225  Energy = -268.5711359070 Hartree
C       0.74320878     -0.62321109     -0.44802868
C       0.41408985     -0.78731778     -1.94946580
C      -0.88968057     -1.50051694     -2.16308943
O      -1.59464158     -1.91426307     -1.28038328
O      -1.24458397     -1.80437726     -3.39725725
H       1.71808940     -0.19828035     -0.23083845
H      -0.00840157      0.09325281     -0.03448566
H       0.64138264     -1.53451630      0.10117691
H       0.40657243      0.11044536     -2.55452312
H       1.18804611     -1.46543563     -2.34257876
H      -0.57497254     -1.54375659     -4.03078881
11
Frame 230  Energy = -268.5709448763 Hartree
C       0.74220931     -0.62283181     -0.44243115
C       0.41401903     -0.78951762     -1.94888780
C      -0.88920048     -1.50417151     -2.16455553
O      -1.59430744     -1.91159068     -1.28062720
O      -1.24493534     -1.80495600     -3.39887633
H       1.71516474     -0.20038806     -0.23016519
H      -0.00157346      0.10914212     -0.04242001
H       0.64576660     -1.53912954      0.08915142
H       0.40504500      0.10862534     -2.54257275
H       1.18658162     -1.45836135     -2.34579358
H      -0.58220464     -1.54695276     -4.04233209
11
Frame 235  Energy = -268.5710140274 Hartree
C       0.74102026     -0.62199900     -0.43690753
C       0.41401516     -0.79185742     -1.94812460
C      -0.88872834     -1.50794672     -2.16576677
O      -1.59405260     -1.90885603     -1.28080631
O      -1.24544450     -1.80560883     -3.40074887
H       1.71294717     -0.20240958     -0.23023117
H       0.00661816      0.12328790     -0.05080349
H       0.64984949     -1.54489833      0.07747720
H       0.40423049      0.10780107     -2.53046935
H       1.18476398     -1.45115628     -2.34952679
H      -0.58845505     -1.54937083     -4.05447122
11
Frame 240  Energy = -268.5711084474 Hartree
C       0.73952173     -0.62083574     -0.43159738
C       0.41412610     -0.79428518     -1.94717602
C      -0.88822303     -1.51179813     -2.16667742
O      -1.59376551     -1.90608849     -1.28089384
O      -1.24603638     -1.80626324     -3.40287112
H       1.71165829     -0.20411452     -0.23130078
H       0.01603000      0.13562555     -0.05939521
H       0.65330306     -1.55211628      0.06725556
H       0.40400451      0.10857566     -2.51903615
H       1.18310370     -1.44374628     -2.35396175
H      -0.59410098     -1.55135376     -4.06693005
11
Frame 245  Energy = -268.5707192508 Hartree
C       0.73769172     -0.61932326     -0.42654443
C       0.41444102     -0.79689360     -1.94603839
C      -0.88769151     -1.51578135     -2.16726621
O      -1.59337446     -1.90340686     -1.28086551
O      -1.24670685     -1.80689289     -3.40523849
H       1.71146259     -0.20573181     -0.23326152
H       0.02628932      0.14633895     -0.06750477
H       0.65590208     -1.56074117      0.05807986
H       0.40404048      0.11107460     -2.50807516
H       1.18208869     -1.43620322     -2.35952127
H      -0.59897403     -1.55303778     -4.07927600
11
Frame 250  Energy = -268.5707495868 Hartree
C       0.73564159     -0.61753064     -0.42171679
C       0.41483931     -0.79977416     -1.94457552
C      -0.88716268     -1.51976904     -2.16761986
O      -1.59300714     -1.90081448     -1.28066756
O      -1.24735609     -1.80756578     -3.40784995
H       1.71244782     -0.20744562     -0.23592160
H       0.03686685      0.15522263     -0.07480614
H       0.65783663     -1.57060026      0.04969953
H       0.40452267      0.11523161     -2.49757350
H       1.18204305     -1.42860306     -2.36604841
H      -0.60335189     -1.55390248     -4.09120461
11
Frame 255  Energy = -268.5708806280 Hartree
C       0.73352615     -0.61548883     -0.41727775
C       0.41530464     -0.80279855     -1.94275132
C      -0.88655364     -1.52374096     -2.16791731
O      -1.59270624     -1.89824381     -1.28038891
O      -1.24799449     -1.80839397     -3.41068844
H       1.71456139     -0.20915731     -0.23910178
H       0.04771006      0.16246197     -0.08109239
H       0.65881296     -1.58121287      0.04272875
H       0.40543826      0.12072664     -2.48773602
H       1.18301021     -1.42116028     -2.37348293
H      -0.60747379     -1.55465335     -4.10243713
11
Frame 260  Energy = -268.5709820223 Hartree
C       0.73127564     -0.61330617     -0.41326316
C       0.41598238     -0.80600702     -1.94068746
C      -0.88584919     -1.52764635     -2.16803385
O      -1.59250566     -1.89562529     -1.28010447
O      -1.24867526     -1.80927944     -3.41373930
H       1.71761592     -0.21109903     -0.24315796
H       0.05805697      0.16795606     -0.08571932
H       0.65883041     -1.59172274      0.03695460
H       0.40639405      0.12740927     -2.47871479
H       1.18487559     -1.41445007     -2.38189704
H      -0.61158448     -1.55549220     -4.11212696
11
Frame 265  Energy = -268.5706351794 Hartree
C       0.72892715     -0.61102075     -0.40963817
C       0.41679420     -0.80929408     -1.93852410
C      -0.88495003     -1.53148632     -2.16793842
O      -1.59246972     -1.89297300     -1.27979580
O      -1.24946096     -1.81015888     -3.41710800
H       1.72208275     -0.21332067     -0.24801139
H       0.06771175      0.17205222     -0.08849833
H       0.65806664     -1.60166971      0.03275261
H       0.40756870      0.13484348     -2.47018079
H       1.18811659     -1.40854734     -2.39130041
H      -0.61581690     -1.55627453     -4.12022240
11
Frame 270  Energy = -268.5705313363 Hartree
C       0.72655679     -0.60880648     -0.40633195
C       0.41772585     -0.81263206     -1.93621476
C      -0.88394782     -1.53532625     -2.16774748
O      -1.59251003     -1.89042463     -1.27936289
O      -1.25030370     -1.81110334     -3.42072978
H       1.72775166     -0.21627728     -0.25348921
H       0.07595585      0.17566927     -0.08919001
H       0.65619324     -1.61062052      0.02993304
H       0.40837346      0.14283215     -2.46207752
H       1.19250021     -1.40352890     -2.40169680
H      -0.62037920     -1.55715261     -4.12644558
11
Frame 275  Energy = -268.5704674724 Hartree
C       0.72431800     -0.60656677     -0.40344616
C       0.41883687     -0.81596107     -1.93377344
C      -0.88278756     -1.53910197     -2.16750020
O      -1.59268822     -1.88791544     -1.27884422
O      -1.25113902     -1.81213592     -3.42454449
H       1.73416624     -0.21972508     -0.25942738
H       0.08240901      0.17874957     -0.08774308
H       0.65349437     -1.61774997      0.02837102
H       0.40910835      0.15073450     -2.45426564
H       1.19781359     -1.39902959     -2.41266192
H      -0.62494163     -1.55788724     -4.13074823
11
Frame 280  Energy = -268.5703749856 Hartree
C       0.72217126     -0.60438998     -0.40104103
C       0.42003224     -0.81917162     -1.93105549
C      -0.88137847     -1.54281543     -2.16723106
O      -1.59293737     -1.88540764     -1.27819956
O      -1.25193998     -1.81322609     -3.42856447
H       1.74072916     -0.22361625     -0.26582364
H       0.08683915      0.18191600     -0.08423993
H       0.65006104     -1.62264722      0.02771858
H       0.40921896      0.15797010     -2.44614233
H       1.20326686     -1.39464378     -2.42386428
H      -0.62908312     -1.55841173     -4.13295637
11
Frame 285  Energy = -268.5706237973 Hartree
C       0.72022715     -0.60252879     -0.39906802
C       0.42133546     -0.82219043     -1.92821585
C      -0.87974071     -1.54642505     -2.16698617
O      -1.59315944     -1.88294489     -1.27751782
O      -1.25280905     -1.81438205     -3.43262955
H       1.74704566     -0.22826882     -0.27244180
H       0.08934127      0.18527968     -0.07855793
H       0.64581376     -1.62487138      0.02786994
H       0.40866146      0.16410397     -2.43760967
H       1.20861010     -1.39033077     -2.43489882
H      -0.63243025     -1.55856526     -4.13365316
11
Frame 290  Energy = -268.5706638280 Hartree
C       0.71851701     -0.60094332     -0.39761152
C       0.42279808     -0.82501155     -1.92528898
C      -0.87796502     -1.54992658     -2.16669918
O      -1.59341956     -1.88054498     -1.27678528
O      -1.25373482     -1.81563912     -3.43672388
H       1.75281138     -0.23413912     -0.27917395
H       0.08964635      0.18898129     -0.07058545
H       0.64090132     -1.62412938      0.02888189
H       0.40743226      0.16904347     -2.42913369
H       1.21386364     -1.38627617     -2.44512331
H      -0.63506485     -1.55788269     -4.13292640
11
Frame 295  Energy = -268.5707267249 Hartree
C       0.71709673     -0.59963269     -0.39654096
C       0.42438605     -0.82756168     -1.92240234
C      -0.87596501     -1.55331411     -2.16642641
O      -1.59377079     -1.87811424     -1.27595835
O      -1.25471373     -1.81693517     -3.44078024
H       1.75762706     -0.24089624     -0.28630450
H       0.08787982      0.19293315     -0.06046284
H       0.63524262     -1.62055610      0.03083347
H       0.40588495      0.17220477     -2.42058230
H       1.21900209     -1.38224113     -2.45487469
H      -0.63678374     -1.55660461     -4.13130878
11
Frame 300  Energy = -268.5707703442 Hartree
C       0.71596537     -0.59857605     -0.39583340
C       0.42612645     -0.82990545     -1.91956518
C      -0.87374813     -1.55654199     -2.16627035
O      -1.59423563     -1.87571039     -1.27504515
O      -1.25579162     -1.81832216     -3.44483376
H       1.76122732     -0.24839550     -0.29335889
H       0.08407348      0.19646459     -0.04807146
H       0.62867428     -1.61471498      0.03382716
H       0.40437377      0.17359526     -2.41188779
H       1.22396827     -1.37806670     -2.46357656
H      -0.63732370     -1.55456789     -4.12900639
