11
Frame 5  Energy = -268.5567442439 Hartree
C       0.73570046     -0.60818636     -0.36387688
C       0.46327760     -1.02500234     -1.84824370
C      -0.84260942     -1.66632232     -2.13197443
O      -1.68740461     -1.88344312     -1.32693751
O      -1.11779232     -1.88433444     -3.48769249
H       1.69533872     -0.13732388     -0.21472146
H       0.00876288      0.10726937      0.00859124
H       0.78438509     -1.46436872      0.32772530
H       0.43945370     -0.09947256     -2.36908880
H       1.21260510     -1.64693689     -2.32601517
H      -0.27736597     -1.67826346     -3.92047355
11
Frame 10  Energy = -268.5568742121 Hartree
C       0.73431319     -0.60880727     -0.36081755
C       0.46333320     -1.02781500     -1.84658833
C      -0.84059584     -1.66967179     -2.13189994
O      -1.68749161     -1.88261927     -1.32867177
O      -1.11930192     -1.88548212     -3.48878016
H       1.69471612     -0.13045553     -0.21781099
H       0.01870378      0.11795500      0.00078258
H       0.79879330     -1.47510420      0.32759757
H       0.43044820     -0.10458080     -2.36525614
H       1.22316664     -1.63952996     -2.31734842
H      -0.28126233     -1.68057013     -3.92344864
11
Frame 15  Energy = -268.5568962168 Hartree
C       0.73292275     -0.60965192     -0.35768847
C       0.46355183     -1.03061893     -1.84466268
C      -0.83883040     -1.67302894     -2.13185281
O      -1.68762830     -1.88176903     -1.33034559
O      -1.12056219     -1.88657163     -3.48962537
H       1.69450609     -0.12325322     -0.22255922
H       0.02745810      0.12764699     -0.00711096
H       0.81194403     -1.48464065      0.32656298
H       0.42166650     -0.10747887     -2.36401453
H       1.23448955     -1.63225548     -2.30796126
H      -0.28584572     -1.68304059     -3.92773451
11
Frame 20  Energy = -268.5566133401 Hartree
C       0.73160007     -0.61083878     -0.35454291
C       0.46396245     -1.03334578     -1.84245056
C      -0.83733642     -1.67643948     -2.13191037
O      -1.68781689     -1.88089636     -1.33198365
O      -1.12164057     -1.88762314     -3.49028427
H       1.69453775     -0.11624945     -0.22887028
H       0.03507780      0.13648671     -0.01481005
H       0.82395440     -1.49269937      0.32458254
H       0.41325612     -0.10820422     -2.36499795
H       1.24719599     -1.62468711     -2.29832734
H      -0.29069595     -1.68546936     -3.93325128
11
Frame 25  Energy = -268.5566294427 Hartree
C       0.73044978     -0.61232802     -0.35141981
C       0.46458983     -1.03589436     -1.84001705
C      -0.83609426     -1.67990679     -2.13216773
O      -1.68815839     -1.88008723     -1.33351200
O      -1.12259350     -1.88861699     -3.49073804
H       1.69456085     -0.10947424     -0.23656550
H       0.04137547      0.14471157     -0.02205993
H       0.83437037     -1.49901902      0.32108543
H       0.40485007     -0.10699045     -2.36800640
H       1.26098919     -1.61716873     -2.28865980
H      -0.29573351     -1.68833203     -3.93978793
11
Frame 30  Energy = -268.5564080181 Hartree
C       0.72951259     -0.61408836     -0.34842457
C       0.46535159     -1.03836713     -1.83738925
C      -0.83509159     -1.68336850     -2.13256833
O      -1.68855080     -1.87936057     -1.33495677
O      -1.12343665     -1.88961934     -3.49097672
H       1.69468296     -0.10299923     -0.24591430
H       0.04598866      0.15208264     -0.02902771
H       0.84321700     -1.50327906      0.31619085
H       0.39629990     -0.10426788     -2.37295614
H       1.27538497     -1.61015594     -2.27895423
H      -0.30102521     -1.69122836     -3.94772477
11
Frame 35  Energy = -268.5564373453 Hartree
C       0.72881282     -0.61607474     -0.34540945
C       0.46628396     -1.04061390     -1.83462400
C      -0.83424208     -1.68678100     -2.13316928
O      -1.68902540     -1.87861449     -1.33631816
O      -1.12421635     -1.89067318     -3.49106708
H       1.69462923     -0.09681035     -0.25642482
H       0.04872369      0.15851099     -0.03539451
H       0.85001764     -1.50552996      0.31034350
H       0.38799449     -0.10063299     -2.37907652
H       1.29031486     -1.60336365     -2.26914671
H      -0.30670223     -1.69416009     -3.95707301
11
Frame 40  Energy = -268.5564984635 Hartree
C       0.72838216     -0.61827943     -0.34267756
C       0.46732691     -1.04253878     -1.83173056
C      -0.83351381     -1.69024204     -2.13393666
O      -1.68958238     -1.87791034     -1.33759876
O      -1.12483980     -1.89174414     -3.49091091
H       1.69407473     -0.09112710     -0.26802549
H       0.04979521      0.16383771     -0.04087132
H       0.85486876     -1.50610689      0.30397452
H       0.38024941     -0.09693592     -2.38555741
H       1.30555611     -1.59696163     -2.25900476
H      -0.31238797     -1.69697198     -3.96730301
11
Frame 45  Energy = -268.5565284269 Hartree
C       0.72812437     -0.62062970     -0.34025490
C       0.46857250     -1.04418981     -1.82868322
C      -0.83301681     -1.69370824     -2.13496488
O      -1.69023273     -1.87727797     -1.33875814
O      -1.12525712     -1.89287265     -3.49061403
H       1.69306536     -0.08643518     -0.28044720
H       0.04902416      0.16767054     -0.04563685
H       0.85769396     -1.50540913      0.29723464
H       0.37301052     -0.09346472     -2.39236084
H       1.32055948     -1.59079979     -2.24857701
H      -0.31805833     -1.69962854     -3.97812547
11
Frame 50  Energy = -268.5566160722 Hartree
C       0.72807817     -0.62303135     -0.33803405
C       0.47001703     -1.04569085     -1.82549229
C      -0.83264119     -1.69705975     -2.13616405
O      -1.69090020     -1.87667988     -1.33992451
O      -1.12565776     -1.89396306     -3.49014246
H       1.69181459     -0.08252534     -0.29381296
H       0.04653995      0.16995413     -0.04935393
H       0.85857013     -1.50329599      0.29049917
H       0.36634695     -0.09107363     -2.39875190
H       1.33504681     -1.58476003     -2.23820730
H      -0.32344521     -1.70177953     -3.98903427
11
Frame 55  Energy = -268.5567662666 Hartree
C       0.72815498     -0.62542088     -0.33600535
C       0.47160299     -1.04696690     -1.82219963
C      -0.83240059     -1.70026142     -2.13743817
O      -1.69157765     -1.87605555     -1.34102987
O      -1.12590972     -1.89504712     -3.48948858
H       1.69003130     -0.07997322     -0.30769132
H       0.04276130      0.17042412     -0.05217237
H       0.85761279     -1.50014180      0.28445060
H       0.36084506     -0.08994274     -2.40445537
H       1.34856779     -1.57882457     -2.22802615
H      -0.32893816     -1.70389896     -4.00005531
11
Frame 60  Energy = -268.5567590235 Hartree
C       0.72831139     -0.62760748     -0.33426963
C       0.47328860     -1.04786193     -1.81889976
C      -0.83224598     -1.70345528     -2.13883933
O      -1.69239781     -1.87549255     -1.34203852
O      -1.12599521     -1.89612128     -3.48867409
H       1.68762945     -0.07870246     -0.32185114
H       0.03806470      0.16898788     -0.05394034
H       0.85503743     -1.49656671      0.27952909
H       0.35676426     -0.09048045     -2.40922928
H       1.36098245     -1.57306376     -2.21762230
H      -0.33433123     -1.70599865     -4.01099006
11
Frame 65  Energy = -268.5566659164 Hartree
C       0.72867232     -0.62961661     -0.33290494
C       0.47512000     -1.04838523     -1.81567141
C      -0.83226694     -1.70662224     -2.14036742
O      -1.69323248     -1.87498831     -1.34292664
O      -1.12597366     -1.89721772     -3.48769311
H       1.68457217     -0.07853114     -0.33619287
H       0.03233939      0.16546365     -0.05481259
H       0.85111273     -1.49317779      0.27594761
H       0.35374634     -0.09297537     -2.41290622
H       1.37238635     -1.56699497     -2.20735521
H      -0.34018895     -1.70805915     -4.02166242
11
Frame 70  Energy = -268.5567343378 Hartree
C       0.72917430     -0.63151381     -0.33189196
C       0.47707630     -1.04851513     -1.81247923
C      -0.83232690     -1.70960331     -2.14197791
O      -1.69412302     -1.87441463     -1.34370992
O      -1.12584885     -1.89834851     -3.48655795
H       1.68133279     -0.07947638     -0.35074531
H       0.02586958      0.15956783     -0.05467578
H       0.84620262     -1.49045508      0.27412520
H       0.35216472     -0.09769868     -2.41532286
H       1.38219130     -1.56068314     -2.19776670
H      -0.34645358     -1.71019121     -4.03164351
11
Frame 75  Energy = -268.5568317263 Hartree
C       0.72973177     -0.63311404     -0.33117167
C       0.47912868     -1.04837429     -1.80939750
C      -0.83240115     -1.71252952     -2.14369736
O      -1.69514181     -1.87381707     -1.34439379
O      -1.12562511     -1.89946498     -3.48531517
H       1.67809551     -0.08142057     -0.36474037
H       0.01839196      0.15122854     -0.05324066
H       0.84044488     -1.48902332      0.27428740
H       0.35202547     -0.10439629     -2.41598077
H       1.38988927     -1.55422230     -2.18853220
H      -0.35324994     -1.71204082     -4.04095373
11
Frame 80  Energy = -268.5569672278 Hartree
C       0.73028238     -0.63436709     -0.33092170
C       0.48126089     -1.04794991     -1.80636694
C      -0.83260321     -1.71533397     -2.14544935
O      -1.69624894     -1.87326196     -1.34510939
O      -1.12521832     -1.90064586     -3.48394004
H       1.67478968     -0.08405439     -0.37817891
H       0.01074097      0.14091398     -0.05046115
H       0.83358535     -1.48895737      0.27692041
H       0.35302181     -0.11327349     -2.41505309
H       1.39560107     -1.54769754     -2.17938942
H      -0.35989616     -1.71397948     -4.04926043
11
Frame 85  Energy = -268.5568080194 Hartree
C       0.73088236     -0.63532614     -0.33113009
C       0.48344715     -1.04732775     -1.80342419
C      -0.83283295     -1.71794623     -2.14719030
O      -1.69744861     -1.87282919     -1.34581775
O      -1.12465649     -1.90190470     -3.48247776
H       1.67147724     -0.08738938     -0.39090052
H       0.00286539      0.12911054     -0.04634200
H       0.82610336     -1.49024944      0.28201703
H       0.35482495     -0.12369221     -2.41297168
H       1.39913138     -1.54129048     -2.17053636
H      -0.36670063     -1.71609720     -4.05642853
11
Frame 90  Energy = -268.5568780641 Hartree
C       0.73154434     -0.63610536     -0.33182098
C       0.48568774     -1.04651643     -1.80054326
C      -0.83319474     -1.72043946     -2.14905016
O      -1.69870872     -1.87238202     -1.34647303
O      -1.12409891     -1.90323593     -3.48101416
H       1.66838417     -0.09108721     -0.40277520
H      -0.00519606      0.11571837     -0.04112370
H       0.81799257     -1.49278520      0.28929759
H       0.35771631     -0.13505279     -2.41021715
H       1.40093979     -1.53541919     -2.16223484
H      -0.37386952     -1.71815387     -4.06245845
11
Frame 95  Energy = -268.5567630703 Hartree
C       0.73224090     -0.63664802     -0.33297711
C       0.48797354     -1.04573165     -1.79773161
C      -0.83360769     -1.72284269     -2.15098855
O      -1.69996366     -1.87200427     -1.34712357
O      -1.12354674     -1.90459113     -3.47953477
H       1.66571710     -0.09485834     -0.41364686
H      -0.01319507      0.10069918     -0.03489796
H       0.80941263     -1.49619679      0.29814396
H       0.36214421     -0.14629030     -2.40669946
H       1.40104536     -1.53026092     -2.15475568
H      -0.38096317     -1.72049194     -4.06728168
11
Frame 100  Energy = -268.5565845007 Hartree
C       0.73296777     -0.63711521     -0.33440839
C       0.49012408     -1.04496498     -1.79494308
C      -0.83405008     -1.72514783     -2.15303966
O      -1.70123645     -1.87165513     -1.34776908
O      -1.12293927     -1.90598673     -3.47794603
H       1.66409201     -0.09899733     -0.42310748
H      -0.02130928      0.08483957     -0.02801741
H       0.80025114     -1.50004110      0.30807780
H       0.36784870     -0.15719584     -2.40309957
H       1.40001170     -1.52583791     -2.14787255
H      -0.38777593     -1.72283019     -4.07110399
11
Frame 105  Energy = -268.5565676704 Hartree
C       0.73353030     -0.63749894     -0.33610084
C       0.49224979     -1.04422429     -1.79215894
C      -0.83449540     -1.72733327     -2.15505615
O      -1.70248296     -1.87136698     -1.34844227
O      -1.12240811     -1.90747996     -3.47626511
H       1.66348013     -0.10297221     -0.43105462
H      -0.02972889      0.06792651     -0.02076268
H       0.79076554     -1.50360004      0.31830441
H       0.37450243     -0.16689913     -2.40013342
H       1.39848545     -1.52254504     -2.14183465
H      -0.39431548     -1.72502865     -4.07429526
11
Frame 110  Energy = -268.5565551537 Hartree
C       0.73396904     -0.63789773     -0.33798478
C       0.49429058     -1.04366007     -1.78941724
C      -0.83488698     -1.72939047     -2.15698655
O      -1.70372443     -1.87119151     -1.34904662
O      -1.12199498     -1.90903323     -3.47454342
H       1.66378390     -0.10681639     -0.43707157
H      -0.03850623      0.05031910     -0.01319087
H       0.78118395     -1.50666568      0.32856060
H       0.38187978     -0.17454449     -2.39777159
H       1.39664093     -1.52058138     -2.13700389
H      -0.40003156     -1.72722891     -4.07628070
11
Frame 115  Energy = -268.5565809902 Hartree
C       0.73424703     -0.63841359     -0.34006860
C       0.49628954     -1.04328430     -1.78668074
C      -0.83514318     -1.73124166     -2.15876483
O      -1.70491324     -1.87119538     -1.34963941
O      -1.12163449     -1.91066553     -3.47273225
H       1.66478907     -0.11018582     -0.44164702
H      -0.04743139      0.03261062     -0.00525397
H       0.77184898     -1.50895607      0.33819670
H       0.39010286     -0.17969279     -2.39638254
H       1.39467271     -1.52010179     -2.13356834
H      -0.40466467     -1.72908130     -4.07766003
11
Frame 120  Energy = -268.5565326547 Hartree
C       0.73426459     -0.63903829     -0.34207720
C       0.49810408     -1.04301712     -1.78397459
C      -0.83535521     -1.73293705     -2.16037791
O      -1.70597794     -1.87137450     -1.35022696
O      -1.12126748     -1.91237466     -3.47091194
H       1.66637433     -0.11306948     -0.44419310
H      -0.05644090      0.01489069      0.00311732
H       0.76298869     -1.50979518      0.34701675
H       0.39914808     -0.18205315     -2.39620068
H       1.39240302     -1.52118487     -2.13163796
H      -0.40807014     -1.73030381     -4.07864390
11
Frame 125  Energy = -268.5565555611 Hartree
C       0.73416928     -0.63986046     -0.34408602
C       0.49974042     -1.04292156     -1.78140485
C      -0.83557432     -1.73445883     -2.16181319
O      -1.70697973     -1.87159879     -1.35081865
O      -1.12091036     -1.91418393     -3.46912851
H       1.66928790     -0.11548864     -0.44455981
H      -0.06509104     -0.00252953      0.01144170
H       0.75483216     -1.50928699      0.35455193
H       0.40884331     -0.18184647     -2.39707806
H       1.38993526     -1.52393894     -2.13090495
H      -0.41023154     -1.73125904     -4.07941700
11
Frame 130  Energy = -268.5563754653 Hartree
C       0.73391499     -0.64081921     -0.34615752
C       0.50121289     -1.04301258     -1.77878419
C      -0.83570403     -1.73577790     -2.16307997
O      -1.70793841     -1.87194002     -1.35141361
O      -1.12059048     -1.91600124     -3.46725895
H       1.67321875     -0.11750701     -0.44279017
H      -0.07368321     -0.01936780      0.01990007
H       0.74762861     -1.50708359      0.36035050
H       0.41884181     -0.17924350     -2.39919255
H       1.38789130     -1.52869272     -2.13141523
H      -0.41094470     -1.73191525     -4.08002800
11
Frame 135  Energy = -268.5562312232 Hartree
C       0.73350082     -0.64192066     -0.34819582
C       0.50249958     -1.04331772     -1.77628677
C      -0.83575966     -1.73691612     -2.16413958
O      -1.70886402     -1.87235152     -1.35207331
O      -1.12028828     -1.91794477     -3.46536880
H       1.67782273     -0.11906430     -0.43893690
H      -0.08196702     -0.03547213      0.02858166
H       0.74156105     -1.50317195      0.36426976
H       0.42887161     -0.17394084     -2.40195253
H       1.38679441     -1.53570361     -2.13291722
H      -0.41042498     -1.73217415     -4.08056016
11
Frame 140  Energy = -268.5561944098 Hartree
C       0.73297720     -0.64316244     -0.35013967
C       0.50360207     -1.04385947     -1.77399525
C      -0.83587888     -1.73777624     -2.16494431
O      -1.70975522     -1.87277422     -1.35266494
O      -1.11990730     -1.91990500     -3.46346007
H       1.68249286     -0.12054118     -0.43269579
H      -0.08978721     -0.05062627      0.03719598
H       0.73641277     -1.49796229      0.36639242
H       0.43945491     -0.16674591     -2.40529476
H       1.38667445     -1.54474960     -2.13558321
H      -0.40879045     -1.73238297     -4.08067158
11
Frame 145  Energy = -268.5561015748 Hartree
C       0.73220498     -0.64462906     -0.35187966
C       0.50448434     -1.04448252     -1.77203609
C      -0.83589487     -1.73830480     -2.16550611
O      -1.71064383     -1.87330990     -1.35317530
O      -1.11956233     -1.92192745     -3.46162750
H       1.68691823     -0.12216277     -0.42426908
H      -0.09714939     -0.06467498      0.04533839
H       0.73255241     -1.49135014      0.36685697
H       0.45057075     -0.15815841     -2.40887260
H       1.38701911     -1.55530572     -2.13910210
H      -0.40628035     -1.73225942     -4.08024249
11
Frame 150  Energy = -268.5560441460 Hartree
C       0.73124608     -0.64629756     -0.35352316
C       0.50515654     -1.04525349     -1.77046489
C      -0.83584796     -1.73846623     -2.16573048
O      -1.71160568     -1.87391635     -1.35375882
O      -1.11916072     -1.92400912     -3.45989017
H       1.69052868     -0.12366881     -0.41375014
H      -0.10389901     -0.07750363      0.05306234
H       0.73020939     -1.48386166      0.36553580
H       0.46198312     -0.14919273     -2.41245994
H       1.38712459     -1.56709613     -2.14317169
H      -0.40300950     -1.73165565     -4.07897957
11
Frame 155  Energy = -268.5562243391 Hartree
C       0.73013313     -0.64801799     -0.35491212
C       0.50568824     -1.04606994     -1.76927346
C      -0.83575934     -1.73815016     -2.16562593
O      -1.71255809     -1.87457000     -1.35435976
O      -1.11872542     -1.92620118     -3.45829874
H       1.69288817     -0.12522516     -0.40114046
H      -0.10956696     -0.08896689      0.05982196
H       0.72973261     -1.47631954      0.36258202
H       0.47353408     -0.14029606     -2.41525051
H       1.38634772     -1.57980850     -2.14765573
H      -0.39947119     -1.73065829     -4.07650363
11
Frame 160  Energy = -268.5562017953 Hartree
C       0.72892630     -0.64982516     -0.35609774
C       0.50620579     -1.04700067     -1.76846984
C      -0.83565875     -1.73743326     -2.16520270
O      -1.71348361     -1.87535332     -1.35497456
O      -1.11822465     -1.92841843     -3.45686626
H       1.69376825     -0.12648846     -0.38682695
H      -0.11448725     -0.09892119      0.06504375
H       0.73104777     -1.46939553      0.35836369
H       0.48550184     -0.13247580     -2.41683172
H       1.38452852     -1.59324506     -2.15226901
H      -0.39585767     -1.72969972     -4.07301701
11
Frame 165  Energy = -268.5563818212 Hartree
C       0.72772545     -0.65175168     -0.35701892
C       0.50669964     -1.04797407     -1.76816991
C      -0.83552785     -1.73640142     -2.16442719
O      -1.71431228     -1.87628199     -1.35562970
O      -1.11774732     -1.93061095     -3.45552996
H       1.69328185     -0.12758659     -0.37067854
H      -0.11835989     -0.10730073      0.06903282
H       0.73357973     -1.46341387      0.35344860
H       0.49784164     -0.12602254     -2.41704738
H       1.38180866     -1.60685296     -2.15687267
H      -0.39258153     -1.72856400     -4.06836849
11
Frame 170  Energy = -268.5562979990 Hartree
C       0.72650630     -0.65373010     -0.35770869
C       0.50712197     -1.04899206     -1.76844571
C      -0.83536306     -1.73499458     -2.16324918
O      -1.71513999     -1.87730597     -1.35629701
O      -1.11722549     -1.93285443     -3.45439023
H       1.69143025     -0.12849075     -0.35289006
H      -0.12153032     -0.11360438      0.07202905
H       0.73733681     -1.45938241      0.34808831
H       0.51016857     -0.12127554     -2.41595837
H       1.37780481     -1.62039414     -2.16145550
H      -0.38950923     -1.72735040     -4.06246800
11
Frame 175  Energy = -268.5564749816 Hartree
C       0.72521097     -0.65568149     -0.35825700
C       0.50744719     -1.05008372     -1.76925941
C      -0.83518904     -1.73324678     -2.16170873
O      -1.71587539     -1.87841447     -1.35700370
O      -1.11664553     -1.93520111     -3.45341108
H       1.68823653     -0.12912895     -0.33421294
H      -0.12420637     -0.11803494      0.07374413
H       0.74252297     -1.45772196      0.34285485
H       0.52260140     -0.11828577     -2.41363432
H       1.37245488     -1.63403211     -2.16571722
H      -0.38668883     -1.72597978     -4.05529719
11
Frame 180  Energy = -268.5564816570 Hartree
C       0.72384666     -0.65766852     -0.35861488
C       0.50778517     -1.05118463     -1.77062698
C      -0.83509768     -1.73121127     -2.15990787
O      -1.71653499     -1.87964432     -1.35779675
O      -1.11604747     -1.93755404     -3.45248678
H       1.68330948     -0.12975001     -0.31459376
H      -0.12639013     -0.12082835      0.07411843
H       0.74886090     -1.45884522      0.33814414
H       0.53477839     -0.11724468     -2.40987547
H       1.36567532     -1.64731727     -2.16938520
H      -0.38396731     -1.72472328     -4.04691474
11
Frame 185  Energy = -268.5566904867 Hartree
C       0.72236314     -0.65969088     -0.35873340
C       0.50819644     -1.05232343     -1.77255176
C      -0.83509048     -1.72890018     -2.15787429
O      -1.71718597     -1.88099340     -1.35860754
O      -1.11530654     -1.93986362     -3.45173470
H       1.67707815     -0.13011094     -0.29414377
H      -0.12769076     -0.12207498      0.07314399
H       0.75625486     -1.46275710      0.33449264
H       0.54663498     -0.11814443     -2.40456404
H       1.35734252     -1.65988370     -2.17230101
H      -0.38098812     -1.72365206     -4.03771633
11
Frame 190  Energy = -268.5566872207 Hartree
C       0.72083371     -0.66166187     -0.35861556
C       0.50859037     -1.05335923     -1.77495929
C      -0.83520287     -1.72633143     -2.15557154
O      -1.71778348     -1.88234917     -1.35937818
O      -1.11448985     -1.94215220     -3.45107537
H       1.66975689     -0.13008923     -0.27326777
H      -0.12796701     -0.12208815      0.07081868
H       0.76473253     -1.46947660      0.33138089
H       0.55824586     -0.12115241     -2.39778943
H       1.34739857     -1.67153488     -2.17464795
H      -0.37765099     -1.72252566     -4.02815964
11
Frame 195  Energy = -268.5566165308 Hartree
C       0.71917918     -0.66361001     -0.35838384
C       0.50899999     -1.05440661     -1.77790994
C      -0.83541228     -1.72342207     -2.15305105
O      -1.71832202     -1.88375756     -1.36021508
O      -1.11360862     -1.94449719     -3.45050181
H       1.66125153     -0.12940106     -0.25238798
H      -0.12761703     -0.12062244      0.06716342
H       0.77401589     -1.47890875      0.32867983
H       0.56932767     -0.12613113     -2.39044252
H       1.33596218     -1.68264282     -2.17644085
H      -0.37378250     -1.72130522     -4.01814744
11
Frame 200  Energy = -268.5565219219 Hartree
C       0.71753825     -0.66546205     -0.35801334
C       0.50947515     -1.05543626     -1.78130341
C      -0.83575100     -1.72029960     -2.15029455
O      -1.71873445     -1.88519994     -1.36106273
O      -1.11272027     -1.94687506     -3.45000112
H       1.65192692     -0.12795242     -0.23183936
H      -0.12657986     -0.11770585      0.06214477
H       0.78400307     -1.49080457      0.32644226
H       0.57992137     -0.13246162     -2.38263190
H       1.32311740     -1.69357653     -2.17750057
H      -0.36903516     -1.71983888     -4.00821392
11
Frame 205  Energy = -268.5567273473 Hartree
C       0.71591597     -0.66732315     -0.35740903
C       0.50994524     -1.05655740     -1.78494741
C      -0.83614394     -1.71689144     -2.14741883
O      -1.71907173     -1.88675618     -1.36187383
O      -1.11177012     -1.94931206     -3.44950061
H       1.64267444     -0.12567823     -0.21186463
H      -0.12514327     -0.11368763      0.05611445
H       0.79426236     -1.50471877      0.32438752
H       0.58989691     -0.13945723     -2.37471100
H       1.30954804     -1.70425184     -2.17834908
H      -0.36365837     -1.71811435     -3.99835424
11
Frame 210  Energy = -268.5567157764 Hartree
C       0.71424805     -0.66916021     -0.35653415
C       0.51047874     -1.05783279     -1.78885721
C      -0.83654594     -1.71323456     -2.14444519
O      -1.71934073     -1.88836501     -1.36251638
O      -1.11073394     -1.95170356     -3.44898681
H       1.63354213     -0.12250483     -0.19244801
H      -0.12385466     -0.10895276      0.04924326
H       0.80447434     -1.51989339      0.32190493
H       0.59936973     -0.14709048     -2.36734299
H       1.29541048     -1.71476074     -2.17866548
H      -0.35769963     -1.71649099     -3.98902375
11
Frame 215  Energy = -268.5565022486 Hartree
C       0.71252443     -0.67109910     -0.35538346
C       0.51099753     -1.05919998     -1.79299967
C      -0.83696241     -1.70936896     -2.14139177
O      -1.71960192     -1.89004466     -1.36305815
O      -1.10957431     -1.95401695     -3.44848781
H       1.62458270     -0.11866005     -0.17380059
H      -0.12237249     -0.10377982      0.04160112
H       0.81475879     -1.53579847      0.31841825
H       0.60837904     -0.15453353     -2.36143454
H       1.28139246     -1.72516313     -2.17861371
H      -0.35133903     -1.71485155     -3.98062533
11
Frame 220  Energy = -268.5564885544 Hartree
C       0.71074628     -0.67324003     -0.35386032
C       0.51147907     -1.06073599     -1.79727801
C      -0.83748076     -1.70539669     -2.13816101
O      -1.71989067     -1.89180492     -1.36339111
O      -1.10838684     -1.95639991     -3.44800614
H       1.61619291     -0.11403855     -0.15600273
H      -0.12088999     -0.09813966      0.03391114
H       0.82479798     -1.55163699      0.31390141
H       0.61708688     -0.16111832     -2.35733710
H       1.26790447     -1.73587786     -2.17805786
H      -0.34444384     -1.71329098     -3.97314309
11
Frame 225  Energy = -268.5562455652 Hartree
C       0.70898845     -0.67569221     -0.35205717
C       0.51186337     -1.06237778     -1.80156590
C      -0.83802002     -1.70133878     -2.13487178
O      -1.72012910     -1.89356661     -1.36358121
O      -1.10710374     -1.95885906     -3.44750516
H       1.60855292     -0.10904300     -0.13918705
H      -0.11969167     -0.09261616      0.02589926
H       0.83398967     -1.56675125      0.30814650
H       0.62517280     -0.16613917     -2.35531985
H       1.25501100     -1.74718625     -2.17754706
H      -0.33693727     -1.71147771     -3.96619277
11
Frame 230  Energy = -268.5566163793 Hartree
C       0.70724619     -0.67846977     -0.35005060
C       0.51217202     -1.06404251     -1.80578569
C      -0.83864099     -1.69708035     -2.13164380
O      -1.72035633     -1.89534906     -1.36357393
O      -1.10571788     -1.96126964     -3.44688803
H       1.60152999     -0.10326716     -0.12370002
H      -0.11925190     -0.08717728      0.01769130
H       0.84210857     -1.58073871      0.30085003
H       0.63283227     -0.16923863     -2.35581392
H       1.24357964     -1.75889045     -2.17696580
H      -0.32923997     -1.70962494     -3.96009951
11
Frame 235  Energy = -268.5566048421 Hartree
C       0.70562202     -0.68144337     -0.34778393
C       0.51237775     -1.06578050     -1.80981287
C      -0.83934095     -1.69255238     -2.12846417
O      -1.72058083     -1.89712534     -1.36327631
O      -1.10416454     -1.96363187     -3.44625639
H       1.59499753     -0.09717323     -0.10991246
H      -0.11937029     -0.08198409      0.00936543
H       0.84900618     -1.59319560      0.29263859
H       0.64011212     -0.17015909     -2.35905252
H       1.23384061     -1.77151790     -2.17628074
H      -0.32173811     -1.70801545     -3.95481497
11
Frame 240  Energy = -268.5564656237 Hartree
C       0.70413020     -0.68460164     -0.34529388
C       0.51255975     -1.06761700     -1.81365817
C      -0.84018551     -1.68787682     -2.12535379
O      -1.72078842     -1.89890136     -1.36291924
O      -1.10246277     -1.96594331     -3.44562690
H       1.58875715     -0.09118994     -0.09750188
H      -0.12016878     -0.07720911      0.00123000
H       0.85430545     -1.60393879      0.28330567
H       0.64696120     -0.16918580     -2.36518162
H       1.22573526     -1.78499342     -2.17581081
H      -0.31481046     -1.70673710     -3.94977548
11
Frame 245  Energy = -268.5566138198 Hartree
C       0.70272794     -0.68794496     -0.34267089
C       0.51259242     -1.06954503     -1.81724548
C      -0.84110375     -1.68315356     -2.12242377
O      -1.72095514     -1.90068381     -1.36241096
O      -1.10055983     -1.96820760     -3.44502105
H       1.58274337     -0.08512440     -0.08689701
H      -0.12188683     -0.07314049     -0.00658101
H       0.85779686     -1.61276919      0.27287230
H       0.65356745     -0.16659790     -2.37410221
H       1.21897910     -1.79903669     -2.17578750
H      -0.30864767     -1.70584709     -3.94488426
11
Frame 250  Energy = -268.5568912803 Hartree
C       0.70155012     -0.69148193     -0.33988572
C       0.51258348     -1.07151083     -1.82054962
C      -0.84218208     -1.67850411     -2.11966445
O      -1.72110495     -1.90252917     -1.36174346
O      -1.09844895     -1.97037621     -3.44439460
H       1.57689538     -0.07944482     -0.07858967
H      -0.12411637     -0.07013125     -0.01391312
H       0.85947266     -1.61947696      0.26118897
H       0.65997867     -0.16313846     -2.38523994
H       1.21355162     -1.81334417     -2.17547502
H      -0.30389945     -1.70535217     -3.94026494
11
Frame 255  Energy = -268.5570187101 Hartree
C       0.70055741     -0.69514368     -0.33693787
C       0.51257619     -1.07329123     -1.82366570
C      -0.84338025     -1.67386428     -2.11710803
O      -1.72128913     -1.90446286     -1.36089007
O      -1.09608502     -1.97249085     -3.44374016
H       1.57127957     -0.07442564     -0.07236309
H      -0.12706107     -0.06803416     -0.02098700
H       0.85939336     -1.62455353      0.24919932
H       0.66632656     -0.15962346     -2.39755852
H       1.20938095     -1.82769155     -2.17480626
H      -0.30034441     -1.70537290     -3.93580880
11
Frame 260  Energy = -268.5571538109 Hartree
C       0.69972082     -0.69888439     -0.33394760
C       0.51257081     -1.07491454     -1.82661654
C      -0.84477971     -1.66925288     -2.11479607
O      -1.72160123     -1.90643897     -1.35983300
O      -1.09345327     -1.97446322     -3.44294304
H       1.56574803     -0.07029579     -0.06837887
H      -0.13075444     -0.06763924     -0.02769562
H       0.85786104     -1.62819664      0.23712877
H       0.67253388     -0.15678417     -2.41063352
H       1.20636466     -1.84155695     -2.17374324
H      -0.29778331     -1.70576840     -3.93126979
11
Frame 265  Energy = -268.5570535793 Hartree
C       0.69905661     -0.70269099     -0.33107356
C       0.51259004     -1.07630261     -1.82934543
C      -0.84633755     -1.66469198     -2.11275927
O      -1.72195705     -1.90851357     -1.35864466
O      -1.09067336     -1.97630932     -3.44204775
H       1.56018250     -0.06718138     -0.06661886
H      -0.13503075     -0.06859346     -0.03348833
H       0.85477292     -1.63043723      0.22511774
H       0.67826949     -0.15504799     -2.42428406
H       1.20407335     -1.85487774     -2.17217425
H      -0.29604612     -1.70636697     -3.92686894
11
Frame 270  Energy = -268.5567372771 Hartree
C       0.69841478     -0.70656963     -0.32826594
C       0.51275369     -1.07758307     -1.83191650
C      -0.84806648     -1.66014213     -2.11102676
O      -1.72227652     -1.91061046     -1.35723602
O      -1.08765729     -1.97810239     -3.44109032
H       1.55510274     -0.06486134     -0.06700004
H      -0.13966611     -0.07106881     -0.03818113
H       0.85036829     -1.63166656      0.21380635
H       0.68355604     -0.15488724     -2.43832295
H       1.20202627     -1.86751729     -2.17001991
H      -0.29500960     -1.70730536     -3.92277778
11
Frame 275  Energy = -268.5566642944 Hartree
C       0.69776461     -0.71043865     -0.32561721
C       0.51321407     -1.07872255     -1.83431913
C      -0.84992721     -1.65561285     -2.10966137
O      -1.72255271     -1.91276576     -1.35560575
O      -1.08442854     -1.97985127     -3.44001712
H       1.55018065     -0.06373990     -0.06947834
H      -0.14465333     -0.07532721     -0.04213580
H       0.84469084     -1.63284164      0.20345959
H       0.68793060     -0.15688980     -2.45198057
H       1.20029591     -1.87927307     -2.16718625
H      -0.29421050     -1.70869060     -3.91915995
11
Frame 280  Energy = -268.5565679205 Hartree
C       0.69709833     -0.71424266     -0.32321886
C       0.51388839     -1.07975649     -1.83662668
C      -0.85188423     -1.65116279     -2.10869472
O      -1.72285040     -1.91492616     -1.35378245
O      -1.08110176     -1.98159205     -3.43891428
H       1.54550400     -0.06367635     -0.07397161
H      -0.15004817     -0.08137613     -0.04506728
H       0.83774571     -1.63440345      0.19468112
H       0.69161878     -0.16128950     -2.46477007
H       1.19861414     -1.88975088     -2.16358551
H      -0.29348012     -1.71032976     -3.91610939
11
Frame 285  Energy = -268.5564440032 Hartree
C       0.69643139     -0.71791098     -0.32112668
C       0.51478464     -1.08060666     -1.83890566
C      -0.85402053     -1.64680721     -2.10800430
O      -1.72316269     -1.91699919     -1.35182727
O      -1.07772834     -1.98329256     -3.43777255
H       1.54122100     -0.06473556     -0.08012209
H      -0.15582166     -0.08957311     -0.04705802
H       0.82959033     -1.63685591      0.18799153
H       0.69484532     -0.16818256     -2.47678414
H       1.19658875     -1.89860610     -2.15927856
H      -0.29249644     -1.71223617     -3.91417293
11
Frame 290  Energy = -268.5562898423 Hartree
C       0.69564054     -0.72140921     -0.31937639
C       0.51584964     -1.08133775     -1.84113248
C      -0.85623610     -1.64250138     -2.10758950
O      -1.72355339     -1.91899880     -1.34980481
O      -1.07428384     -1.98494983     -3.43652434
H       1.53770236     -0.06651962     -0.08750177
H      -0.16207128     -0.09952645     -0.04832055
H       0.82025010     -1.64067019      0.18341749
H       0.69760655     -0.17774194     -2.48777999
H       1.19404197     -1.90595097     -2.15418636
H      -0.29108560     -1.71413721     -3.91355759
11
Frame 295  Energy = -268.5562771487 Hartree
C       0.69474097     -0.72469244     -0.31799464
C       0.51702133     -1.08172872     -1.84327221
C      -0.85856384     -1.63828476     -2.10743957
O      -1.72397262     -1.92104527     -1.34765785
O      -1.07076436     -1.98660118     -3.43507172
H       1.53481159     -0.06891401     -0.09579309
H      -0.16853470     -0.11119359     -0.04871096
H       0.81010822     -1.64621055      0.18095954
H       0.69978751     -0.19016618     -2.49771495
H       1.19116307     -1.91130369     -2.14848080
H      -0.28922354     -1.71589394     -3.91447524
11
Frame 300  Energy = -268.5563209284 Hartree
C       0.69379914     -0.72773564     -0.31700549
C       0.51838160     -1.08192782     -1.84519297
C      -0.86105415     -1.63434760     -2.10757126
O      -1.72446682     -1.92295932     -1.34539431
O      -1.06720613     -1.98815363     -3.43356970
H       1.53258219     -0.07214771     -0.10500498
H      -0.17492294     -0.12456399     -0.04783853
H       0.79927503     -1.65346562      0.18091946
H       0.70143666     -0.20454278     -2.50624763
H       1.18798974     -1.91509387     -2.14244523
H      -0.28680282     -1.71761207     -3.91637585
