11
Frame 5  Energy = -268.5616334073 Hartree
C       0.69550511     -0.60455006     -0.45467204
C       0.46055298     -0.88890713     -1.93677326
C      -0.86792976     -1.54515141     -2.13361446
O      -1.64994789     -1.87939309     -1.29707131
O      -1.13623794     -1.85369647     -3.41553016
H       1.73877477     -0.32653836     -0.30952948
H      -0.01307318      0.04922277      0.00846407
H       0.44549101     -1.49749883      0.17804079
H       0.56678429      0.01893318     -2.51429387
H       1.11834951     -1.60539114     -2.42913134
H      -0.46553258     -1.48157100     -4.00038380
11
Frame 10  Energy = -268.5618321397 Hartree
C       0.69324513     -0.60523397     -0.45803773
C       0.46190632     -0.88997483     -1.93689216
C      -0.86905520     -1.54187929     -2.12971768
O      -1.65115194     -1.88117098     -1.29865208
O      -1.13413213     -1.85482848     -3.41497432
H       1.74129725     -0.32918179     -0.31077060
H      -0.01193038      0.04348604      0.01936323
H       0.45008028     -1.49640341      0.18102945
H       0.57247760      0.02247057     -2.52083177
H       1.11772588     -1.61862086     -2.42272924
H      -0.45462302     -1.47893598     -3.99256817
11
Frame 15  Energy = -268.5618783304 Hartree
C       0.69111304     -0.60626408     -0.46120644
C       0.46316690     -0.89111951     -1.93682710
C      -0.87023521     -1.53873390     -2.12598351
O      -1.65235904     -1.88287837     -1.30019354
O      -1.13199471     -1.85596864     -3.41458790
H       1.74304576     -0.33157514     -0.31136286
H      -0.01112642      0.04061709      0.02890781
H       0.45650610     -1.49477641      0.18200379
H       0.57787386      0.02577627     -2.52749824
H       1.11847071     -1.63140065     -2.41476434
H      -0.44426505     -1.47677589     -3.98442762
11
Frame 20  Energy = -268.5619614136 Hartree
C       0.68909404     -0.60778283     -0.46404378
C       0.46437727     -0.89222964     -1.93675011
C      -0.87136246     -1.53556216     -2.12234265
O      -1.65366485     -1.88461909     -1.30154848
O      -1.12988778     -1.85709331     -3.41437889
H       1.74356217     -0.33371886     -0.31140434
H      -0.01088992      0.04028592      0.03712838
H       0.46485118     -1.49264021      0.18058632
H       0.58293252      0.02880990     -2.53408309
H       1.12035520     -1.64305856     -2.40547546
H      -0.43455273     -1.47488293     -3.97604231
11
Frame 25  Energy = -268.5619246278 Hartree
C       0.68719721     -0.60967693     -0.46655334
C       0.46552707     -0.89324235     -1.93667066
C      -0.87254631     -1.53246577     -2.11890482
O      -1.65503130     -1.88638336     -1.30265369
O      -1.12780454     -1.85817547     -3.41428520
H       1.74255807     -0.33557249     -0.31091887
H      -0.01099185      0.04252539      0.04377771
H       0.47467119     -1.48995843      0.17679484
H       0.58737957      0.03115208     -2.54056271
H       1.12288408     -1.65380601     -2.39488983
H      -0.42600561     -1.47362730     -3.96758994
11
Frame 30  Energy = -268.5620247360 Hartree
C       0.68550637     -0.61186687     -0.46868866
C       0.46662357     -0.89409705     -1.93650333
C      -0.87377610     -1.52949501     -2.11575135
O      -1.65644479     -1.88823579     -1.30355183
O      -1.12567457     -1.85921557     -3.41429107
H       1.74040304     -0.33676931     -0.31040267
H      -0.01114064      0.04709102      0.04885431
H       0.48584987     -1.48730444      0.17070869
H       0.59130977      0.03248471     -2.54660279
H       1.12615579     -1.66335925     -2.38296208
H      -0.41838117     -1.47325078     -3.95904832
11
Frame 35  Energy = -268.5620146182 Hartree
C       0.68413358     -0.61434748     -0.47049273
C       0.46765087     -0.89488620     -1.93628519
C      -0.87506654     -1.52668673     -2.11291804
O      -1.65785358     -1.89010722     -1.30419978
O      -1.12356072     -1.86019454     -3.41442038
H       1.73715586     -0.33716897     -0.30940913
H      -0.01082922      0.05340594      0.05224866
H       0.49844080     -1.48532219      0.16273726
H       0.59448413      0.03233707     -2.55181705
H       1.13011559     -1.67157794     -2.36986574
H      -0.41141521     -1.47385746     -3.95036457
11
Frame 40  Energy = -268.5622416922 Hartree
C       0.68295813     -0.61694030     -0.47196059
C       0.46859067     -0.89564903     -1.93608094
C      -0.87632474     -1.52410786     -2.11052661
O      -1.65937568     -1.89189229     -1.30458857
O      -1.12145633     -1.86112501     -3.41471082
H       1.73269649     -0.33708377     -0.30782218
H      -0.00982358      0.06100826      0.05344794
H       0.51193520     -1.48426142      0.15338445
H       0.59699906      0.03053077     -2.55608325
H       1.13427566     -1.67810253     -2.35562531
H      -0.40510328     -1.47507888     -3.94168782
11
Frame 45  Energy = -268.5621744217 Hartree
C       0.68187550     -0.61951795     -0.47308776
C       0.46946228     -0.89620974     -1.93575364
C      -0.87758266     -1.52175567     -2.10849448
O      -1.66088244     -1.89359955     -1.30475545
O      -1.11930658     -1.86198259     -3.41505095
H       1.72691863     -0.33619678     -0.30610512
H      -0.00771520      0.06956228      0.05230770
H       0.52579253     -1.48470082      0.14308475
H       0.59891257      0.02664677     -2.55914576
H       1.13878259     -1.68298915     -2.34034497
H      -0.39943339     -1.47678107     -3.93309568
11
Frame 50  Energy = -268.5621590493 Hartree
C       0.68086322     -0.62210242     -0.47397027
C       0.47029178     -0.89658038     -1.93527670
C      -0.87897926     -1.51965164     -2.10681772
O      -1.66245988     -1.89527515     -1.30481509
O      -1.11712244     -1.86275893     -3.41537387
H       1.72039161     -0.33479836     -0.30428132
H      -0.00439951      0.07862169      0.04888297
H       0.54000538     -1.48713397      0.13239882
H       0.60082941      0.02080942     -2.56107563
H       1.14321735     -1.68637100     -2.32413895
H      -0.39441983     -1.47876806     -3.92487645
11
Frame 55  Energy = -268.5620279587 Hartree
C       0.68007652     -0.62448776     -0.47469387
C       0.47107907     -0.89694609     -1.93471493
C      -0.88052403     -1.51772045     -2.10556771
O      -1.66416898     -1.89683309     -1.30482583
O      -1.11498692     -1.86337505     -3.41564552
H       1.71341563     -0.33287006     -0.30260780
H      -0.00024476      0.08793935      0.04335643
H       0.55433452     -1.49236279      0.12181909
H       0.60288844      0.01292159     -2.56213057
H       1.14748241     -1.68824576     -2.30687249
H      -0.38982611     -1.48104128     -3.91737042
11
Frame 60  Energy = -268.5619481595 Hartree
C       0.67946518     -0.62662997     -0.47522538
C       0.47191582     -0.89727650     -1.93416597
C      -0.88212674     -1.51601541     -2.10466618
O      -1.66586060     -1.89835047     -1.30472250
O      -1.11279432     -1.86392687     -3.41583520
H       1.70655866     -0.33032359     -0.30065045
H       0.00472960      0.09683538      0.03535787
H       0.56833349     -1.50017327      0.11167089
H       0.60455178      0.00327617     -2.56234603
H       1.15184233     -1.68889871     -2.28897930
H      -0.38506854     -1.48343864     -3.91107937
11
Frame 65  Energy = -268.5619389830 Hartree
C       0.67893656     -0.62850945     -0.47561350
C       0.47264683     -0.89747624     -1.93357963
C      -0.88377558     -1.51446310     -2.10413815
O      -1.66759242     -1.89983447     -1.30439881
O      -1.11063805     -1.86441294     -3.41595571
H       1.70053055     -0.32683887     -0.29843441
H       0.01076539      0.10527512      0.02481060
H       0.58178435     -1.51065124      0.10238925
H       0.60588440     -0.00774631     -2.56163748
H       1.15644633     -1.68850147     -2.27067793
H      -0.38007137     -1.48584963     -3.90615380
11
Frame 70  Energy = -268.5619718190 Hartree
C       0.67848130     -0.63007529     -0.47577014
C       0.47325568     -0.89760106     -1.93279569
C      -0.88540955     -1.51322736     -2.10405821
O      -1.66934491     -1.90128697     -1.30394452
O      -1.10848888     -1.86488456     -3.41610989
H       1.69508101     -0.32213970     -0.29609636
H       0.01766094      0.11315558      0.01181584
H       0.59429536     -1.52343658      0.09438638
H       0.60720319     -0.01917902     -2.56042572
H       1.16108717     -1.68682362     -2.25223827
H      -0.37440474     -1.48839860     -3.90282164
11
Frame 75  Energy = -268.5619049467 Hartree
C       0.67817365     -0.63131985     -0.47564471
C       0.47370640     -0.89778108     -1.93187538
C      -0.88705842     -1.51232575     -2.10435018
O      -1.67107877     -1.90262257     -1.30335070
O      -1.10641420     -1.86533932     -3.41623487
H       1.69051339     -0.31641669     -0.29363687
H       0.02503631      0.12017110     -0.00309572
H       0.60617138     -1.53818962      0.08762596
H       0.60855529     -0.03070924     -2.55925344
H       1.16616697     -1.68436884     -2.23415457
H      -0.36841105     -1.49110223     -3.90118438
11
Frame 80  Energy = -268.5618098681 Hartree
C       0.67806303     -0.63226706     -0.47524702
C       0.47409629     -0.89800752     -1.93076548
C      -0.88868733     -1.51182373     -2.10500360
O      -1.67281868     -1.90394401     -1.30257332
O      -1.10434173     -1.86576442     -3.41638260
H       1.68726612     -0.30986230     -0.29117530
H       0.03270875      0.12651458     -0.01955229
H       0.61722792     -1.55388042      0.08129645
H       0.61020696     -0.04175616     -2.55891035
H       1.17128830     -1.68143605     -2.21635102
H      -0.36239179     -1.49412789     -3.90139036
11
Frame 85  Energy = -268.5618623408 Hartree
C       0.67809386     -0.63315168     -0.47457179
C       0.47436616     -0.89827292     -1.92939317
C      -0.89027147     -1.51158187     -2.10595333
O      -1.67455763     -1.90522164     -1.30166191
O      -1.10222275     -1.86617463     -3.41649964
H       1.68510203     -0.30237439     -0.28872919
H       0.04028855      0.13204127     -0.03660529
H       0.62740461     -1.56976764      0.07555779
H       0.61187212     -0.05187349     -2.55964871
H       1.17639293     -1.67848189     -2.19956565
H      -0.35645740     -1.49762849     -3.90346345
11
Frame 90  Energy = -268.5621625481 Hartree
C       0.67829359     -0.63410647     -0.47362619
C       0.47460693     -0.89872020     -1.92773709
C      -0.89189438     -1.51165329     -2.10714133
O      -1.67631531     -1.90637473     -1.30066823
O      -1.10006201     -1.86645742     -3.41657705
H       1.68427561     -0.29404804     -0.28619592
H       0.04689602      0.13664318     -0.05374115
H       0.63638713     -1.58509931      0.07034199
H       0.61378226     -0.06012510     -2.56169437
H       1.18179760     -1.67582186     -2.18402869
H      -0.35110969     -1.50166234     -3.90663318
11
Frame 95  Energy = -268.5620985381 Hartree
C       0.67864798     -0.63507384     -0.47250478
C       0.47477907     -0.89942088     -1.92582900
C      -0.89366869     -1.51211712     -2.10855858
O      -1.67803221     -1.90740223     -1.29952411
O      -1.09792757     -1.86661337     -3.41660250
H       1.68488702     -0.28539108     -0.28411992
H       0.05242905      0.14092365     -0.07070815
H       0.64397682     -1.59935685      0.06548854
H       0.61626103     -0.06613504     -2.56517686
H       1.18747978     -1.67337648     -2.16991700
H      -0.34650183     -1.50607819     -3.91053275
11
Frame 100  Energy = -268.5621069212 Hartree
C       0.67928089     -0.63609378     -0.47113251
C       0.47478480     -0.90023929     -1.92356604
C      -0.89542646     -1.51288764     -2.11035633
O      -1.67961955     -1.90837568     -1.29838013
O      -1.09582871     -1.86667910     -3.41667586
H       1.68649940     -0.27641555     -0.28205142
H       0.05664893      0.14490240     -0.08729096
H       0.65010741     -1.61193626      0.06079602
H       0.61904432     -0.06973362     -2.57055636
H       1.19382524     -1.67155193     -2.15723400
H      -0.34269678     -1.51095442     -3.91500616
11
Frame 105  Energy = -268.5620589374 Hartree
C       0.68021223     -0.63714835     -0.46961612
C       0.47456432     -0.90117716     -1.92097019
C      -0.89724139     -1.51408015     -2.11235096
O      -1.68116609     -1.90929222     -1.29720350
O      -1.09377589     -1.86658964     -3.41674720
H       1.68855095     -0.26708857     -0.28035183
H       0.05899823      0.14852944     -0.10274398
H       0.65456017     -1.62209997      0.05648379
H       0.62236596     -0.07133895     -2.57715648
H       1.20048622     -1.67057207     -2.14606004
H      -0.33958496     -1.51641302     -3.91993425
11
Frame 110  Energy = -268.5618524137 Hartree
C       0.68133924     -0.63828156     -0.46789377
C       0.47414314     -0.90217618     -1.91815983
C      -0.89906669     -1.51567533     -2.11453062
O      -1.68277343     -1.91019180     -1.29600519
O      -1.09175323     -1.86636994     -3.41696439
H       1.69077577     -0.25785123     -0.27913470
H       0.05892553      0.15224827     -0.11711345
H       0.65771170     -1.62936736      0.05216928
H       0.62581263     -0.07148610     -2.58472616
H       1.20758506     -1.67049395     -2.13633887
H      -0.33720146     -1.52220383     -3.92506095
11
Frame 115  Energy = -268.5616958934 Hartree
C       0.68282177     -0.63956942     -0.46592376
C       0.47363299     -0.90321355     -1.91514783
C      -0.90074359     -1.51763628     -2.11686340
O      -1.68445105     -1.91099842     -1.29488733
O      -1.08971790     -1.86610539     -3.41736080
H       1.69322971     -0.24898326     -0.27866349
H       0.05626221      0.15598449     -0.12991940
H       0.65975879     -1.63387547      0.04788174
H       0.62928684     -0.07080440     -2.59260965
H       1.21521932     -1.67091390     -2.12840136
H      -0.33572163     -1.52842220     -3.93008361
11
Frame 120  Energy = -268.5617069555 Hartree
C       0.68479216     -0.64099311     -0.46373348
C       0.47307051     -0.90435264     -1.91213455
C      -0.90237243     -1.51987069     -2.11941659
O      -1.68608763     -1.91169999     -1.29382047
O      -1.08768429     -1.86581162     -3.41788026
H       1.69521515     -0.24054510     -0.27875465
H       0.05144037      0.15939196     -0.14075812
H       0.66065969     -1.63556079      0.04380309
H       0.63285849     -0.06953179     -2.60023845
H       1.22276513     -1.67152654     -2.12241896
H      -0.33560626     -1.53530841     -3.93448681
11
Frame 125  Energy = -268.5617846799 Hartree
C       0.68723181     -0.64254787     -0.46131588
C       0.47254546     -0.90559872     -1.90899145
C      -0.90395568     -1.52246282     -2.12205682
O      -1.68754199     -1.91233912     -1.29271894
O      -1.08574035     -1.86547361     -3.41849818
H       1.69712057     -0.23296224     -0.27929233
H       0.04462806      0.16231708     -0.14944620
H       0.66040685     -1.63413714      0.04011190
H       0.63618796     -0.06846975     -2.60688862
H       1.22952074     -1.67249589     -2.11842789
H      -0.33622879     -1.54237215     -3.93852095
11
Frame 130  Energy = -268.5618628886 Hartree
C       0.68999994     -0.64401534     -0.45872545
C       0.47210019     -0.90693498     -1.90581851
C      -0.90539462     -1.52538841     -2.12471649
O      -1.68884561     -1.91284011     -1.29166686
O      -1.08392992     -1.86508283     -3.41917804
H       1.69821683     -0.22593694     -0.28034276
H       0.03611415      0.16444041     -0.15604635
H       0.65890761     -1.63001768      0.03695399
H       0.63932283     -0.06765260     -2.61246302
H       1.23512528     -1.67361078     -2.11613074
H      -0.33733473     -1.54930802     -3.94273912
11
Frame 135  Energy = -268.5619439902 Hartree
C       0.69303862     -0.64521966     -0.45610917
C       0.47174745     -0.90832753     -1.90271339
C      -0.90663578     -1.52857994     -2.12736122
O      -1.68999489     -1.91323738     -1.29064638
O      -1.08231259     -1.86472043     -3.41986349
H       1.69825862     -0.21953964     -0.28214922
H       0.02638571      0.16571730     -0.16090940
H       0.65592082     -1.62375696      0.03480656
H       0.64190948     -0.06731114     -2.61695375
H       1.23981717     -1.67465811     -2.11558311
H      -0.33856596     -1.55609767     -3.94697371
11
Frame 140  Energy = -268.5618699056 Hartree
C       0.69637708     -0.64614952     -0.45341971
C       0.47158341     -0.90991087     -1.89965815
C      -0.90770895     -1.53201803     -2.12987789
O      -1.69102641     -1.91352722     -1.28975404
O      -1.08079740     -1.86439150     -3.42062938
H       1.69766748     -0.21402928     -0.28448967
H       0.01591441      0.16539849     -0.16408556
H       0.65158707     -1.61602236      0.03414645
H       0.64401523     -0.06812930     -2.61970610
H       1.24355899     -1.67515628     -2.11696474
H      -0.33969562     -1.56277265     -3.95103856
11
Frame 145  Energy = -268.5618166065 Hartree
C       0.69990730     -0.64673732     -0.45058437
C       0.47156267     -0.91164692     -1.89673707
C      -0.90866042     -1.53569474     -2.13223316
O      -1.69186583     -1.91367800     -1.28894724
O      -1.07949823     -1.86414069     -3.42148334
H       1.69695037     -0.20960456     -0.28715549
H       0.00506694      0.16300225     -0.16574622
H       0.64594554     -1.60706686      0.03489689
H       0.64522513     -0.07041550     -2.62055292
H       1.24579824     -1.67510857     -2.12017729
H      -0.34043024     -1.56917690     -3.95520841
11
Frame 150  Energy = -268.5619656352 Hartree
C       0.70351641     -0.64677489     -0.44772082
C       0.47172879     -0.91355018     -1.89401904
C      -0.90946130     -1.53957504     -2.13444304
O      -1.69246625     -1.91373839     -1.28830830
O      -1.07838799     -1.86398769     -3.42245215
H       1.69605030     -0.20601718     -0.28996814
H      -0.00562256      0.15887264     -0.16612471
H       0.63950082     -1.59750749      0.03761027
H       0.64575641     -0.07393723     -2.61935135
H       1.24649073     -1.67465484     -2.12482905
H      -0.34077182     -1.57522667     -3.95947855
11
Frame 155  Energy = -268.5619063940 Hartree
C       0.70719782     -0.64640605     -0.44491134
C       0.47196406     -0.91559509     -1.89149776
C      -0.91006622     -1.54360154     -2.13650774
O      -1.69292312     -1.91371576     -1.28789121
O      -1.07754286     -1.86386407     -3.42355436
H       1.69485051     -0.20298805     -0.29283034
H      -0.01597492      0.15271585     -0.16513115
H       0.63218037     -1.58796694      0.04234415
H       0.64559400     -0.07859085     -2.61602447
H       1.24574536     -1.67417728     -2.13100537
H      -0.34036556     -1.58098255     -3.96354666
11
Frame 160  Energy = -268.5620825573 Hartree
C       0.71090637     -0.64557729     -0.44221742
C       0.47227837     -0.91770923     -1.88919645
C      -0.91049966     -1.54776670     -2.13848568
O      -1.69324538     -1.91347621     -1.28776872
O      -1.07689789     -1.86375371     -3.42480501
H       1.69374091     -0.20054878     -0.29547339
H      -0.02541516      0.14435210     -0.16276224
H       0.62444112     -1.57934471      0.04940979
H       0.64491954     -0.08436392     -2.61048501
H       1.24361509     -1.67330514     -2.13884804
H      -0.33911067     -1.58648209     -3.96766650
11
Frame 165  Energy = -268.5622718520 Hartree
C       0.71445458     -0.64419077     -0.43965632
C       0.47270321     -0.91997282     -1.88715359
C      -0.91084548     -1.55203895     -2.14014476
O      -1.69346161     -1.91304851     -1.28782914
O      -1.07640943     -1.86371342     -3.42618300
H       1.69276007     -0.19875938     -0.29778406
H      -0.03404678      0.13385966     -0.15895097
H       0.61649626     -1.57181200      0.05843584
H       0.64338162     -0.09124868     -2.60279740
H       1.23980199     -1.67203474     -2.14780291
H      -0.33708378     -1.59178944     -3.97181024
11
Frame 170  Energy = -268.5622856479 Hartree
C       0.71780881     -0.64228707     -0.43719651
C       0.47316907     -0.92236767     -1.88520059
C      -0.91098280     -1.55641747     -2.14158607
O      -1.69363399     -1.91246631     -1.28794921
O      -1.07608993     -1.86375404     -3.42767815
H       1.69227604     -0.19769725     -0.29993193
H      -0.04165647      0.12139029     -0.15380960
H       0.60813637     -1.56614142      0.06985981
H       0.64088499     -0.09842388     -2.59375148
H       1.23464939     -1.67050080     -2.15770304
H      -0.33444662     -1.59695768     -3.97592952
11
Frame 175  Energy = -268.5620068106 Hartree
C       0.72092045     -0.64000230     -0.43484924
C       0.47376728     -0.92491046     -1.88341634
C      -0.91088807     -1.56090747     -2.14275219
O      -1.69373274     -1.91180597     -1.28821819
O      -1.07606339     -1.86392216     -3.42929469
H       1.69233843     -0.19679816     -0.30179381
H      -0.04824357      0.10722659     -0.14775413
H       0.59961399     -1.56138766      0.08379977
H       0.63758258     -0.10527761     -2.58398321
H       1.22869591     -1.66894183     -2.16896985
H      -0.33124329     -1.60171824     -3.97964778
11
Frame 180  Energy = -268.5619668222 Hartree
C       0.72386620     -0.63735927     -0.43265212
C       0.47432038     -0.92767664     -1.88166609
C      -0.91052599     -1.56559493     -2.14371266
O      -1.69371581     -1.91113227     -1.28868549
O      -1.07629114     -1.86413574     -3.43104701
H       1.69314314     -0.19580644     -0.30338936
H      -0.05371286      0.09164071     -0.14073964
H       0.59120601     -1.55709684      0.09964893
H       0.63368736     -0.11125718     -2.57343166
H       1.22235870     -1.66762634     -2.18099933
H      -0.32728990     -1.60624080     -3.98314064
11
Frame 185  Energy = -268.5617583512 Hartree
C       0.72655387     -0.63450597     -0.43056118
C       0.47481973     -0.93069144     -1.87998526
C      -0.90998426     -1.57033980     -2.14435114
O      -1.69359818     -1.91042291     -1.28936018
O      -1.07668845     -1.86447577     -3.43295369
H       1.69490557     -0.19482304     -0.30443798
H      -0.05814777      0.07510486     -0.13293437
H       0.58304231     -1.55300775      0.11707381
H       0.62963596     -0.11596193     -2.56261480
H       1.21541298     -1.66666407     -2.19356361
H      -0.32327371     -1.61067079     -3.98586987
11
Frame 190  Energy = -268.5618314531 Hartree
C       0.72900990     -0.63146372     -0.42851378
C       0.47515877     -0.93392533     -1.87834634
C      -0.90924245     -1.57512126     -2.14478269
O      -1.69349302     -1.90959152     -1.29020351
O      -1.07731529     -1.86486824     -3.43506695
H       1.69780561     -0.19375955     -0.30467515
H      -0.06144407      0.05833723     -0.12437625
H       0.57531018     -1.54865291      0.13525289
H       0.62529731     -0.11890399     -2.55203829
H       1.20841881     -1.66629780     -2.20656419
H      -0.31971682     -1.61545881     -3.98754219
11
Frame 195  Energy = -268.5617415167 Hartree
C       0.73126041     -0.62833480     -0.42640452
C       0.47531883     -0.93737608     -1.87660416
C      -0.90818263     -1.57988110     -2.14496827
O      -1.69342544     -1.90863376     -1.29120182
O      -1.07812692     -1.86521234     -3.43731996
H       1.70198010     -0.19247141     -0.30386870
H      -0.06387997      0.04218564     -0.11508838
H       0.56833095     -1.54414047      0.15388453
H       0.62054494     -0.11996446     -2.54213363
H       1.20188608     -1.66626611     -2.21972297
H      -0.31668078     -1.61993250     -3.98804894
11
Frame 200  Energy = -268.5618405264 Hartree
C       0.73331455     -0.62521326     -0.42421350
C       0.47528045     -0.94105808     -1.87486728
C      -0.90669026     -1.58460354     -2.14491138
O      -1.69333843     -1.90764140     -1.29230788
O      -1.07904963     -1.86552421     -3.43966792
H       1.70712117     -0.19078336     -0.30236975
H      -0.06593896      0.02716497     -0.10522260
H       0.56264163     -1.53899689      0.17252388
H       0.61532769     -0.11881044     -2.53300973
H       1.19562254     -1.66693371     -2.23351400
H      -0.31424504     -1.62452484     -3.98734365
11
Frame 205  Energy = -268.5618403030 Hartree
C       0.73510893     -0.62225874     -0.42198051
C       0.47513831     -0.94494333     -1.87311350
C      -0.90486528     -1.58928274     -2.14469725
O      -1.69316821     -1.90666094     -1.29350325
O      -1.08006880     -1.86589237     -3.44211377
H       1.71265827     -0.18903969     -0.30057606
H      -0.06770871      0.01338711     -0.09453038
H       0.55863890     -1.53268417      0.19092161
H       0.60992959     -0.11546538     -2.52503119
H       1.18973103     -1.66849229     -2.24754786
H      -0.31228898     -1.62900682     -3.98574437
11
Frame 210  Energy = -268.5617621655 Hartree
C       0.73661409     -0.61955435     -0.41973329
C       0.47480833     -0.94897824     -1.87138447
C      -0.90282667     -1.59391100     -2.14429084
O      -1.69294747     -1.90568106     -1.29474808
O      -1.08129914     -1.86631662     -3.44462551
H       1.71848671     -0.18729194     -0.29814733
H      -0.06966514      0.00087491     -0.08304661
H       0.55663901     -1.52507302      0.20846567
H       0.60424360     -0.10986197     -2.51826750
H       1.18397329     -1.67063098     -2.26129370
H      -0.31071473     -1.63327464     -3.98271828
11
Frame 215  Energy = -268.5617773969 Hartree
C       0.73789917     -0.61719062     -0.41742960
C       0.47430442     -0.95318732     -1.86956709
C      -0.90051470     -1.59847879     -2.14374954
O      -1.69272479     -1.90460776     -1.29610558
O      -1.08272427     -1.86693291     -3.44724159
H       1.72423072     -0.18571398     -0.29490813
H      -0.07182984     -0.00931140     -0.07092415
H       0.55631130     -1.51589026      0.22443502
H       0.59807440     -0.10189431     -2.51236634
H       1.17857557     -1.67358811     -2.27500425
H      -0.30909193     -1.63739309     -3.97865123
11
Frame 220  Energy = -268.5619310979 Hartree
C       0.73904081     -0.61513007     -0.41508732
C       0.47364794     -0.95761599     -1.86777985
C      -0.89786933     -1.60297975     -2.14306644
O      -1.69249235     -1.90354662     -1.29754897
O      -1.08420954     -1.86768787     -3.44990892
H       1.72961896     -0.18415839     -0.29058178
H      -0.07410084     -0.01676972     -0.05855667
H       0.55779130     -1.50561188      0.23872817
H       0.59144833     -0.09237738     -2.50693974
H       1.17384665     -1.67703031     -2.28807615
H      -0.30728805     -1.64131422     -3.97392049
11
Frame 225  Energy = -268.5620668439 Hartree
C       0.74001159     -0.61337140     -0.41269735
C       0.47285555     -0.96221866     -1.86597151
C      -0.89495501     -1.60734590     -2.14235419
O      -1.69218395     -1.90241124     -1.29908038
O      -1.08577387     -1.86846068     -3.45258720
H       1.73441001     -0.18292982     -0.28563429
H      -0.07649323     -0.02186487     -0.04599792
H       0.56129895     -1.49447310      0.25098087
H       0.58423796     -0.08212462     -2.50185101
H       1.16978206     -1.68045910     -2.30052567
H      -0.30524430     -1.64504111     -3.96867827
11
Frame 230  Energy = -268.5621125644 Hartree
C       0.74084678     -0.61184080     -0.41010440
C       0.47203065     -0.96684671     -1.86427217
C      -0.89186028     -1.61149632     -2.14158385
O      -1.69186154     -1.90120294     -1.30059856
O      -1.08743007     -1.86924850     -3.45526258
H       1.73838788     -0.18211110     -0.28002657
H      -0.07905479     -0.02440154     -0.03374855
H       0.56678870     -1.48251986      0.26152712
H       0.57660989     -0.07188164     -2.49689365
H       1.16650587     -1.68380043     -2.31214946
H      -0.30282322     -1.64834739     -3.96341818
11
Frame 235  Energy = -268.5621403076 Hartree
C       0.74156154     -0.61058133     -0.40737567
C       0.47118264     -0.97148173     -1.86258223
C      -0.88854908     -1.61547360     -2.14080034
O      -1.69143773     -1.89997743     -1.30219374
O      -1.08922294     -1.87010722     -3.45798740
H       1.74136099     -0.18103887     -0.27405019
H      -0.08124337     -0.02430269     -0.02182362
H       0.57429831     -1.47014677      0.27109191
H       0.56908990     -0.06229732     -2.49178910
H       1.16412650     -1.68725801     -2.32267462
H      -0.30002611     -1.65121649     -3.95828439
11
Frame 240  Energy = -268.5619014642 Hartree
C       0.74215805     -0.60960500     -0.40457310
C       0.47029811     -0.97605990     -1.86091279
C      -0.88512893     -1.61931952     -2.13995763
O      -1.69098257     -1.89870653     -1.30377362
O      -1.09110749     -1.87103481     -3.46068503
H       1.74318543     -0.18003472     -0.26782221
H      -0.08253818     -0.02196758     -0.01035460
H       0.58359629     -1.45796571      0.27944170
H       0.56120625     -0.05381172     -2.48607649
H       1.16282557     -1.69005418     -2.33251708
H      -0.29660513     -1.65388808     -3.95324682
11
Frame 245  Energy = -268.5616891067 Hartree
C       0.74266666     -0.60889639     -0.40168672
C       0.46955154     -0.98070965     -1.85945153
C      -0.88154897     -1.62311195     -2.13911493
O      -1.69052984     -1.89745467     -1.30528770
O      -1.09310441     -1.87200052     -3.46334223
H       1.74326931     -0.17897052     -0.26117681
H      -0.08280448     -0.01747384      0.00024499
H       0.59474315     -1.44603532      0.28637487
H       0.55250162     -0.04683936     -2.47945821
H       1.16248766     -1.69260003     -2.34090136
H      -0.29299509     -1.65626497     -3.94830596
11
Frame 250  Energy = -268.5619588017 Hartree
C       0.74310977     -0.60848611     -0.39881955
C       0.46879798     -0.98526208     -1.85817496
C      -0.87787910     -1.62683470     -2.13822036
O      -1.69009681     -1.89616847     -1.30681704
O      -1.09522125     -1.87294953     -3.46593239
H       1.74192849     -0.17767270     -0.25452119
H      -0.08196848     -0.01104318      0.00998789
H       0.60721054     -1.43505757      0.29213302
H       0.54336052     -0.04200300     -2.47158015
H       1.16258087     -1.69409239     -2.34746854
H      -0.28906343     -1.65826183     -3.94364266
11
Frame 255  Energy = -268.5618006019 Hartree
C       0.74345726     -0.60820878     -0.39585895
C       0.46801430     -0.98973556     -1.85703355
C      -0.87426420     -1.63053209     -2.13733179
O      -1.68974471     -1.89482786     -1.30839269
O      -1.09744101     -1.87385715     -3.46840350
H       1.73925440     -0.17626229     -0.24796830
H      -0.07944970     -0.00307328      0.01819056
H       0.62069863     -1.42593886      0.29690118
H       0.53400369     -0.03930519     -2.46304348
H       1.16321959     -1.69446464     -2.35269483
H      -0.28470871     -1.65995461     -3.93908822
11
Frame 260  Energy = -268.5618936015 Hartree
C       0.74360487     -0.60800869     -0.39276140
C       0.46727042     -0.99404688     -1.85604788
C      -0.87069816     -1.63424384     -2.13651665
O      -1.68939210     -1.89348922     -1.31010621
O      -1.09972305     -1.87475368     -3.47077090
H       1.73536525     -0.17468607     -0.24168511
H      -0.07563286      0.00614656      0.02465608
H       0.63555583     -1.41910715      0.30098007
H       0.52449668     -0.03846538     -2.45354804
H       1.16432404     -1.69386130     -2.35635125
H      -0.28042436     -1.66168302     -3.93459876
11
Frame 265  Energy = -268.5616862615 Hartree
C       0.74352701     -0.60781994     -0.38950488
C       0.46655504     -0.99817049     -1.85516167
C      -0.86710048     -1.63788582     -2.13570486
O      -1.68898775     -1.89214655     -1.31188240
O      -1.10198114     -1.87568242     -3.47308034
H       1.73068501     -0.17265098     -0.23565859
H      -0.07015296      0.01637109      0.02942775
H       0.65160451     -1.41514487      0.30480342
H       0.51494941     -0.04012876     -2.44343396
H       1.16600581     -1.69210525     -2.35842608
H      -0.27655349     -1.66337482     -3.93041248
11
Frame 270  Energy = -268.5618162541 Hartree
C       0.74328240     -0.60766673     -0.38624643
C       0.46590533     -1.00210887     -1.85431581
C      -0.86348827     -1.64137358     -2.13493559
O      -1.68862805     -1.89080857     -1.31361314
O      -1.10427943     -1.87657117     -3.47530335
H       1.72543378     -0.17035636     -0.22987748
H      -0.06329846      0.02729962      0.03218889
H       0.66828951     -1.41372770      0.30839888
H       0.50548899     -0.04393319     -2.43311375
H       1.16841761     -1.68916909     -2.35914103
H      -0.27337590     -1.66491627     -3.92653262
11
Frame 275  Energy = -268.5617796207 Hartree
C       0.74284577     -0.60751157     -0.38304955
C       0.46529085     -1.00588833     -1.85349060
C      -0.85996878     -1.64488490     -2.13432019
O      -1.68832020     -1.88954360     -1.31546323
O      -1.10655011     -1.87747626     -3.47746756
H       1.71982750     -0.16765912     -0.22478800
H      -0.05520146      0.03843989      0.03309430
H       0.68522910     -1.41474079      0.31182346
H       0.49623845     -0.04990768     -2.42242351
H       1.17173049     -1.68537640     -2.35830161
H      -0.27096159     -1.66641802     -3.92320120
11
Frame 280  Energy = -268.5614660057 Hartree
C       0.74210463     -0.60745077     -0.37980482
C       0.46466564     -1.00947883     -1.85281961
C      -0.85653627     -1.64840289     -2.13370592
O      -1.68812365     -1.88833144     -1.31732794
O      -1.10871286     -1.87849083     -3.47958410
H       1.71413000     -0.16436901     -0.22048762
H      -0.04592329      0.04975933      0.03249140
H       0.70226460     -1.41822804      0.31506263
H       0.48689991     -0.05744807     -2.41163538
H       1.17617292     -1.68073270     -2.35582312
H      -0.26944221     -1.66794644     -3.92027301
11
Frame 285  Energy = -268.5614142815 Hartree
C       0.74112909     -0.60745887     -0.37654125
C       0.46414824     -1.01287972     -1.85217260
C      -0.85327871     -1.65195217     -2.13314393
O      -1.68794765     -1.88721581     -1.31927316
O      -1.11076112     -1.87957479     -3.48155952
H       1.70878070     -0.16040849     -0.21718393
H      -0.03558375      0.06128179      0.03032865
H       0.71940466     -1.42428544      0.31838103
H       0.47743291     -0.06619504     -2.40120306
H       1.18132229     -1.67499552     -2.35184932
H      -0.26904169     -1.66947202     -3.91827704
11
Frame 290  Energy = -268.5611973584 Hartree
C       0.73997375     -0.60748430     -0.37326920
C       0.46380229     -1.01609772     -1.85148629
C      -0.85030116     -1.65559765     -2.13271879
O      -1.68775430     -1.88619692     -1.32122952
O      -1.11270578     -1.88071275     -3.48333594
H       1.70369655     -0.15581895     -0.21471122
H      -0.02457554      0.07281325      0.02675862
H       0.73615596     -1.43247293      0.32178599
H       0.46769106     -0.07545015     -2.39144637
H       1.18718286     -1.66844335     -2.34656974
H      -0.27005678     -1.67139638     -3.91754019
11
Frame 295  Energy = -268.5609649358 Hartree
C       0.73861186     -0.60756559     -0.37010012
C       0.46357621     -1.01916420     -1.85063440
C      -0.84747580     -1.65925440     -2.13237158
O      -1.68755591     -1.88523675     -1.32321620
O      -1.11446897     -1.88190831     -3.48494747
H       1.69964257     -0.15028091     -0.21336629
H      -0.01335237      0.08435034      0.02184480
H       0.75283500     -1.44253458      0.32471012
H       0.45793760     -0.08461546     -2.38256804
H       1.19427188     -1.66155472     -2.34047819
H      -0.27175744     -1.67360701     -3.91765602
11
Frame 300  Energy = -268.5609624052 Hartree
C       0.73714652     -0.60779894     -0.36697193
C       0.46342272     -1.02210979     -1.84960160
C      -0.84488766     -1.66284668     -2.13212020
O      -1.68742571     -1.88430858     -1.32513092
O      -1.11618712     -1.88313223     -3.48642829
H       1.69683769     -0.14397645     -0.21334054
H      -0.00218232      0.09603805      0.01568896
H       0.76892526     -1.45327401      0.32687829
H       0.44851975     -0.09275822     -2.37498976
H       1.20288322     -1.65434603     -2.33369510
H      -0.27419557     -1.67592108     -3.91861273
