11
Frame 5  Energy = -268.5669613925 Hartree
C       0.71513449     -0.59763676     -0.39547654
C       0.42809093     -0.83203257     -1.91688546
C      -0.87143523     -1.55960466     -2.16624325
O      -1.59487669     -1.87341551     -1.27408826
O      -1.25694765     -1.81973566     -3.44872703
H       1.76381137     -0.25641600     -0.30054463
H       0.07903328      0.19931753     -0.03429287
H       0.62118303     -1.60623543      0.03758771
H       0.40258650      0.17319055     -2.40302054
H       1.22810097     -1.37345877     -2.47152458
H      -0.63633331     -1.55143993     -4.12628365
11
Frame 10  Energy = -268.5667330432 Hartree
C       0.71453710     -0.59683765     -0.39544450
C       0.43029497     -0.83407133     -1.91443651
C      -0.86909969     -1.56251606     -2.16631393
O      -1.59557349     -1.87122585     -1.27309346
O      -1.25824638     -1.82106241     -3.45258795
H       1.76542068     -0.26500661     -0.30767128
H       0.07313821      0.20148860     -0.01960949
H       0.61317465     -1.59525930      0.04236125
H       0.40033833      0.17099261     -2.39416415
H       1.23135196     -1.36826699     -2.47809447
H      -0.63386568     -1.54720970     -4.12342676
11
Frame 15  Energy = -268.5670688190 Hartree
C       0.71415502     -0.59617236     -0.39562903
C       0.43261892     -0.83585310     -1.91213451
C      -0.86672225     -1.56530819     -2.16638960
O      -1.59630374     -1.86910970     -1.27198598
O      -1.25972171     -1.82236514     -3.45635075
H       1.76585099     -0.27377545     -0.31486698
H       0.06704420      0.20245646     -0.00459711
H       0.60489402     -1.58262981      0.04824776
H       0.39780596      0.16726550     -2.38535458
H       1.23366785     -1.36239162     -2.48312262
H      -0.63025574     -1.54267052     -4.12044909
11
Frame 20  Energy = -268.5670518070 Hartree
C       0.71395626     -0.59562336     -0.39602939
C       0.43513173     -0.83735882     -1.90992963
C      -0.86431122     -1.56794393     -2.16652030
O      -1.59713033     -1.86711636     -1.27077770
O      -1.26128802     -1.82374551     -3.46004927
H       1.76519907     -0.28257614     -0.32185583
H       0.06130854      0.20170301      0.01017367
H       0.59657740     -1.56905699      0.05583265
H       0.39495830      0.16217829     -2.37679910
H       1.23503040     -1.35611186     -2.48617157
H      -0.62539125     -1.53761844     -4.11740553
11
Frame 25  Energy = -268.5673964766 Hartree
C       0.71385396     -0.59506347     -0.39668471
C       0.43779966     -0.83875229     -1.90775947
C      -0.86202890     -1.57045891     -2.16665318
O      -1.59799535     -1.86523188     -1.26955600
O      -1.26290914     -1.82506906     -3.46368523
H       1.76356286     -0.29155922     -0.32811636
H       0.05608875      0.19914415      0.02427983
H       0.58804764     -1.55506784      0.06506695
H       0.39175123      0.15626280     -2.36915812
H       1.23564926     -1.34959813     -2.48754077
H      -0.61912928     -1.53169392     -4.11430254
11
Frame 30  Energy = -268.5674279260 Hartree
C       0.71376796     -0.59440468     -0.39766179
C       0.44049927     -0.84007026     -1.90582573
C      -0.85992466     -1.57279248     -2.16682585
O      -1.59887004     -1.86342838     -1.26830887
O      -1.26452296     -1.82629617     -3.46718153
H       1.76126397     -0.30059994     -0.33367692
H       0.05188458      0.19458032      0.03727400
H       0.57945163     -1.54144871      0.07630300
H       0.38799094      0.15022582     -2.36221407
H       1.23595275     -1.34261731     -2.48771655
H      -0.61208443     -1.52532406     -4.11108305
11
Frame 35  Energy = -268.5672437135 Hartree
C       0.71363373     -0.59374639     -0.39886416
C       0.44314774     -0.84133351     -1.90399464
C      -0.85800059     -1.57503947     -2.16707325
O      -1.59972948     -1.86169741     -1.26707723
O      -1.26611107     -1.82750975     -3.47054887
H       1.75866223     -0.30946019     -0.33861694
H       0.04904563      0.18813802      0.04881079
H       0.57067317     -1.52825547      0.08937473
H       0.38339425      0.14407520     -2.35612210
H       1.23591685     -1.33518228     -2.48644186
H      -0.60429893     -1.51866229     -4.10730969
11
Frame 40  Energy = -268.5671117950 Hartree
C       0.71341557     -0.59302530     -0.40030081
C       0.44568247     -0.84245355     -1.90222527
C      -0.85625911     -1.57726386     -2.16728574
O      -1.60053641     -1.85998998     -1.26593599
O      -1.26761283     -1.82885803     -3.47378557
H       1.75601855     -0.31807667     -0.34280421
H       0.04755525      0.17966467      0.05908580
H       0.56177780     -1.51604032      0.10391154
H       0.37794352      0.13796470     -2.35078201
H       1.23600791     -1.32769117     -2.48392119
H      -0.59589564     -1.51162964     -4.10285497
11
Frame 45  Energy = -268.5668952577 Hartree
C       0.71311601     -0.59216786     -0.40195417
C       0.44811693     -0.84338842     -1.90055360
C      -0.85463299     -1.57938614     -2.16735305
O      -1.60131266     -1.85828444     -1.26497194
O      -1.26894063     -1.83020603     -3.47686671
H       1.75368100     -0.32596740     -0.34615281
H       0.04715715      0.16937051      0.06785137
H       0.55294282     -1.50516941      0.11975969
H       0.37178094      0.13240735     -2.34674936
H       1.23633080     -1.32037233     -2.48040619
H      -0.58719808     -1.50445163     -4.09732723
11
Frame 50  Energy = -268.5668255037 Hartree
C       0.71272784     -0.59135557     -0.40382405
C       0.45047457     -0.84428286     -1.89895350
C      -0.85328020     -1.58135310     -2.16733945
O      -1.60207188     -1.85660963     -1.26408412
O      -1.27008074     -1.83148095     -3.47974279
H       1.75164560     -0.33293899     -0.34854382
H       0.04843824      0.15766351      0.07501153
H       0.54433329     -1.49540016      0.13694344
H       0.36467592      0.12781057     -2.34407089
H       1.23752096     -1.31334437     -2.47605128
H      -0.57883514     -1.49734145     -4.09071416
11
Frame 55  Energy = -268.5667897739 Hartree
C       0.71220677     -0.59056677     -0.40582411
C       0.45254155     -0.84517373     -1.89738601
C      -0.85216576     -1.58324012     -2.16720573
O      -1.60260060     -1.85491682     -1.26335914
O      -1.27099625     -1.83273416     -3.48251363
H       1.75073779     -0.33862248     -0.35010996
H       0.05122878      0.14509108      0.08038773
H       0.53592038     -1.48675434      0.15499066
H       0.35656668      0.12464595     -2.34264677
H       1.23978460     -1.30700470     -2.47104489
H      -0.57123211     -1.49083197     -4.08304887
11
Frame 60  Energy = -268.5668742381 Hartree
C       0.71161552     -0.58988037     -0.40797806
C       0.45447596     -0.84597538     -1.89588347
C      -0.85110545     -1.58506133     -2.16701628
O      -1.60301421     -1.85324408     -1.26279072
O      -1.27161268     -1.83395020     -3.48503145
H       1.75121102     -0.34303978     -0.35045574
H       0.05493392      0.13238423      0.08398294
H       0.52778094     -1.47954113      0.17377815
H       0.34802526      0.12301906     -2.34254204
H       1.24368255     -1.30183509     -2.46563168
H      -0.56491088     -1.48458419     -4.07485101
11
Frame 65  Energy = -268.5668645043 Hartree
C       0.71100851     -0.58932421     -0.41020144
C       0.45624316     -0.84676880     -1.89450031
C      -0.85019268     -1.58680713     -2.16683952
O      -1.60333424     -1.85160841     -1.26230896
O      -1.27192281     -1.83506301     -3.48734790
H       1.75283150     -0.34638932     -0.34901046
H       0.05914354      0.12007769      0.08588128
H       0.52016902     -1.47334123      0.19229031
H       0.33907107      0.12290084     -2.34401827
H       1.24902237     -1.29762379     -2.46032838
H      -0.56000808     -1.47909206     -4.06613547
11
Frame 70  Energy = -268.5666770411 Hartree
C       0.71043165     -0.58906054     -0.41242627
C       0.45770222     -0.84759304     -1.89323354
C      -0.84945014     -1.58853274     -2.16657919
O      -1.60353962     -1.85000516     -1.26201552
O      -1.27196679     -1.83613124     -3.48952346
H       1.75528959     -0.34871085     -0.34647328
H       0.06351426      0.10894352      0.08626309
H       0.51335173     -1.46771904      0.21040916
H       0.32972900      0.12382252     -2.34675678
H       1.25561335     -1.29428733     -2.45467814
H      -0.55625002     -1.47478530     -4.05666564
11
Frame 75  Energy = -268.5664474210 Hartree
C       0.70985959     -0.58909338     -0.41460181
C       0.45884529     -0.84839511     -1.89202941
C      -0.84892906     -1.59027818     -2.16634731
O      -1.60371215     -1.84850435     -1.26191455
O      -1.27170853     -1.83719963     -3.49155485
H       1.75848249     -0.34998556     -0.34275749
H       0.06790184      0.09957939      0.08537643
H       0.50738983     -1.46264889      0.22758004
H       0.32024062      0.12555215     -2.35023310
H       1.26368059     -1.29236690     -2.44898577
H      -0.55367438     -1.47121311     -4.04677891
11
Frame 80  Energy = -268.5664181712 Hartree
C       0.70929913     -0.58946371     -0.41678305
C       0.45967728     -0.84910380     -1.89095555
C      -0.84867246     -1.59201760     -2.16610833
O      -1.60391206     -1.84711982     -1.26193158
O      -1.27128901     -1.83828980     -3.49344841
H       1.76215089     -0.35013079     -0.33794600
H       0.07156533      0.09301555      0.08335473
H       0.50254474     -1.45793868      0.24327976
H       0.31055426      0.12774658     -2.35453611
H       1.27315483     -1.29168525     -2.44292531
H      -0.55196619     -1.46798219     -4.03684126
11
Frame 85  Energy = -268.5662978243 Hartree
C       0.70872293     -0.59017627     -0.41887061
C       0.46011494     -0.84972022     -1.88989851
C      -0.84863922     -1.59374495     -2.16574075
O      -1.60408909     -1.84575235     -1.26211406
O      -1.27067894     -1.83929830     -3.49517858
H       1.76608456     -0.34956911     -0.33195358
H       0.07414929      0.08952507      0.08055575
H       0.49921931     -1.45336284      0.25679418
H       0.30121213      0.12978506     -2.35928418
H       1.28333456     -1.29148984     -2.43646784
H      -0.55079614     -1.46515590     -4.02750916
11
Frame 90  Energy = -268.5663846848 Hartree
C       0.70834117     -0.59126247     -0.42078061
C       0.46033584     -0.85028293     -1.88899112
C      -0.84885331     -1.59551374     -2.16521717
O      -1.60431830     -1.84444452     -1.26248790
O      -1.26982223     -1.84021001     -3.49665191
H       1.76983993     -0.34842395     -0.32507079
H       0.07514171      0.08956596      0.07717525
H       0.49715120     -1.44864331      0.26778051
H       0.29220343      0.13161686     -2.36460740
H       1.29406641     -1.29173996     -2.42981865
H      -0.54971607     -1.46249512     -4.01915075
11
Frame 95  Energy = -268.5663801103 Hartree
C       0.70825206     -0.59285955     -0.42252605
C       0.46023938     -0.85071475     -1.88837915
C      -0.84929769     -1.59716210     -2.16470755
O      -1.60457324     -1.84319145     -1.26294504
O      -1.26877499     -1.84103499     -3.49781585
H       1.77293435     -0.34664726     -0.31740928
H       0.07425978      0.09312083      0.07338301
H       0.49630786     -1.44365449      0.27596615
H       0.28363235      0.13332707     -2.37047145
H       1.30499192     -1.29260010     -2.42304386
H      -0.54808839     -1.46012519     -4.01217661
11
Frame 100  Energy = -268.5663344880 Hartree
C       0.70840112     -0.59490249     -0.42414091
C       0.45995069     -0.85106458     -1.88801037
C      -0.84998459     -1.59870026     -2.16407355
O      -1.60475317     -1.84200756     -1.26348844
O      -1.26759443     -1.84179548     -3.49862883
H       1.77455942     -0.34422580     -0.30920293
H       0.07193344      0.09983751      0.06884241
H       0.49655690     -1.43867455      0.28138519
H       0.27564720      0.13423330     -2.37624664
H       1.31570152     -1.29411077     -2.41590587
H      -0.54622678     -1.45792858     -4.00641943
11
Frame 105  Energy = -268.5665013038 Hartree
C       0.70876622     -0.59715670     -0.42548868
C       0.45954424     -0.85138587     -1.88789938
C      -0.85088298     -1.60009136     -2.16345199
O      -1.60483209     -1.84088412     -1.26408883
O      -1.26619909     -1.84250399     -3.49916824
H       1.77465402     -0.34148306     -0.30032829
H       0.06852990      0.10955459      0.06320847
H       0.49776185     -1.43377875      0.28378535
H       0.26827799      0.13372205     -2.38168993
H       1.32547716     -1.29593573     -2.40842303
H      -0.54408173     -1.45538018     -4.00237842
11
Frame 110  Energy = -268.5664519047 Hartree
C       0.70939878     -0.59948629     -0.42653381
C       0.45902596     -0.85165755     -1.88809017
C      -0.85193775     -1.60127873     -2.16280649
O      -1.60477575     -1.83992960     -1.26477500
O      -1.26458700     -1.84316363     -3.49946610
H       1.77355780     -0.33801352     -0.29068681
H       0.06433633      0.12142491      0.05632378
H       0.50020527     -1.42907755      0.28315692
H       0.26171039      0.13209791     -2.38673123
H       1.33409799     -1.29775298     -2.40056041
H      -0.54163069     -1.45264726     -4.00031109
11
Frame 115  Energy = -268.5663633523 Hartree
C       0.71020453     -0.60188688     -0.42729735
C       0.45842140     -0.85186574     -1.88858623
C      -0.85318011     -1.60237646     -2.16219221
O      -1.60466340     -1.83907249     -1.26556439
O      -1.26273258     -1.84382253     -3.49955252
H       1.77056014     -0.33421143     -0.28066939
H       0.06020293      0.13474789      0.04781630
H       0.50353573     -1.42479639      0.27981987
H       0.25611668      0.12911025     -2.39117950
H       1.34153472     -1.29959676     -2.39207369
H      -0.53861949     -1.45004187     -4.00002442
11
Frame 120  Energy = -268.5664441932 Hartree
C       0.71104509     -0.60439499     -0.42770074
C       0.45774556     -0.85207459     -1.88930692
C      -0.85457532     -1.60347784     -2.16164938
O      -1.60461099     -1.83829825     -1.26647038
O      -1.26062529     -1.84440425     -3.49933952
H       1.76621341     -0.32997577     -0.27083221
H       0.05683232      0.14890656      0.03783101
H       0.50784082     -1.42112786      0.27364452
H       0.25183787      0.12465509     -2.39469148
H       1.34744630     -1.30132228     -2.38284956
H      -0.53551911     -1.44746761     -4.00171523
11
Frame 125  Energy = -268.5665072572 Hartree
C       0.71194298     -0.60682784     -0.42780980
C       0.45698972     -0.85235098     -1.89024631
C      -0.85616716     -1.60461939     -2.16115978
O      -1.60461502     -1.83768747     -1.26745036
O      -1.25842586     -1.84489251     -3.49873023
H       1.76101593     -0.32562141     -0.26138325
H       0.05417954      0.16347252      0.02593755
H       0.51268120     -1.41881801      0.26520332
H       0.24877942      0.11912519     -2.39738263
H       1.35111672     -1.30268150     -2.37301243
H      -0.53260136     -1.44508777     -4.00459219
11
Frame 130  Energy = -268.5665584967 Hartree
C       0.71291319     -0.60915951     -0.42770284
C       0.45614437     -0.85265026     -1.89141378
C      -0.85786870     -1.60569111     -2.16083813
O      -1.60462691     -1.83721785     -1.26838070
O      -1.25602387     -1.84525054     -3.49780311
H       1.75496422     -0.32103977     -0.25228825
H       0.05272169      0.17728561      0.01225439
H       0.51738202     -1.41825910      0.25521958
H       0.24685864      0.11255931     -2.39937620
H       1.35281550     -1.30392118     -2.36272128
H      -0.52987506     -1.44285342     -4.00850125
11
Frame 135  Energy = -268.5666533013 Hartree
C       0.71383808     -0.61123300     -0.42728652
C       0.45527700     -0.85299157     -1.89280486
C      -0.85954881     -1.60666987     -2.16076328
O      -1.60466446     -1.83681245     -1.26930758
O      -1.25345119     -1.84553682     -3.49659492
H       1.74814056     -0.31626010     -0.24352910
H       0.05280718      0.19017936     -0.00315974
H       0.52233854     -1.41960966      0.24456050
H       0.24636406      0.10547117     -2.40105448
H       1.35273605     -1.30507395     -2.35257057
H      -0.52789238     -1.44110246     -4.01299514
11
Frame 140  Energy = -268.5665807165 Hartree
C       0.71478908     -0.61302089     -0.42654773
C       0.45431447     -0.85324354     -1.89443032
C      -0.86120889     -1.60749497     -2.16079183
O      -1.60489353     -1.83651582     -1.27012628
O      -1.25076012     -1.84568484     -3.49513931
H       1.74099417     -0.31113946     -0.23502751
H       0.05486948      0.20169071     -0.02012363
H       0.52721557     -1.42340191      0.23377325
H       0.24714400      0.09789181     -2.40244741
H       1.35096543     -1.30595369     -2.34303173
H      -0.52664394     -1.43989615     -4.01808864
11
Frame 145  Energy = -268.5666801686 Hartree
C       0.71569917     -0.61436916     -0.42559488
C       0.45331238     -0.85370479     -1.89618004
C      -0.86272915     -1.60812958     -2.16098248
O      -1.60526519     -1.83646992     -1.27088252
O      -1.24783851     -1.84569898     -3.49348037
H       1.73406266     -0.30560427     -0.22717925
H       0.05831063      0.21179672     -0.03854910
H       0.53140235     -1.42985206      0.22304254
H       0.24902268      0.09016930     -2.40402763
H       1.34755655     -1.30722149     -2.33427103
H      -0.52617461     -1.43917094     -4.02342108
11
Frame 150  Energy = -268.5668075467 Hartree
C       0.71648129     -0.61532001     -0.42446022
C       0.45224950     -0.85435943     -1.89791335
C      -0.86411861     -1.60865878     -2.16136855
O      -1.60580955     -1.83659677     -1.27159567
O      -1.24468895     -1.84558754     -3.49163425
H       1.72786146     -0.29957196     -0.22052788
H       0.06315495      0.22003918     -0.05764355
H       0.53454688     -1.43895301      0.21291716
H       0.25201612      0.08274773     -2.40613115
H       1.34307169     -1.30861153     -2.32649962
H      -0.52653118     -1.43904669     -4.02857430
11
Frame 155  Energy = -268.5666656782 Hartree
C       0.71712225     -0.61583746     -0.42312720
C       0.45115627     -0.85513163     -1.89959054
C      -0.86522404     -1.60902364     -2.16188046
O      -1.60650927     -1.83679868     -1.27225881
O      -1.24127205     -1.84540125     -3.48956419
H       1.72274589     -0.29319423     -0.21445350
H       0.06922457      0.22623513     -0.07762274
H       0.53685996     -1.45019419      0.20347445
H       0.25604358      0.07598472     -2.40876103
H       1.33773682     -1.31023104     -2.31992269
H      -0.52841845     -1.43983491     -4.03344483
11
Frame 160  Energy = -268.5666510744 Hartree
C       0.71759644     -0.61591014     -0.42176257
C       0.45007982     -0.85592664     -1.90130684
C      -0.86614847     -1.60930553     -2.16250241
O      -1.60731491     -1.83707720     -1.27278043
O      -1.23752324     -1.84517883     -3.48727123
H       1.71895505     -0.28686052     -0.20869407
H       0.07603966      0.23024592     -0.09793971
H       0.53841660     -1.46328958      0.19501545
H       0.26105098      0.07038287     -2.41195597
H       1.33208226     -1.31274549     -2.31490070
H      -0.53155003     -1.44175815     -4.03776849
11
Frame 165  Energy = -268.5666188149 Hartree
C       0.71788341     -0.61568645     -0.42037691
C       0.44898070     -0.85674346     -1.90296905
C      -0.86688684     -1.60944801     -2.16332289
O      -1.60831266     -1.83751428     -1.27318857
O      -1.23357458     -1.84496325     -3.48482756
H       1.71632348     -0.28050149     -0.20338672
H       0.08354799      0.23224705     -0.11792820
H       0.53894796     -1.47786105      0.18715657
H       0.26721874      0.06633245     -2.41581392
H       1.32661797     -1.31640874     -2.31132560
H      -0.53554478     -1.44471183     -4.04168186
11
Frame 170  Energy = -268.5666739882 Hartree
C       0.71802565     -0.61518334     -0.41904662
C       0.44787095     -0.85765172     -1.90447123
C      -0.86746749     -1.60937202     -2.16427522
O      -1.60939924     -1.83812222     -1.27347639
O      -1.22947662     -1.84480286     -3.48225382
H       1.71507397     -0.27372100     -0.19888093
H       0.09080234      0.23264679     -0.13727756
H       0.53883569     -1.49313719      0.17960022
H       0.27418663      0.06363014     -2.42036669
H       1.32173566     -1.32128840     -2.30915072
H      -0.54035251     -1.44812487     -4.04530270
11
Frame 175  Energy = -268.5666241044 Hartree
C       0.71799651     -0.61449982     -0.41781678
C       0.44665482     -0.85865572     -1.90583347
C      -0.86789785     -1.60910817     -2.16535175
O      -1.61059325     -1.83881059     -1.27361257
O      -1.22529015     -1.84458817     -3.47953630
H       1.71524538     -0.26725241     -0.19517260
H       0.09726876      0.23243704     -0.15575500
H       0.53831313     -1.50866354      0.17226791
H       0.28203075      0.06253733     -2.42580037
H       1.31762325     -1.32734359     -2.30880422
H      -0.54527371     -1.45177791     -4.04849737
11
Frame 180  Energy = -268.5665157869 Hartree
C       0.71782901     -0.61375172     -0.41660779
C       0.44537813     -0.85980355     -1.90704589
C      -0.86820528     -1.60866710     -2.16665599
O      -1.61190300     -1.83962948     -1.27362419
O      -1.22111151     -1.84441414     -3.47665260
H       1.71663375     -0.26117501     -0.19231200
H       0.10254001      0.23180982     -0.17295173
H       0.53747369     -1.52348940      0.16498490
H       0.29047017      0.06340558     -2.43225548
H       1.31426724     -1.33480260     -2.31030823
H      -0.55032119     -1.45598814     -4.05182043
11
Frame 185  Energy = -268.5662903282 Hartree
C       0.71762978     -0.61296581     -0.41545365
C       0.44410431     -0.86113381     -1.90817545
C      -0.86829861     -1.60801710     -2.16805220
O      -1.61335332     -1.84055134     -1.27354117
O      -1.21688650     -1.84418475     -3.47358187
H       1.71860113     -0.25557236     -0.19028110
H       0.10596573      0.23096165     -0.18816034
H       0.53608162     -1.53704863      0.15783359
H       0.30002217      0.06540244     -2.43951125
H       1.31186255     -1.34362602     -2.31383276
H      -0.55513932     -1.46028453     -4.05541128
11
Frame 190  Energy = -268.5663643803 Hartree
C       0.71738543     -0.61232011     -0.41431979
C       0.44286900     -0.86246390     -1.90929752
C      -0.86831542     -1.60711724     -2.16940189
O      -1.61497839     -1.84158010     -1.27341670
O      -1.21265591     -1.84393695     -3.47037658
H       1.72116765     -0.25078931     -0.18928934
H       0.10751189      0.23051340     -0.20105961
H       0.53399559     -1.54873175      0.15066845
H       0.31034317      0.06861334     -2.44740088
H       1.31031034     -1.35349540     -2.31963092
H      -0.55954088     -1.46423834     -4.05936072
11
Frame 195  Energy = -268.5663518372 Hartree
C       0.71713844     -0.61183144     -0.41336353
C       0.44159803     -0.86382576     -1.91046255
C      -0.86823216     -1.60594910     -2.17061795
O      -1.61667746     -1.84266106     -1.27334033
O      -1.20843294     -1.84374295     -3.46705250
H       1.72416756     -0.24679603     -0.18951147
H       0.10665995      0.23043676     -0.21136736
H       0.53159276     -1.55814486      0.14323500
H       0.32132091      0.07267066     -2.45544532
H       1.30871708     -1.36432540     -2.32697216
H      -0.56276648     -1.46751228     -4.06386023
11
Frame 200  Energy = -268.5663038285 Hartree
C       0.71693777     -0.61146478     -0.41256908
C       0.44047496     -0.86523668     -1.91152259
C      -0.86798949     -1.60469858     -2.17176021
O      -1.61848174     -1.84383398     -1.27332550
O      -1.20431954     -1.84362409     -3.46363502
H       1.72695375     -0.24357881     -0.19048441
H       0.10293489      0.23131761     -0.21883696
H       0.52932243     -1.56476114      0.13520938
H       0.33282124      0.07739959     -2.46347748
H       1.30665178     -1.37590053     -2.33587755
H      -0.56451973     -1.46980550     -4.06882539
11
Frame 205  Energy = -268.5660994069 Hartree
C       0.71673904     -0.61132895     -0.41196671
C       0.43957811     -0.86682118     -1.91251451
C      -0.86759789     -1.60318784     -2.17290305
O      -1.62036764     -1.84507798     -1.27336302
O      -1.20020182     -1.84350801     -3.46012154
H       1.72976561     -0.24148104     -0.19279337
H       0.09698569      0.23264652     -0.22367749
H       0.52661008     -1.56833050      0.12722340
H       0.34499038      0.08202637     -2.47090088
H       1.30398957     -1.38816421     -2.34572219
H      -0.56505828     -1.47129835     -4.07415761
11
Frame 210  Energy = -268.5662704378 Hartree
C       0.71664217     -0.61137284     -0.41157996
C       0.43881408     -0.86847571     -1.91342685
C      -0.86715257     -1.60140924     -2.17397608
O      -1.62228404     -1.84632329     -1.27341594
O      -1.19618966     -1.84346458     -3.45656849
H       1.73226457     -0.24050473     -0.19604696
H       0.08900141      0.23430123     -0.22543976
H       0.52349370     -1.56876327      0.11953831
H       0.35780310      0.08613985     -2.47775250
H       1.30022944     -1.40097514     -2.35615491
H      -0.56434736     -1.47231932     -4.07967714
11
Frame 215  Energy = -268.5661711447 Hartree
C       0.71662762     -0.61153216     -0.41138705
C       0.43823794     -0.87012766     -1.91437956
C      -0.86671462     -1.59933543     -2.17477485
O      -1.62423137     -1.84755114     -1.27358357
O      -1.19226485     -1.84344985     -3.45294697
H       1.73401975     -0.24061508     -0.20007637
H       0.07934493      0.23592152     -0.22423992
H       0.51997904     -1.56632314      0.11212061
H       0.37105377      0.08934998     -2.48395661
H       1.29511783     -1.41354191     -2.36676793
H      -0.56267690     -1.47295508     -4.08485618
11
Frame 220  Energy = -268.5662798123 Hartree
C       0.71654765     -0.61174235     -0.41143499
C       0.43798247     -0.87169032     -1.91539663
C      -0.86621875     -1.59708604     -2.17527635
O      -1.62620131     -1.84883390     -1.27388516
O      -1.18838297     -1.84345465     -3.44933017
H       1.73536442     -0.24191945     -0.20499286
H       0.06827139      0.23688718     -0.22041644
H       0.51608376     -1.56115556      0.10505429
H       0.38467713      0.09122466     -2.48884275
H       1.28862304     -1.42543176     -2.37709578
H      -0.56045131     -1.47352072     -4.08970411
11
Frame 225  Energy = -268.5663938144 Hartree
C       0.71648571     -0.61190940     -0.41176373
C       0.43805893     -0.87313271     -1.91645165
C      -0.86571051     -1.59462596     -2.17550855
O      -1.62816518     -1.85019067     -1.27430327
O      -1.18453192     -1.84346294     -3.44585986
H       1.73574389     -0.24454553     -0.21091308
H       0.05642721      0.23667331     -0.21402369
H       0.51185668     -1.55412412      0.09844237
H       0.39802400      0.09140633     -2.49255499
H       1.28049984     -1.43674787     -2.38690146
H      -0.55777835     -1.47402675     -4.09381891
11
Frame 230  Energy = -268.5662418556 Hartree
C       0.71633120     -0.61208500     -0.41243453
C       0.43845516     -0.87439958     -1.91757453
C      -0.86511919     -1.59203553     -2.17540015
O      -1.63012250     -1.85159945     -1.27484435
O      -1.18076000     -1.84353119     -3.44256106
H       1.73532760     -0.24801526     -0.21802799
H       0.04419479      0.23475821     -0.20548238
H       0.50742352     -1.54560776      0.09287532
H       0.41152237      0.08992561     -2.49524924
H       1.27072776     -1.44769881     -2.39613843
H      -0.55486789     -1.47477533     -4.09644898
11
Frame 235  Energy = -268.5661456782 Hartree
C       0.71604659     -0.61222096     -0.41335801
C       0.43913827     -0.87559120     -1.91891353
C      -0.86453562     -1.58941477     -2.17498949
O      -1.63198315     -1.85321227     -1.27550823
O      -1.17704779     -1.84365589     -3.43936336
H       1.73403337     -0.25239817     -0.22613062
H       0.03210657      0.23114786     -0.19500583
H       0.50278944     -1.53611293      0.08901869
H       0.42520722      0.08668539     -2.49686454
H       1.25951979     -1.45797273     -2.40442266
H      -0.55215193     -1.47578962     -4.09736578
11
Frame 240  Energy = -268.5660798804 Hartree
C       0.71566565     -0.61224597     -0.41459920
C       0.44007673     -0.87672067     -1.92041501
C      -0.86398953     -1.58659023     -2.17429397
O      -1.63371882     -1.85485149     -1.27643613
O      -1.17336091     -1.84395102     -3.43642277
H       1.73226778     -0.25757164     -0.23463308
H       0.02064376      0.22546361     -0.18252052
H       0.49778715     -1.52655317      0.08701499
H       0.43868480      0.08172585     -2.49756156
H       1.24708745     -1.46730883     -2.41188877
H      -0.54920074     -1.47691035     -4.09658077
11
Frame 245  Energy = -268.5660665779 Hartree
C       0.71520113     -0.61212286     -0.41617564
C       0.44126442     -0.87771632     -1.92206972
C      -0.86343060     -1.58363206     -2.17322851
O      -1.63531642     -1.85653571     -1.27749526
O      -1.16965667     -1.84433352     -3.43376377
H       1.73028006     -0.26357012     -0.24294907
H       0.01007028      0.21757371     -0.16876884
H       0.49240749     -1.51757378      0.08695231
H       0.45194658      0.07516679     -2.49728019
H       1.23359350     -1.47588056     -2.41855979
H      -0.54608140     -1.47865899     -4.09387619
11
Frame 250  Energy = -268.5662003177 Hartree
C       0.71459033     -0.61179559     -0.41807935
C       0.44261931     -0.87860560     -1.92388187
C      -0.86306406     -1.58066767     -2.17165510
O      -1.63683713     -1.85825706     -1.27864122
O      -1.16602988     -1.84476108     -3.43133634
H       1.72789712     -0.27009201     -0.25096089
H       0.00095222      0.20727108     -0.15411561
H       0.48664232     -1.50987651      0.08891637
H       0.46470060      0.06748244     -2.49647391
H       1.21935120     -1.48404290     -2.42443944
H      -0.54293265     -1.48088408     -4.08935451
11
Frame 255  Energy = -268.5658378074 Hartree
C       0.71375893     -0.61123754     -0.42045747
C       0.44409856     -0.87946518     -1.92573690
C      -0.86279253     -1.57765339     -2.16957793
O      -1.63825163     -1.86000395     -1.27997338
O      -1.16257670     -1.84522014     -3.42910208
H       1.72568814     -0.27665818     -0.25893808
H      -0.00660109      0.19511149     -0.13834223
H       0.48041959     -1.50343091      0.09281614
H       0.47673781      0.05917306     -2.49543180
H       1.20472039     -1.49183532     -2.42951350
H      -0.53986291     -1.48351420     -4.08324444
11
Frame 260  Energy = -268.5658797798 Hartree
C       0.71265261     -0.61050409     -0.42320525
C       0.44572579     -0.88032669     -1.92753064
C      -0.86267601     -1.57459251     -2.16706544
O      -1.63968221     -1.86182245     -1.28139261
O      -1.15927171     -1.84576023     -3.42706289
H       1.72393571     -0.28340297     -0.26698172
H      -0.01293038      0.18133137     -0.12218147
H       0.47410092     -1.49858463      0.09876042
H       0.48800389      0.05051866     -2.49421917
H       1.19021661     -1.49994120     -2.43379365
H      -0.53653519     -1.48602607     -4.07553336
11
Frame 265  Energy = -268.5658963715 Hartree
C       0.71137899     -0.60955553     -0.42618126
C       0.44743826     -0.88107163     -1.92924232
C      -0.86277843     -1.57145367     -2.16415653
O      -1.64106558     -1.86375213     -1.28294761
O      -1.15608427     -1.84642438     -3.42527756
H       1.72312847     -0.28983906     -0.27444219
H      -0.01766835      0.16598605     -0.10574917
H       0.46797659     -1.49566980      0.10624223
H       0.49840271      0.04183295     -2.49310292
H       1.17650069     -1.50869874     -2.43729671
H      -0.53276282     -1.48834509     -4.06670609
11
Frame 270  Energy = -268.5658270184 Hartree
C       0.70993626     -0.60854706     -0.42939370
C       0.44920541     -0.88182679     -1.93090506
C      -0.86306741     -1.56816974     -2.16098691
O      -1.64243836     -1.86569633     -1.28460523
O      -1.15306128     -1.84715358     -3.42365460
H       1.72292100     -0.29614776     -0.28112069
H      -0.02065434      0.14948828     -0.08978930
H       0.46191991     -1.49449490      0.11506006
H       0.50820375      0.03392171     -2.49261490
H       1.16386882     -1.51819312     -2.43953508
H      -0.52818830     -1.48998091     -4.05759078
11
Frame 275  Energy = -268.5656247124 Hartree
C       0.70834229     -0.60756671     -0.43274398
C       0.45099285     -0.88267664     -1.93245610
C      -0.86355904     -1.56484482     -2.15752596
O      -1.64363753     -1.86769019     -1.28636942
O      -1.15017032     -1.84791544     -3.42210771
H       1.72373483     -0.30199803     -0.28755497
H      -0.02218585      0.13248145     -0.07398446
H       0.45597465     -1.49458445      0.12492572
H       0.51781505      0.02694796     -2.49273220
H       1.15238288     -1.52856963     -2.44089851
H      -0.52249678     -1.49072400     -4.04843835
11
Frame 280  Energy = -268.5655365298 Hartree
C       0.70647473     -0.60657943     -0.43630944
C       0.45269488     -0.88360514     -1.93379678
C      -0.86416560     -1.56156272     -2.15378046
O      -1.64463327     -1.86964006     -1.28814977
O      -1.14740522     -1.84874030     -3.42067088
H       1.72528957     -0.30735019     -0.29315442
H      -0.02214703      0.11572442     -0.05856541
H       0.45047230     -1.49516070      0.13540097
H       0.52725140      0.02109507     -2.49393695
H       1.14283225     -1.53987319     -2.44141398
H      -0.51552617     -1.49054341     -4.03973495
11
Frame 285  Energy = -268.5654779703 Hartree
C       0.70443560     -0.60564189     -0.43999850
C       0.45432353     -0.88465492     -1.93485137
C      -0.86474674     -1.55836620     -2.14979251
O      -1.64563237     -1.87161544     -1.28995960
O      -1.14494798     -1.84961215     -3.41932662
H       1.72746348     -0.31196586     -0.29790440
H      -0.02109925      0.09912390     -0.04374198
H       0.44596017     -1.49613681      0.14596753
H       0.53633143      0.01683656     -2.49625050
H       1.13484891     -1.55221244     -2.44129774
H      -0.50750979     -1.48996456     -4.03149123
11
Frame 290  Energy = -268.5652954158 Hartree
C       0.70233512     -0.60488955     -0.44376473
C       0.45584396     -0.88574084     -1.93560224
C      -0.86538154     -1.55513863     -2.14575922
O      -1.64666602     -1.87359344     -1.29180529
O      -1.14264148     -1.85052870     -3.41808392
H       1.73044460     -0.31617666     -0.30176772
H      -0.01907255      0.08337566     -0.02966824
H       0.44293232     -1.49711796      0.15616840
H       0.54506974      0.01475772     -2.49934958
H       1.12849898     -1.56509005     -2.44016280
H      -0.49828433     -1.48873733     -4.02334624
11
Frame 295  Energy = -268.5655238529 Hartree
C       0.70011941     -0.60444037     -0.44748905
C       0.45739463     -0.88682168     -1.93612544
C      -0.86612433     -1.55186933     -2.14170533
O      -1.64773440     -1.87554321     -1.29365230
O      -1.14046840     -1.85151505     -3.41702381
H       1.73333970     -0.31999445     -0.30494801
H      -0.01686581      0.06923545     -0.01620010
H       0.44187428     -1.49792568      0.16530535
H       0.55316799      0.01468120     -2.50354487
H       1.12358129     -1.57824398     -2.43776862
H      -0.48772484     -1.48675067     -4.01570104
11
Frame 300  Energy = -268.5655248188 Hartree
C       0.69780370     -0.60428207     -0.45113428
C       0.45900736     -0.88787284     -1.93651149
C      -0.86694144     -1.54855740     -2.13764055
O      -1.64882513     -1.87750005     -1.29542149
O      -1.13833001     -1.85261847     -3.41619882
H       1.73616367     -0.32356209     -0.30763351
H      -0.01489540      0.05776896     -0.00357249
H       0.44276190     -1.49807773      0.17282652
H       0.56037564      0.01607489     -2.50843276
H       1.12037086     -1.59175363     -2.43409721
H      -0.47659703     -1.48427783     -4.00806626
