11
maple-route1-mmgb-reference-mlip-reweighting-v1 phase=solution replicate=repeat-0 sample=0
C 1.110574047223939 -0.667811856372544 -1.093869381099449
C 0.545204559515295 -1.442242151353716 -2.301356800296282
C -0.942647640249163 -1.537895488573730 -1.987927550008982
O -1.455510257786910 -2.179200223527513 -1.093852378906443
O -1.750078306099992 -0.908110855860180 -2.823932732787401
H 0.835604658736681 -1.205543112747544 -0.165482530856284
H 2.229597739902404 -0.618459900412975 -1.135409800275890
H 0.657990575312559 0.352219787834076 -1.030992305298763
H 0.627582673814804 -0.962696015735014 -3.279043769663484
H 0.974519647060818 -2.479984326284443 -2.296259982792651
H -1.120236779956029 -0.391962108288598 -3.331672358153855
11
maple-route1-mmgb-reference-mlip-reweighting-v1 phase=solution replicate=repeat-0 sample=1
C 1.210005251242865 -0.605716511586710 -1.167561464887959
C 0.503100369807845 -1.460227355808001 -2.204781091064034
C -1.013914461596181 -1.580888187946230 -1.963688846443066
O -1.455590565117830 -2.332404572804590 -1.131292310374554
O -1.768659210912072 -0.770225060346615 -2.804868310998907
H 0.672808125713007 -0.590476099664983 -0.243108429588880
H 2.217441769701226 -1.110436608682070 -1.028897782251365
H 1.335145095138604 0.449333181564064 -1.546997016709855
H 0.610875077426914 -1.038383085304578 -3.235310657238551
H 0.912707649051038 -2.483136937303132 -2.093132648288072
H -1.080536497291154 -0.309524682806752 -3.361572554537442
11
maple-route1-mmgb-reference-mlip-reweighting-v1 phase=solution replicate=repeat-0 sample=2
C 1.335798394896426 -0.510219064125805 -1.236850501029064
C 0.547585870997630 -1.522617659229043 -2.166690291227104
C -1.026110051192519 -1.587605150351551 -1.942271321630748
O -1.585418476872714 -2.393462866612742 -1.255072416345931
O -1.782627887470223 -0.747194489686219 -2.669046420450988
H 0.736236802371729 -0.140158536730514 -0.379362996337579
H 2.245260361936735 -1.001127394096199 -0.913362848990792
H 1.597679577109857 0.344954170082584 -1.862608127917091
H 0.649648340979635 -1.188815449110314 -3.208219574801346
H 0.946062112367742 -2.531219506468994 -2.006733008034317
H -1.108313767824853 -0.264824168900886 -3.202597595896116
11
maple-route1-mmgb-reference-mlip-reweighting-v1 phase=solution replicate=repeat-0 sample=3
C 1.270170111046667 -0.470841048904598 -1.349455510413842
C 0.496309415297552 -1.558608222391100 -2.160347586729030
C -1.022519966882209 -1.587101681515754 -1.918709537302273
O -1.591925103598324 -2.483493333319510 -1.266881437967982
O -1.676465077581573 -0.666378365200021 -2.610662489468177
H 0.665894839642444 -0.190428180048676 -0.447205414648708
H 2.188759012744877 -0.903304016052036 -1.051454622268994
H 1.426082295392117 0.377465920161248 -1.972194625380778
H 0.642717921459945 -1.365820527082607 -3.203786749162896
H 0.874923907234031 -2.538837066058087 -1.874174077779044
H -0.962251016365241 -0.061539249807328 -2.772183336387300
11
maple-route1-mmgb-reference-mlip-reweighting-v1 phase=solution replicate=repeat-0 sample=4
C 1.136597646043926 -0.464496237042999 -1.429809903595016
C 0.528215218339224 -1.660580811995731 -2.149525714113932
C -1.000581244524656 -1.642913829581499 -1.988262348289619
O -1.569510013120443 -2.462927827273556 -1.258615000689503
O -1.621797234149889 -0.558373562053874 -2.481592794756893
H 0.699883050310825 -0.477710736190776 -0.463902844878769
H 2.224452018592129 -0.623245111109126 -1.369179791127850
H 0.889401058644514 0.459358543657274 -1.959275452692399
H 0.743215935630794 -1.473606174163624 -3.182476031109021
H 0.954333237654553 -2.614169490106551 -1.827316237419976
H -0.947594504150248 -0.190629148551849 -3.053380309776817
11
maple-route1-mmgb-reference-mlip-reweighting-v1 phase=solution replicate=repeat-0 sample=5
C 1.108392911375216 -0.441537181776425 -1.423517083984142
C 0.533784464433111 -1.702244080099072 -2.192996694396118
C -1.030792476013086 -1.748225098010616 -2.106965111346048
O -1.569409829824120 -2.355760589635397 -1.231087962904817
O -1.582732494653036 -0.574182620615118 -2.385910928291072
H 1.036284688194573 -0.625096888827545 -0.372211871181663
H 2.191278815393660 -0.354795306705882 -1.713565887039409
H 0.583450815407821 0.510252379536606 -1.686715594187002
H 0.831395927704758 -1.592180274094737 -3.264114048701552
H 0.915494191512492 -2.687332231207158 -1.856662062135624
H -0.987995084274263 -0.145601494398427 -3.061564123329865
11
maple-route1-mmgb-reference-mlip-reweighting-v1 phase=solution replicate=repeat-0 sample=6
C 1.159094362720403 -0.523394179016102 -1.408412588991083
C 0.468617154826772 -1.599208034814222 -2.244766426555474
C -1.041982162091880 -1.689241554162190 -1.998842019275605
O -1.533960407081143 -2.426615196674472 -1.156736163838691
O -1.605734458050617 -0.561857914984457 -2.521246873868534
H 1.139221496301107 -0.859711066221443 -0.319111196218563
H 2.185513591804567 -0.429759579909341 -1.768406914443863
H 0.655647954654420 0.465441654200081 -1.502068014805654
H 0.728148258713486 -1.455118213063111 -3.347271997104472
H 0.838890189145075 -2.600638606851103 -1.982564666815758
H -0.857514916411226 -0.030649660457249 -2.916889682322358
11
maple-route1-mmgb-reference-mlip-reweighting-v1 phase=solution replicate=repeat-0 sample=7
C 1.281535719342319 -0.628894099827438 -1.377363285555096
C 0.517946200545641 -1.577428144514370 -2.281995444747531
C -0.979099176062970 -1.528634149203661 -1.893975662366084
O -1.531771871575578 -2.345188989490466 -1.186265037016674
O -1.784164092267127 -0.684308749974205 -2.538651767547488
H 1.198316078058823 -0.924099099931337 -0.294874340071466
H 2.319512463289804 -0.536464782262501 -1.680160272095752
H 0.846459670630402 0.380840808516879 -1.526791829269722
H 0.663734847481970 -1.248333429030648 -3.322105977783694
H 0.879388327322852 -2.620933067749073 -2.275041043141040
H -1.216990259631539 -0.231263278673593 -3.164816739045122
11
maple-route1-mmgb-reference-mlip-reweighting-v1 phase=solution replicate=repeat-0 sample=8
C 1.431012437556826 -0.694912862543766 -1.339789919820397
C 0.427720575422340 -1.442179991836441 -2.304579490713000
C -1.043485342016673 -1.533849605551155 -1.914291627044289
O -1.447020175550382 -2.350581682540572 -1.037119067960372
O -1.890987298557961 -0.723994992014926 -2.681087098872200
H 1.321896252864034 -1.068878530885045 -0.345220694018493
H 2.491654229125836 -0.862562062497061 -1.663000813927443
H 1.344095474091235 0.399672773270800 -1.339361939611754
H 0.454636787209235 -1.029290961641960 -3.265868859175434
H 0.773851105105357 -2.454099278018430 -2.467876658095725
H -1.283936378551913 -0.214652228344894 -3.217200849216701
11
maple-route1-mmgb-reference-mlip-reweighting-v1 phase=solution replicate=repeat-0 sample=9
C 1.403663626066233 -0.815260359217352 -1.351866843352701
C 0.447045741741106 -1.347909425285023 -2.399561698378374
C -0.991695070080245 -1.446066280761243 -1.864782103580689
O -1.423023090427702 -2.189667877227651 -1.029386863774568
O -1.930976347484979 -0.914720181958873 -2.630821862592479
H 1.226491426300115 -1.356348177959947 -0.432956026474000
H 2.457920519023484 -0.980537315265233 -1.646271652163703
H 1.351511562794629 0.254692188030981 -1.193730633007614
H 0.443019636307820 -0.745570121642622 -3.301531517558410
H 0.788487123064825 -2.321658137671069 -2.687701444944739
H -1.424041700276495 -0.353417029980740 -3.269107824124438
11
maple-route1-mmgb-reference-mlip-reweighting-v1 phase=solution replicate=repeat-0 sample=10
C 1.394804629889728 -0.936141096399996 -1.347508862007345
C 0.383057065245207 -1.334509545873417 -2.422704203742763
C -1.041314934253768 -1.359283435831800 -1.816364115325538
O -1.248868283825811 -2.119094392184761 -0.908368645133513
O -1.992604945467472 -0.940030351743608 -2.757869195522998
H 1.366669083112401 -1.624375052081239 -0.460527691086152
H 2.387774106721994 -0.847463613448562 -1.691819596043451
H 1.163102088861611 0.073069775395381 -1.016783011610125
H 0.403919717143820 -0.593954469771143 -3.273248758756501
H 0.623359739804123 -2.348805963207408 -2.818413926646754
H -1.447772154962532 -0.629598514044000 -3.527845939425319
11
maple-route1-mmgb-reference-mlip-reweighting-v1 phase=solution replicate=repeat-0 sample=11
C 1.444348062039383 -1.003974049386989 -1.373329511865985
C 0.374411405845730 -1.248896705783220 -2.470785887122185
C -1.028868510646818 -1.442207641597468 -1.895502233919884
O -1.315355114040501 -1.964914104271328 -0.855763675893382
O -1.981109837303002 -1.038015495117077 -2.685299558382247
H 1.574873323981097 -1.889585453647904 -0.744028094450144
H 2.387681560019342 -0.766500398314163 -1.847486902434203
H 1.270233210298379 -0.103502085156701 -0.747281942636748
H 0.387563876725828 -0.490026974002687 -3.304266184387024
H 0.622106304832007 -2.250554417932071 -2.935973550019646
H -1.497184396133991 -0.590516593149498 -3.380124913363724
11
maple-route1-mmgb-reference-mlip-reweighting-v1 phase=solution replicate=repeat-0 sample=12
C 1.524005548107087 -1.053951559595098 -1.419890814424626
C 0.388948028819574 -1.247135488437665 -2.456758350506443
C -1.058098023622910 -1.508531283472488 -1.921867956931654
O -1.303106535286513 -1.880320165655182 -0.743758545616934
O -2.056215567291162 -1.044396091751548 -2.731216057726970
H 1.698552580419013 -1.987622771968643 -0.898652455243221
H 2.488898889398770 -0.754700507354454 -1.944845522992105
H 1.319883679969238 -0.217715777303882 -0.748359003647357
H 0.343050657344085 -0.305864198988423 -2.988975450296060
H 0.700397185632745 -1.964070514913648 -3.241484360233157
H -1.570449077001282 -0.734801876894580 -3.495854455470679
11
maple-route1-mmgb-reference-mlip-reweighting-v1 phase=solution replicate=repeat-0 sample=13
C 1.502311732829183 -1.146245182039553 -1.448911345604738
C 0.312849735653938 -1.170425622887359 -2.461604203539952
C -1.039783536184635 -1.485247808461740 -1.919261761707396
O -1.235580343350897 -1.781693071174838 -0.746436762747140
O -2.045274779843367 -1.099323070787962 -2.698157876767827
H 1.553448101890938 -2.151090598817128 -0.992326225998103
H 2.488929654863739 -0.945351028077784 -1.919680191905015
H 1.360856248959146 -0.386473160197920 -0.706234000981972
H 0.353138415782845 -0.282119510031158 -3.083437805090698
H 0.548665333488978 -1.972507115396829 -3.119328647931770
H -1.624848582561653 -1.007257043011380 -3.604693759793629
11
maple-route1-mmgb-reference-mlip-reweighting-v1 phase=solution replicate=repeat-0 sample=14
C 1.464512848421779 -1.249318458782429 -1.456645155845182
C 0.345323245274093 -1.172566417188817 -2.551665028278145
C -1.034394958144817 -1.374357070715666 -1.872123415961508
O -1.208664302126546 -1.697872855115483 -0.716908382490415
O -2.055050922408921 -1.195809978947135 -2.695544026954961
H 1.479823002522847 -2.229554115908928 -0.925593110793817
H 2.448382607267540 -1.052266549531447 -1.789113152440668
H 1.215543611465344 -0.427018978999411 -0.751663855987657
H 0.447520190645785 -0.168883055938325 -2.972677149563909
H 0.490888292060329 -1.874820093065473 -3.361625749062762
H -1.681160179641144 -0.839728826919134 -3.540892479564654
11
maple-route1-mmgb-reference-mlip-reweighting-v1 phase=solution replicate=repeat-0 sample=15
C 1.534470176030662 -1.308613526126497 -1.478909996580383
C 0.331977840179368 -1.133101802185456 -2.438093041767932
C -1.078432047172684 -1.318207079755689 -1.859975730429031
O -1.215160439372627 -1.639974044643588 -0.688401994052375
O -2.081453217960704 -1.240928184318257 -2.782885670681154
H 1.619550609056885 -2.326788237946514 -1.091252656924561
H 2.448931045345674 -1.166755710456322 -2.056907548603211
H 1.561524188170535 -0.551768038581092 -0.659662887133422
H 0.472791378635735 -0.201695203516696 -3.003626614114721
H 0.391438133666630 -1.945501317897575 -3.200959926999944
H -1.712184394544041 -1.042390295529536 -3.637439015643773
11
maple-route1-mmgb-reference-mlip-reweighting-v1 phase=solution replicate=repeat-0 sample=16
C 1.577096015438345 -1.354789115122824 -1.537232217879897
C 0.372186606093038 -1.127333530700280 -2.467945152726707
C -1.054874066161842 -1.287963244325781 -1.840413477923692
O -1.391165216475339 -1.564601150946015 -0.687462030692872
O -1.998792504292240 -1.304601697640737 -2.721276065794725
H 1.600513233477586 -2.391168590476804 -1.205509190230318
H 2.576037174866904 -1.302968828459464 -2.121797495010724
H 1.654244099304493 -0.684478966685974 -0.673954610580693
H 0.428700597242430 -0.077770010302961 -2.783233531712472
H 0.381736951556638 -1.682031501462806 -3.456474896108165
H -1.632700450886856 -1.158986193655929 -3.593846466040715
11
maple-route1-mmgb-reference-mlip-reweighting-v1 phase=solution replicate=repeat-0 sample=17
C 1.566808507420274 -1.460857089691412 -1.559520348607788
C 0.316285359734215 -1.054931960262055 -2.383631238890277
C -1.067360645828601 -1.361292835674243 -1.850174627345758
O -1.289250666366250 -1.441589487542217 -0.612824636144620
O -2.028259197235124 -1.329798716056466 -2.838088377228434
H 1.499585071280487 -2.545213967385702 -1.310408085608788
H 2.532992266841965 -1.416422336221137 -2.105034582150871
H 1.667937749687155 -0.915817404917057 -0.633212434136103
H 0.352838505322752 0.006254449338235 -2.686414046023305
H 0.319718397756918 -1.588918129702175 -3.323850669607542
H -1.589786996420518 -1.116394163870265 -3.713730784572591
11
maple-route1-mmgb-reference-mlip-reweighting-v1 phase=solution replicate=repeat-0 sample=18
C 1.475143916615718 -1.592910471204719 -1.574438083271736
C 0.376085220020235 -1.006520238599666 -2.448741230552422
C -0.991218010240062 -1.381863893752259 -1.879163601672187
O -1.288600918679023 -1.329827313172593 -0.706662092538775
O -2.036133775883306 -1.359013108878919 -2.686261693734627
H 1.421486838588848 -2.683602552534924 -1.396578566143328
H 2.428538992103189 -1.372180770168863 -1.911722238606526
H 1.309331607611470 -1.057032586133209 -0.606124790561772
H 0.419753526535111 0.087900113144957 -2.404976948809118
H 0.491591282263429 -1.289070492093068 -3.458809056947010
H -1.703831057891543 -1.343926842674951 -3.619383729647474
11
maple-route1-mmgb-reference-mlip-reweighting-v1 phase=solution replicate=repeat-0 sample=19
C 1.474476288789347 -1.688798265223513 -1.629498182564368
C 0.311962246346743 -0.992543966410885 -2.412490353268981
C -1.020863695452876 -1.366347185494467 -1.823338233924151
O -1.236600760697404 -1.210157535864439 -0.616589215559127
O -2.024271696404197 -1.398492099615445 -2.781959344672210
H 1.473089400200534 -2.749917704892758 -1.749970054151218
H 2.424918735116451 -1.336875319691729 -1.991968045953610
H 1.369765486109796 -1.459288883211900 -0.558501173536806
H 0.329677978156852 0.085996174503727 -2.335080297677961
H 0.473788449510829 -1.231426108523568 -3.474501910928940
H -1.590117377644762 -1.451587436929056 -3.628996457130161
11
maple-route1-mmgb-reference-mlip-reweighting-v1 phase=solution replicate=repeat-0 sample=20
C 1.539169782441654 -1.788017735233658 -1.723250739245797
C 0.349247311905198 -0.978891287849249 -2.363721465259398
C -1.040544144779789 -1.270037585209002 -1.795464667097643
O -1.370334672368857 -1.136213111280444 -0.636368064156045
O -1.986130302281604 -1.458038753008273 -2.719601353600445
H 1.427754895447295 -2.801408312008159 -2.080477822905356
H 2.511473911389712 -1.451814838667057 -2.206041533634485
H 1.587322948448951 -1.765046499423483 -0.667439318461076
H 0.480595618608010 0.099724440814241 -2.245693306374406
H 0.489608459176312 -1.182232609682149 -3.465873583671292
H -1.484115649606149 -1.410314094253829 -3.538116048041968
11
maple-route1-mmgb-reference-mlip-reweighting-v1 phase=solution replicate=repeat-0 sample=21
C 1.499208666384619 -1.897856502779231 -1.856667887123253
C 0.400845760303642 -0.899825983976520 -2.316205488316825
C -1.048840985479984 -1.243709937920106 -1.764565858203534
O -1.415697765224123 -1.036063116059140 -0.614815118227924
O -1.951822235835876 -1.539857969904824 -2.717296379913569
H 1.268597560848428 -2.948641886093186 -2.170683707227250
H 2.501228420503211 -1.642588352815560 -2.264920944396092
H 1.566468397012853 -1.836065348997687 -0.765880636224767
H 0.664472704587334 0.088016540804804 -1.807565661338855
H 0.516677826157663 -0.816158396200078 -3.391510140318932
H -1.370234269043984 -1.584403327680243 -3.522598322675771
11
maple-route1-mmgb-reference-mlip-reweighting-v1 phase=solution replicate=repeat-0 sample=22
C 1.332076046375965 -1.988495609204301 -1.986969331276760
C 0.367946115809524 -0.799931646383200 -2.162707359876637
C -1.013307232299029 -1.192665421815761 -1.743096911997495
O -1.373090360857165 -0.957097851556068 -0.620555588811378
O -1.839535075031535 -1.634332780354849 -2.734432386135613
H 0.952450026687161 -2.963871515968886 -2.414185525599089
H 2.290615470099805 -1.777445012555252 -2.432648914983249
H 1.541647233564257 -2.109725350294018 -0.869625195353310
H 0.744249721212597 0.119526222037594 -1.663964382965527
H 0.335927187008175 -0.714620130511407 -3.228313589020412
H -1.214790783437582 -1.760745631800249 -3.497637777929361
11
maple-route1-mmgb-reference-mlip-reweighting-v1 phase=solution replicate=repeat-0 sample=23
C 1.244485680517521 -2.098753753306133 -2.104754630651570
C 0.456809554544532 -0.752672719386859 -2.183718953324291
C -1.020246214308151 -1.011151423050718 -1.731679631786608
O -1.474650255650126 -0.930683622191927 -0.602595571360372
O -1.727679330201842 -1.728559194273127 -2.635544726904921
H 0.817657821369088 -2.863849711711932 -2.739465292792425
H 2.311873202184956 -1.980689531173909 -2.368114478080290
H 1.234860463053935 -2.482168005453703 -1.057781243541090
H 0.981583867318133 -0.048298376362559 -1.580978461309591
H 0.382649106994824 -0.494910554239529 -3.271628764952137
H -1.185658098535330 -1.679613103619608 -3.422840198501726
11
maple-route1-mmgb-reference-mlip-reweighting-v1 phase=solution replicate=repeat-0 sample=24
C 1.182089652271471 -2.152028433491597 -2.197446250734176
C 0.401775572992238 -0.817592501336230 -2.114683332714095
C -1.061195383111958 -0.921490093970655 -1.755680836581463
O -1.427463222433569 -0.829685682667675 -0.601427118735200
O -1.649709872714144 -1.787563550629579 -2.603097929404302
H 0.873061933397907 -2.723257900662750 -3.058908734838750
H 2.292875909698655 -1.986252756952512 -2.286538393831675
H 1.065998466302646 -2.802095715184788 -1.372319564842201
H 0.861659684293105 -0.374006573463168 -1.232612904768039
H 0.450559892262551 -0.232479780313489 -3.062938788862851
H -1.091432415911632 -1.756805950221964 -3.385843964603285
11
maple-route1-mmgb-reference-mlip-reweighting-v1 phase=solution replicate=repeat-0 sample=25
C 1.130990388115198 -2.158730192131594 -2.236939770690290
C 0.521502486675561 -0.795900238219833 -2.031979912770865
C -0.974265631632861 -1.018726339654985 -1.716638567621674
O -1.478967513443145 -0.747602228007077 -0.646934339909771
O -1.706308745183089 -1.790025835967645 -2.608824264319896
H 0.813442556158323 -2.497677369643856 -3.226895183181457
H 2.214080890828228 -2.178886411731804 -2.176199427020165
H 0.803849641979286 -2.965727037788045 -1.606192107490647
H 1.051247547730668 -0.255787644116311 -1.186227467630586
H 0.542364112266842 -0.287601257124551 -2.984792363464055
H -1.096894744620176 -1.967697843284923 -3.386723925353278
11
maple-route1-mmgb-reference-mlip-reweighting-v1 phase=solution replicate=repeat-0 sample=26
C 1.242251801736003 -2.242043325744018 -2.270558047446967
C 0.456822919686737 -0.900685456717904 -2.021549139229214
C -1.022523718302982 -0.964072396665600 -1.716342153228810
O -1.534136028880117 -0.712393671293436 -0.626665006936662
O -1.684539580158023 -1.706879500528726 -2.624408956721494
H 1.078022539143534 -2.772582858605791 -3.221699160241363
H 2.277793848454665 -2.049381163577817 -2.120491950263057
H 1.045975476383832 -3.065094295730572 -1.534952846446772
H 0.944533916932076 -0.363634991351184 -1.194208033663488
H 0.529461307381016 -0.345450076722519 -2.965172943613724
H -1.001540928206630 -1.853805229387296 -3.334124807892134
11
maple-route1-mmgb-reference-mlip-reweighting-v1 phase=solution replicate=repeat-0 sample=27
C 1.206843831568726 -2.286243666145992 -2.174234056410018
C 0.530262354441891 -0.900176380202780 -2.024705793693953
C -0.997767960868968 -0.989336062207566 -1.733426557130232
O -1.526900051777761 -0.741491174349233 -0.654122653824768
O -1.738832986513838 -1.623107632365730 -2.673792539072057
H 0.816913280732121 -2.983700005596645 -2.906921246776933
H 2.300905305207934 -2.151239656873128 -2.274074183092767
H 1.111225386857670 -2.835586198011131 -1.211792481068749
H 1.034253420969171 -0.332539582043133 -1.270685898428881
H 0.727223465773608 -0.431886920889755 -3.033092736698293
H -1.116266561059240 -1.762225153129539 -3.369643198853139
11
maple-route1-mmgb-reference-mlip-reweighting-v1 phase=solution replicate=repeat-0 sample=28
C 1.129466772175152 -2.305021560081558 -1.978579780204722
C 0.483195788884150 -0.926129521000473 -2.056565010850774
C -0.984668095016969 -1.040997056025126 -1.753075220363036
O -1.404026294896067 -0.774255718863087 -0.664978232560498
O -1.745617774404482 -1.518077543749902 -2.775794218378866
H 0.491696882712781 -3.006496785363924 -2.527946186796092
H 2.173122090178233 -2.315764382774538 -2.428205505640316
H 1.181835458393358 -2.741979419287027 -1.009938147786867
H 0.956061158504314 -0.145621825099001 -1.426028728659662
H 0.678325642881558 -0.676507373966353 -3.098527896153534
H -1.119877690367479 -1.617824028170997 -3.498500312494104
11
maple-route1-mmgb-reference-mlip-reweighting-v1 phase=solution replicate=repeat-0 sample=29
C 1.152402301080558 -2.375293475325409 -1.789987844603008
C 0.488864839691167 -1.023456730672750 -2.216012656979943
C -0.995407854097709 -0.953956381396949 -1.794749325302252
O -1.412265222808904 -0.856554045093632 -0.663332804612415
O -1.755212615104367 -1.360891502904685 -2.804405687199505
H 0.496041160555428 -3.213339595228819 -2.130477455024771
H 2.163357095535236 -2.498971878595071 -2.152046004435710
H 1.140057271913343 -2.512172284217460 -0.713423266787704
H 0.990130378102156 -0.225752469923236 -1.613162742345101
H 0.738419600850857 -0.818754404834443 -3.239945532621227
H -1.103064255098189 -1.465336459112139 -3.565347777337882
11
maple-route1-mmgb-reference-mlip-reweighting-v1 phase=solution replicate=repeat-0 sample=30
C 1.127273647961521 -2.422389900052729 -1.619715365794125
C 0.546194390842934 -1.112200252867355 -2.184005944935043
C -0.952407972239423 -0.928667950702616 -1.872787485617060
O -1.364861229347581 -0.928719590990378 -0.721277840159093
O -1.856066811177805 -1.198314030011222 -2.853895930855685
H 0.578931360633239 -3.310487834064682 -1.920650918929785
H 2.133914974383145 -2.450844408164344 -1.939255546967650
H 1.115089979355858 -2.413189645461256 -0.474461157407849
H 1.169750994146829 -0.278997027417983 -1.866122020125872
H 0.723951285802006 -1.107584686267112 -3.282160316973463
H -1.345633781582253 -1.291432332699198 -3.696438884919336
11
maple-route1-mmgb-reference-mlip-reweighting-v1 phase=solution replicate=repeat-0 sample=31
C 1.099672616941896 -2.436514474157642 -1.503763416685364
C 0.483566168234444 -1.201327339306772 -2.223304830291626
C -0.958792524919768 -1.096532657356064 -1.883268219674990
O -1.309773236246031 -0.890319690267796 -0.711029029880471
O -1.825556373545739 -1.033412157104846 -2.929299805906411
H 0.688880186729580 -3.382380792762617 -1.801948613094281
H 2.206859677677338 -2.407171922815094 -1.711324071454845
H 0.963060607522528 -2.321449335073258 -0.414368914202561
H 1.053531143258466 -0.322889856710952 -1.961521882118853
H 0.593035354504969 -1.303996792582981 -3.321418175773574
H -1.332978473466182 -1.104553710228771 -3.731899422899535
11
maple-route1-mmgb-reference-mlip-reweighting-v1 phase=solution replicate=repeat-0 sample=32
C 1.181574808868630 -2.461229065859408 -1.442297245689692
C 0.459719864501562 -1.366284593958078 -2.306061674181082
C -1.020555205991573 -1.195854169331426 -1.862023362122197
O -1.389936715810492 -0.812993759505838 -0.760473746862885
O -1.749728092649020 -0.861739427997130 -2.887692917374895
H 0.757560738245587 -3.451369693926289 -1.712320292608932
H 2.308096949232903 -2.514827851752504 -1.596159249981846
H 0.964256071890721 -2.290967200190133 -0.427993473298418
H 0.991236987149550 -0.436778217729984 -2.006103166920255
H 0.565874742405661 -1.511837593323483 -3.373375262945935
H -1.302140491591289 -1.137734632106154 -3.698417062371355
11
maple-route1-mmgb-reference-mlip-reweighting-v1 phase=solution replicate=repeat-0 sample=33
C 1.242008859625166 -2.518156373599371 -1.394365030000188
C 0.417055617801954 -1.501286414184098 -2.199770811000263
C -1.055381783791622 -1.128539508339792 -1.880624175230988
O -1.359747727963667 -0.790434280766523 -0.763567148644861
O -1.768562077128023 -0.759676326498642 -2.975229403635361
H 0.725225711312753 -3.478883775042706 -1.650723054776639
H 2.230677201076939 -2.598159884699300 -1.788810090942513
H 1.259362768240983 -2.344249195298982 -0.304040930401994
H 0.978476497834456 -0.538749919967684 -2.199959443985141
H 0.407457764108717 -1.860907350141635 -3.239910957791114
H -1.278318294159777 -1.020722477408811 -3.807053154578417
11
maple-route1-mmgb-reference-mlip-reweighting-v1 phase=solution replicate=repeat-0 sample=34
C 1.090187407890945 -2.575039931537662 -1.336521481748254
C 0.479007301540749 -1.522236429929259 -2.323494987073898
C -0.990468525267489 -1.109432961102519 -1.912269105815910
O -1.339396483531449 -0.788956842590451 -0.772615382709159
O -1.762171357984579 -0.725500484687916 -2.914763512981580
H 0.530683217293881 -3.483585167818648 -1.249865021939497
H 2.069358815476397 -2.780795099999417 -1.677681547798521
H 1.202297347714569 -2.044452194021050 -0.319067530988110
H 1.088875620394132 -0.628185726133595 -2.280169489727763
H 0.537911853934835 -1.863880033284049 -3.391560183781325
H -1.230256104511288 -0.905377446186571 -3.726676219803173
11
maple-route1-mmgb-reference-mlip-reweighting-v1 phase=solution replicate=repeat-0 sample=35
C 0.890171485232389 -2.601646458511557 -1.287498584146512
C 0.443479746687792 -1.503867762083492 -2.320399620777806
C -0.915855173417889 -1.016847539155191 -1.937522106779900
O -1.197726115629691 -0.840615234307233 -0.749883586106395
O -1.736446272513302 -0.710324853110996 -2.960539456385431
H 0.201727029512295 -3.403812165418000 -1.142587335869326
H 1.891491735937143 -3.005308315045001 -1.647848319401132
H 1.099035703177702 -2.104753252401780 -0.348153091420826
H 1.103638670122098 -0.655960533427958 -2.441407617091675
H 0.393500798199056 -1.940569047481986 -3.309028295691947
H -1.235931829340038 -1.018132576395224 -3.719822555145849
11
maple-route1-mmgb-reference-mlip-reweighting-v1 phase=solution replicate=repeat-0 sample=36
C 0.876744626675958 -2.675668240427665 -1.299838687021176
C 0.452804393756558 -1.643560413802778 -2.300881207206609
C -0.853067411689698 -0.896418656672829 -1.922645542898211
O -1.241045549810879 -0.743020155304390 -0.785333263187767
O -1.731818094458398 -0.706240658108415 -2.944071626680171
H 0.031639783797654 -3.423832132789482 -1.253152629050631
H 1.831537738223717 -3.195560155894932 -1.580379928072786
H 0.989462787177415 -2.250164087794437 -0.346838233276997
H 1.221931618085831 -0.856683467964252 -2.398002819224361
H 0.463846238814031 -2.067652003385794 -3.278100295254989
H -1.171995965089080 -0.842818132016711 -3.721490652194393
11
maple-route1-mmgb-reference-mlip-reweighting-v1 phase=solution replicate=repeat-0 sample=37
C 0.880491868145364 -2.799185706869102 -1.274645616817731
C 0.397753605808145 -1.690439546306511 -2.262342626734486
C -0.846480589398284 -0.852459007594462 -1.912232565790440
O -1.250378289457931 -0.620882221651178 -0.803439508174607
O -1.684833735352981 -0.690656081958636 -2.988692587508917
H 0.052085034335492 -3.578203129522586 -1.239246966617201
H 1.790022856960778 -3.252110037855078 -1.574006653968339
H 1.002451504111834 -2.467401818611110 -0.221655683467402
H 1.177984171746473 -0.909076064080763 -2.408873742989095
H 0.394594208111642 -2.090034388087123 -3.293158273321614
H -1.106514567904789 -1.013831849831004 -3.727077145706710
11
maple-route1-mmgb-reference-mlip-reweighting-v1 phase=solution replicate=repeat-0 sample=38
C 0.732069359622884 -2.849821346786548 -1.261129705267306
C 0.421266906709628 -1.668756128009854 -2.236976148196955
C -0.902165148804430 -1.012478404086772 -1.901846798914326
O -1.157834950318382 -0.502483501685649 -0.820051954899998
O -1.623894099877451 -0.653833664035433 -3.026881326168493
H 0.020080353276575 -3.638876398123919 -1.249537840792748
H 1.709952578640528 -3.245965406520725 -1.521466572013206
H 0.875329630102527 -2.539395744288906 -0.168392582641620
H 1.194136202647840 -0.902795208378978 -2.199445656541426
H 0.411642540132032 -2.031014297433865 -3.309280635681846
H -1.182455564219228 -1.171152842815954 -3.733251393660014
11
maple-route1-mmgb-reference-mlip-reweighting-v1 phase=solution replicate=repeat-0 sample=39
C 0.620369501483049 -2.862278466997967 -1.261211942733389
C 0.430820229780121 -1.696494132734998 -2.183015667898175
C -0.923917429748978 -1.090439187242968 -1.895040840670436
O -1.097091341324054 -0.411528635005153 -0.913686433265237
O -1.572664783757256 -0.654627983713732 -2.999340793891882
H -0.115976687294166 -3.633895709349164 -1.338909482999013
H 1.653169982749675 -3.271518678213106 -1.435571758648173
H 0.620853131072959 -2.513016830290786 -0.236582726501223
H 1.220607431349654 -0.974811162761471 -1.912510522220541
H 0.485585340335356 -2.017387308846343 -3.221030999223715
H -1.141865613320070 -1.144235294676931 -3.698390842098329
11
maple-route1-mmgb-reference-mlip-reweighting-v1 phase=solution replicate=repeat-0 sample=40
C 0.581608140763752 -2.999090130020974 -1.208762077020933
C 0.432409613684508 -1.725674169885112 -2.139059014656564
C -0.843765672885327 -0.876991717778461 -1.928597444730982
O -1.111665955202372 -0.331385317811685 -0.855916786686996
O -1.561173004704311 -0.718490397008687 -3.105464060833600
H -0.266502046637090 -3.661268166615643 -1.508918182929921
H 1.544951291257072 -3.529404875659500 -1.297638500120474
H 0.409587853078856 -2.772982626066542 -0.197426785287507
H 1.302315693876734 -1.057836802991230 -1.933971239735440
H 0.378935244988441 -2.049242794819181 -3.151308478788624
H -1.099534865895079 -1.314288627975678 -3.729786689135361
11
maple-route1-mmgb-reference-mlip-reweighting-v1 phase=solution replicate=repeat-0 sample=41
C 0.436794203615932 -3.046686769643959 -1.222568997268739
C 0.498596428665621 -1.765519466145818 -2.116793759563502
C -0.742175333149645 -0.807866175681842 -1.967536139353101
O -1.133948629883372 -0.274799347079554 -0.964195757481947
O -1.544293064857541 -0.750327811115207 -2.989567977855949
H -0.413540878530268 -3.667824046539509 -1.578894950744189
H 1.361478390112244 -3.562053895181848 -1.314520682917668
H 0.254425806903407 -2.838436624962969 -0.139007360879188
H 1.316739085034374 -1.217780210964007 -1.663026050705621
H 0.616088219129814 -2.016202303790683 -3.178289095082687
H -1.051069673577962 -1.249551948992646 -3.700085699056567
11
maple-route1-mmgb-reference-mlip-reweighting-v1 phase=solution replicate=repeat-0 sample=42
C 0.231832261605478 -3.043473324912065 -1.299643851303324
C 0.524234049202744 -1.699722161282509 -2.026854186174877
C -0.757330799388181 -0.835069160837031 -1.945253490718712
O -0.982552553920517 -0.238755314755299 -0.878355954284712
O -1.519914160701137 -0.814539499802075 -3.099683581078863
H -0.625233804308386 -3.549150950742910 -1.698831841572841
H 1.167352079644515 -3.609780652493489 -1.434255983089015
H 0.088050297919468 -2.858453862915346 -0.177902211627831
H 1.331455262861430 -1.231328419342580 -1.487237872262457
H 0.691586311580799 -1.949626851389622 -3.101947381942149
H -1.039521497195036 -1.403472472073920 -3.718430501394569
11
maple-route1-mmgb-reference-mlip-reweighting-v1 phase=solution replicate=repeat-0 sample=43
C 0.107725805251753 -3.108643254120126 -1.400784091937962
C 0.539926192886111 -1.719237888357309 -2.000914074508189
C -0.682450486930838 -0.819157458644048 -1.923444490407341
O -1.012462025632745 -0.168992733348890 -0.975691962721220
O -1.440104998195895 -0.812708715201046 -2.953944781670423
H -0.812477961221634 -3.485079321173651 -1.852831133082700
H 0.976060135986115 -3.833437605750913 -1.516799158140562
H -0.048838146716569 -2.944131106477738 -0.345537480194213
H 1.414433831608252 -1.282936288354602 -1.464366407199095
H 0.729241146177076 -1.937628165750933 -3.045599365935816
H -1.040016155062665 -1.449814264473844 -3.521859560448267
11
maple-route1-mmgb-reference-mlip-reweighting-v1 phase=solution replicate=repeat-0 sample=44
C 0.111647796262783 -3.229163137491914 -1.481481844418440
C 0.478084684837311 -1.788455678605881 -1.928519577194953
C -0.674577190481556 -0.712474108270250 -1.918028815811019
O -0.939505002318965 -0.048924881053919 -0.899192495251827
O -1.478114589054445 -0.840161963986585 -3.017127917303153
H -0.742081839538817 -3.558943900875299 -2.129246984233670
H 0.952345902382358 -3.902340714468710 -1.559459253721616
H -0.223000797156432 -3.161450035943814 -0.487177500128412
H 1.302843232303994 -1.440061128654498 -1.231803504528942
H 0.924518238560736 -1.923406437913368 -2.913034453853367
H -0.957266597123944 -1.430021541981912 -3.600109178482966
11
maple-route1-mmgb-reference-mlip-reweighting-v1 phase=solution replicate=repeat-0 sample=45
C 0.057726047182877 -3.242699160853511 -1.552058614456922
C 0.473387992057594 -1.799859526399141 -1.844463118349278
C -0.694843703749762 -0.825073271063109 -1.864027675213917
O -0.884429400172132 -0.008710236255853 -1.004467801181889
O -1.452476775624319 -0.765080044085622 -2.958093343796312
H -0.643889528229553 -3.511988912555722 -2.339124643116548
H 0.899088938186867 -3.867260646141331 -1.624525226958309
H -0.449172733445214 -3.375957486089866 -0.564149905259757
H 1.220065486423936 -1.442822276625843 -1.118939047292251
H 1.037651556359196 -1.841684226678989 -2.840505723363496
H -1.149530871290518 -1.561501177425950 -3.492022141224884
11
maple-route1-mmgb-reference-mlip-reweighting-v1 phase=solution replicate=repeat-0 sample=46
C -0.039712372266442 -3.284801380423231 -1.585825864366624
C 0.465195532219055 -1.803750906327535 -1.871705767641606
C -0.646898492885305 -0.763062397960033 -1.842121386459169
O -0.876718902588690 0.036800002339417 -0.941206545690942
O -1.406078735504186 -0.809982381665389 -2.984979027314497
H -0.693020100061358 -3.659238224698512 -2.321554731718608
H 0.853398329970359 -3.954470081652832 -1.496845414346831
H -0.580889616364078 -3.331539651255266 -0.598723183771565
H 1.292176011093949 -1.512044871141184 -1.269094794497094
H 0.907603596211048 -1.792581323832926 -2.893675281703184
H -1.038874182940797 -1.541628041343567 -3.517301581114087
11
maple-route1-mmgb-reference-mlip-reweighting-v1 phase=solution replicate=repeat-0 sample=47
C -0.120272858368140 -3.201952962932943 -1.593332632312805
C 0.472056913087275 -1.853371463629876 -1.901089307603614
C -0.530343274599719 -0.697473078229848 -1.914878423358332
O -0.865394844163556 -0.074839979633931 -0.915164422378201
O -1.430518920507193 -0.789479189809038 -2.938754494004521
H -0.862117793093695 -3.592635519176746 -2.315599210936583
H 0.726327574531346 -3.954973060673327 -1.464400597767535
H -0.614131669657031 -3.107069006109468 -0.634143770302403
H 1.237075475317965 -1.649738860455556 -1.160413694491587
H 0.990219589068214 -1.858042703273196 -2.797079347192607
H -1.048037766349848 -1.378868955700959 -3.571866049326848
11
maple-route1-mmgb-reference-mlip-reweighting-v1 phase=solution replicate=repeat-0 sample=48
C -0.203300663090737 -3.137569022680896 -1.580089379906705
C 0.519685613011316 -1.853390429546530 -1.940459901113885
C -0.531204423066240 -0.750892408808914 -1.920990224386108
O -0.786426496932856 -0.160140814557705 -0.879955370637306
O -1.441376276341677 -0.725565429185679 -2.922817026618149
H -1.015912302573216 -3.315011478672165 -2.390160919251677
H 0.435011741749103 -4.010187080871059 -1.604714845323645
H -0.762871842448092 -3.074477152811709 -0.662059752616841
H 1.337380208984571 -1.611535772983557 -1.238060295261560
H 0.942229434587260 -1.904337631340979 -2.908562753912773
H -1.148096363778947 -1.410101726514198 -3.565923051630782
11
maple-route1-mmgb-reference-mlip-reweighting-v1 phase=solution replicate=repeat-0 sample=49
C -0.238628153491383 -3.241135425044587 -1.584943740597312
C 0.408993468693976 -1.886738151327616 -2.038147124843757
C -0.546977562367837 -0.719165041827750 -1.876969057430252
O -0.762117408928907 -0.127688556550908 -0.810084564597445
O -1.346162262629246 -0.659243458028578 -2.931189049721948
H -1.059445904819622 -3.527852917270105 -2.244884843665621
H 0.469194536443890 -4.034094777508624 -1.666693270763481
H -0.693083141877486 -3.196404292462419 -0.561393502086563
H 1.290684050792985 -1.615589515958355 -1.438988942692283
H 0.762443866480252 -1.962311567337955 -3.141579088810684
H -0.952848684748980 -1.315830205902862 -3.584131081472103
11
maple-route1-mmgb-reference-mlip-reweighting-v1 phase=solution replicate=repeat-0 sample=50
C -0.239953194993382 -3.302265375978857 -1.605371700952446
C 0.408775813151233 -2.005186601328131 -2.005153615546788
C -0.573050663728326 -0.757183849126048 -1.865668663629927
O -0.743587572917746 -0.121184329501733 -0.845998000651519
O -1.350046556863229 -0.484384399364773 -2.920090489927676
H -1.098917611017166 -3.546589555960646 -2.121212969297772
H 0.504621390885288 -4.086459829784428 -1.803029089417003
H -0.477298408798721 -3.225020942810633 -0.525693556151380
H 1.300875010229888 -1.825474538731110 -1.348900173038555
H 0.737227432489773 -2.159420105489957 -3.104219769993706
H -1.062955214479013 -1.094787720924526 -3.622039743580706
11
maple-route1-mmgb-reference-mlip-reweighting-v1 phase=solution replicate=repeat-0 sample=51
C -0.288062767093756 -3.329931490106887 -1.576202356848760
C 0.354123164165691 -1.950373803709743 -1.999413489285500
C -0.633607402920939 -0.797355771976650 -1.856562396759953
O -0.656619663975765 -0.180784821599016 -0.804824906761726
O -1.285295580643191 -0.418563239390908 -2.990101038078146
H -1.202768144997841 -3.563554479153388 -2.122868297080967
H 0.403306043630012 -4.170750080327029 -1.847460537009470
H -0.514672641995074 -3.311622123597555 -0.539466922696728
H 1.282156785274790 -1.710652246409473 -1.431341040062089
H 0.565190562501923 -2.040727420964063 -3.016898861594074
H -1.079234971486783 -1.082674032833767 -3.627110727364060
11
maple-route1-mmgb-reference-mlip-reweighting-v1 phase=solution replicate=repeat-0 sample=52
C -0.332664108827409 -3.317340727318436 -1.598146745317895
C 0.320609011170041 -2.006145773807610 -2.107439016078747
C -0.602501305880188 -0.819036984311090 -1.829057174209205
O -0.706552865661867 -0.167212260812211 -0.798478111490193
O -1.187192492433536 -0.382019322426857 -2.906799826172169
H -1.337012300722027 -3.450021466334428 -2.141058295572819
H 0.260750225713984 -4.196887625679304 -1.861643471530190
H -0.500684489589180 -3.222235187596265 -0.533584456549801
H 1.208424914365497 -1.871182417864474 -1.563674538959912
H 0.498107924213862 -2.118299317785497 -3.114968718995462
H -0.892021990569753 -1.043686229842405 -3.560195317899848
11
maple-route1-mmgb-reference-mlip-reweighting-v1 phase=solution replicate=repeat-0 sample=53
C -0.390999034402793 -3.329122894080570 -1.608272435189627
C 0.305822577185655 -2.055645603438697 -2.082184555825136
C -0.537516046532899 -0.770065062439378 -1.846020372948818
O -0.677705553621655 -0.282733360153504 -0.731717361618893
O -1.202710214636320 -0.252688270166027 -2.970221698877506
H -1.379554885229340 -3.416053758756338 -2.101248218344792
H 0.197994052715864 -4.187762702391202 -1.911410847081379
H -0.499493629935967 -3.278008975825943 -0.468732919242155
H 1.168934255819373 -2.029099192465875 -1.483955559549999
H 0.576528927705875 -2.166643103824308 -3.142041007682630
H -0.942997129597059 -0.917040519700254 -3.690573774150497
11
maple-route1-mmgb-reference-mlip-reweighting-v1 phase=solution replicate=repeat-0 sample=54
C -0.496741995674799 -3.312173447796943 -1.634625037690919
C 0.284441582161289 -2.025648199717782 -2.119536571526798
C -0.519136292373284 -0.803480438570286 -1.829639691090222
O -0.662036831867787 -0.352715989881475 -0.757641055761332
O -1.129744595144358 -0.209901415585854 -2.894633854268536
H -1.405798817600624 -3.442226647821208 -2.175690543315664
H 0.148953415440400 -4.194361335136123 -1.863861623442113
H -0.667421723395528 -3.291664786442925 -0.510364982067880
H 1.284289917952247 -1.979156156652491 -1.572611344028918
H 0.469518663963913 -2.084863311184963 -3.251145870174277
H -0.812669283843644 -0.738970178638004 -3.641428607255508
11
maple-route1-mmgb-reference-mlip-reweighting-v1 phase=solution replicate=repeat-0 sample=55
C -0.528877974841545 -3.316928822340632 -1.704141524413039
C 0.253739665481584 -2.090219355308394 -2.196062647744080
C -0.531852999463409 -0.792562273307385 -1.786733283610064
O -0.684969168521615 -0.321423815603729 -0.656046675419901
O -1.034942270439109 -0.183738829049525 -2.901434996124244
H -1.469193103614570 -3.416223790411274 -2.253120405750039
H 0.058128277828882 -4.259372844064931 -1.808873899906123
H -0.715699481999519 -3.185151391103592 -0.683437968212635
H 1.269603613739233 -2.146766134129373 -1.652583608866534
H 0.403392031430607 -2.162328221846633 -3.310980479127839
H -0.766950327400892 -0.780874022884070 -3.574192821203110
11
maple-route1-mmgb-reference-mlip-reweighting-v1 phase=solution replicate=repeat-0 sample=56
C -0.565658727038363 -3.395775430296522 -1.742507511456710
C 0.182647928792590 -2.095218433338541 -2.066454918851383
C -0.525465437226173 -0.789778296408968 -1.846552516205449
O -0.621711672227525 -0.348038835394294 -0.705955117706956
O -1.000761282260535 -0.091365179195768 -2.876491305217921
H -1.533329564917165 -3.380657653652856 -2.303900400062750
H 0.000457584351035 -4.246806509728436 -2.040064282281851
H -0.741645962488086 -3.519143905280445 -0.699679925755284
H 1.072578517357586 -2.067838496946877 -1.455358099032488
H 0.441152191052613 -2.132812604308257 -3.113351210070845
H -0.799135694834500 -0.677964767337922 -3.642212086857005
11
maple-route1-mmgb-reference-mlip-reweighting-v1 phase=solution replicate=repeat-0 sample=57
C -0.646494629322459 -3.377410514620931 -1.791194657995404
C 0.246999949898080 -2.130273980466252 -2.096020369403182
C -0.587207063162465 -0.821597327275090 -1.790604251759440
O -0.613727366694382 -0.290541771078459 -0.674890891641315
O -0.936379808601993 -0.113092012930123 -2.880117288941988
H -1.591284901986927 -3.277984812994625 -2.310906629087760
H -0.179547603700033 -4.301270508143785 -2.049583702997289
H -0.849571149722335 -3.516740618230414 -0.683088810142439
H 1.131742358994783 -2.074467556111674 -1.549122075988757
H 0.453394536589376 -2.159080314781830 -3.146502196684410
H -0.736863787258925 -0.700581200408076 -3.672046668020754
11
maple-route1-mmgb-reference-mlip-reweighting-v1 phase=solution replicate=repeat-0 sample=58
C -0.724718659812999 -3.293968386639343 -1.828756843720751
C 0.171598656579057 -2.134533769632277 -2.106829938595365
C -0.491146884327520 -0.785556473167286 -1.764785576413438
O -0.627512334776402 -0.310459533511444 -0.652832299259617
O -0.877194304639618 -0.183991111595367 -2.889326480386886
H -1.648829602821811 -3.308930136701131 -2.387304861066140
H -0.089169121206739 -4.204597259343805 -2.012765861319764
H -0.895679670060917 -3.396399486921592 -0.742020203554858
H 1.000045152689137 -2.133896339473748 -1.419280238642112
H 0.523480790597190 -2.155569289932217 -3.139335281900426
H -0.694203187121675 -0.763254462195573 -3.640503404127153
11
maple-route1-mmgb-reference-mlip-reweighting-v1 phase=solution replicate=repeat-0 sample=59
C -0.806875484802721 -3.307009965205156 -1.844887296101476
C 0.260144831870813 -2.194711227408005 -1.999334975761846
C -0.420651583856909 -0.783038044923871 -1.800726606095546
O -0.635070007340884 -0.343742435466558 -0.694814180491500
O -0.911456426455737 -0.111493649915860 -2.879537369570190
H -1.594409814453718 -3.113356836641479 -2.631933424873381
H -0.345928159542775 -4.329135055239957 -1.981830462776438
H -1.249692514802552 -3.331683168400561 -0.885499232499950
H 1.133869078644705 -2.204022245153944 -1.278754560013984
H 0.649356953097945 -2.218472441074111 -3.036478620910996
H -0.635479380966701 -0.547787456999961 -3.676544638169450
11
maple-route1-mmgb-reference-mlip-reweighting-v1 phase=solution replicate=repeat-0 sample=60
C -0.848534941209731 -3.285788904566191 -1.928838125624190
C 0.179607468118584 -2.137359312954079 -1.993354724728713
C -0.366041401129492 -0.759578713860952 -1.784035783231782
O -0.638953365114715 -0.326211262000745 -0.645933952218749
O -0.846889757207061 -0.199085255390686 -2.887328122859729
H -1.548081848178289 -3.164386292275868 -2.792562670984023
H -0.386434045017003 -4.248067999287125 -1.907195947362578
H -1.389878900337872 -3.175133081132269 -0.992392264300529
H 0.939899164387140 -2.246888214029802 -1.185105053702118
H 0.746961592753592 -2.163830341842057 -2.958710917712533
H -0.560305600857005 -0.838356467437196 -3.569988533417725
11
maple-route1-mmgb-reference-mlip-reweighting-v1 phase=solution replicate=repeat-0 sample=61
C -0.900915625891185 -3.220842759466116 -2.031668043294223
C 0.236041256876777 -2.200468111989727 -1.937069256471597
C -0.405558688911983 -0.803841290779341 -1.731481607187953
O -0.631020870365646 -0.254007707228003 -0.653475813709743
O -0.818744704994989 -0.229076231953403 -2.877392215209185
H -1.372673782876263 -3.149998353884651 -2.974248137127839
H -0.498817757733603 -4.184386834108522 -1.869611270106111
H -1.607398657947224 -3.005056055147984 -1.175399459308414
H 0.883594416175843 -2.451201323606001 -1.116549093811592
H 0.834808342814675 -2.258516899765631 -2.856520652552396
H -0.595352748544763 -0.950897190001373 -3.518538232649568
11
maple-route1-mmgb-reference-mlip-reweighting-v1 phase=solution replicate=repeat-0 sample=62
C -0.974667440759903 -3.239248247550821 -2.116396115923932
C 0.173989472443286 -2.208622553008250 -1.786047354190493
C -0.319068308033477 -0.745846217527702 -1.720784218054206
O -0.587718870508046 -0.262329863009823 -0.679684930562882
O -0.822023603415121 -0.238820331970944 -2.904046930738471
H -1.248108470462542 -3.119083593537953 -3.131128169890045
H -0.497096009966946 -4.222341469174823 -2.011736801338370
H -1.809598153240325 -3.184737475409510 -1.416459872137053
H 0.697054725950988 -2.488082955509654 -0.880489615510980
H 0.868130609876594 -2.278426325858358 -2.576713297268663
H -0.405536169886322 -0.808474142345252 -3.580929689695469
11
maple-route1-mmgb-reference-mlip-reweighting-v1 phase=solution replicate=repeat-0 sample=63
C -1.002905776691021 -3.210761399333002 -2.197131696943360
C 0.137121676143892 -2.230951624682979 -1.785402630064374
C -0.318848463991263 -0.765625439161126 -1.686318074747639
O -0.617924410774880 -0.190855562111480 -0.677051770569523
O -0.718165344565345 -0.291282876467523 -2.874327975205608
H -1.387345536112563 -2.947634839725124 -3.220833144772422
H -0.597581654678586 -4.254558031717172 -2.215491896556853
H -1.749053244904981 -3.129683542982344 -1.461526838882649
H 0.478891410795314 -2.541251010013737 -0.773267939130444
H 0.980683804755946 -2.318697266469973 -2.469166730111914
H -0.531416241173602 -1.041194467940463 -3.429160261665863
11
maple-route1-mmgb-reference-mlip-reweighting-v1 phase=solution replicate=repeat-0 sample=64
C -1.024285142059737 -3.180591345164751 -2.187955548565925
C 0.117763748466649 -2.265946073199440 -1.738172934246442
C -0.375033386126195 -0.801495133960632 -1.692898169195572
O -0.644734317404915 -0.177965315894810 -0.654046645795362
O -0.620570204360259 -0.284079041368129 -2.922892032730578
H -1.437469038430042 -2.741800674308796 -3.142711201740695
H -0.685625987541956 -4.194313159388590 -2.392808431305053
H -1.817231123926240 -3.126610425339198 -1.400514700532940
H 0.553097264127701 -2.613294922922981 -0.777811711252290
H 0.929623234249706 -2.353663622072157 -2.543347386002264
H -0.315288031844400 -1.028269772880484 -3.499900610511984
11
maple-route1-mmgb-reference-mlip-reweighting-v1 phase=solution replicate=repeat-0 sample=65
C -1.083488342965361 -3.219962788298136 -2.131230027651499
C 0.050720605518405 -2.244316387546380 -1.731254571623048
C -0.291458171093684 -0.774693081825319 -1.724993194618276
O -0.690793303237911 -0.244108999216448 -0.706083941520566
O -0.534683621812234 -0.220742003742718 -2.910190121664517
H -1.558945696043470 -2.925777891958665 -3.047641327225798
H -0.611437841020019 -4.181729929144219 -2.298673732173012
H -1.899335817724590 -3.295202029022160 -1.318513993323671
H 0.487878213915170 -2.514229047900043 -0.765946131087514
H 0.833588169870638 -2.313328060140310 -2.524805359721258
H -0.154132410559190 -0.886654900535499 -3.555389742919540
11
maple-route1-mmgb-reference-mlip-reweighting-v1 phase=solution replicate=repeat-0 sample=66
C -1.131308689486144 -3.221463982034375 -2.063302378727536
C 0.134486621750231 -2.332034589214306 -1.813645876344048
C -0.354378736825993 -0.790906474805988 -1.720956363497625
O -0.783904196313215 -0.238997923920133 -0.703706215907663
O -0.406492224870079 -0.149112965908234 -2.918251218486168
H -1.675453480437894 -3.016389726175031 -2.978511114920396
H -0.852652870697823 -4.309431783073007 -2.073503341574448
H -1.845606615085500 -3.054697850423716 -1.261484725971816
H 0.536424749479725 -2.534155835609668 -0.816000771788504
H 0.892768790154674 -2.381939968152499 -2.570333415781100
H -0.195901746761192 -0.792960417264182 -3.589976471399300
11
maple-route1-mmgb-reference-mlip-reweighting-v1 phase=solution replicate=repeat-0 sample=67
C -1.126544263886292 -3.152419796224994 -1.973618847134852
C 0.011187884903855 -2.244677976043031 -1.852664888935765
C -0.413218949385373 -0.833296195007692 -1.765077825670397
O -0.802188324589979 -0.354216967315768 -0.724650780399580
O -0.271519916016907 -0.146756442122912 -2.898522909354369
H -1.630094944495006 -3.075967438849772 -2.971482277468517
H -0.737900972527595 -4.181221396109757 -1.892678182969273
H -1.903042878193283 -3.024579863748524 -1.265814534367939
H 0.599030198564742 -2.405172513614544 -0.948378928732591
H 0.616135811950913 -2.271675138728387 -2.726409534775625
H 0.173743835753179 -0.701504754097491 -3.539545632331443
11
maple-route1-mmgb-reference-mlip-reweighting-v1 phase=solution replicate=repeat-0 sample=68
C -1.184157560734130 -3.272662323771231 -1.941554354860327
C 0.048640909680659 -2.350167193959201 -1.876558786022989
C -0.418656450456104 -0.814237806766168 -1.792150236674628
O -0.850335390146758 -0.304683077285501 -0.744617136130323
O -0.186806317348039 -0.016852017073615 -2.869775401243639
H -1.750655313354752 -3.056373016368599 -2.850870918170773
H -1.001531837116597 -4.331398029398416 -1.886664995176661
H -1.930102628406758 -3.071942628067487 -1.144486091254860
H 0.667406937960145 -2.513468839233468 -1.012619500767722
H 0.662015491381636 -2.441289586871404 -2.790812771938869
H 0.188667195985524 -0.625919940844469 -3.577090680565120
11
maple-route1-mmgb-reference-mlip-reweighting-v1 phase=solution replicate=repeat-0 sample=69
C -1.213943959400065 -3.268016321155921 -1.960401626602497
C -0.031068403732396 -2.273610708052165 -1.937202766322670
C -0.387524088352004 -0.800625936022508 -1.769028916800962
O -0.887818352009202 -0.331167972319765 -0.771280343743283
O -0.091539853759470 -0.044998721828698 -2.817360669211319
H -1.912676418632471 -3.140543661885985 -2.762778063313536
H -0.814407327677655 -4.280359171529240 -1.958219596484805
H -1.801908249204902 -3.249505223319678 -1.009867545481109
H 0.532291494341974 -2.470168047478980 -1.025873871869420
H 0.675651317301368 -2.418008296476654 -2.774650976543880
H 0.185978747040240 -0.752577690844634 -3.464446853121712
11
maple-route1-mmgb-reference-mlip-reweighting-v1 phase=solution replicate=repeat-0 sample=70
C -1.219156846649510 -3.202945295016880 -1.963822529746034
C -0.008697348433954 -2.304918975909203 -1.898371936283128
C -0.501806883696611 -0.833664965813419 -1.780277397342050
O -0.899074558717289 -0.358441976441234 -0.758826998530419
O -0.025721223711092 -0.034055566037622 -2.831499489953897
H -1.855153245244737 -2.849768476892360 -2.799786968191324
H -0.869247568303703 -4.242461027755385 -2.139269141476975
H -1.777642214584495 -3.216387899384776 -1.039756437690928
H 0.722515607210468 -2.593156858429411 -1.092093692878657
H 0.498771429297494 -2.477351947699647 -2.851851474376430
H 0.432509746558851 -0.694724746428729 -3.325415301268124
11
maple-route1-mmgb-reference-mlip-reweighting-v1 phase=solution replicate=repeat-0 sample=71
C -1.256726270001807 -3.260522512031686 -2.000007444647457
C -0.023331503019888 -2.288828796797957 -1.909808254278050
C -0.446072058967283 -0.838386722570558 -1.781575215820264
O -0.904952691794289 -0.351575478397860 -0.810194437918334
O -0.004542786740263 0.000208061425960 -2.751894663640845
H -1.983759529814997 -2.867006050079558 -2.778099284996192
H -0.937762822296362 -4.301317341784051 -2.195502333388287
H -1.748290839387451 -3.267475119011763 -1.033127101909649
H 0.545360694795050 -2.573839447244419 -1.009455490727881
H 0.666326545861655 -2.483933913282883 -2.754094819505581
H 0.331169539387564 -0.679168856848894 -3.340362489532329
11
maple-route1-mmgb-reference-mlip-reweighting-v1 phase=solution replicate=repeat-0 sample=72
C -1.261616721295550 -3.285770226391604 -2.025377248199189
C -0.064693831977778 -2.281218132257521 -1.937882907840715
C -0.405475247416822 -0.804365205045794 -1.750821865764832
O -0.953482724871381 -0.357331541932452 -0.738617065650182
O 0.052931590066922 0.000932122343645 -2.787788611537443
H -1.882566529720906 -2.955850454609787 -2.865576210521114
H -0.927423877493473 -4.315437939474253 -2.145522062633215
H -1.837532104263018 -3.242815800413536 -1.064229298673520
H 0.532287677549393 -2.628828788433657 -1.118978008235855
H 0.567791312185363 -2.412948798634936 -2.828091072292788
H 0.354096179122142 -0.744463676992615 -3.392622803837071
11
maple-route1-mmgb-reference-mlip-reweighting-v1 phase=solution replicate=repeat-0 sample=73
C -1.246507511765405 -3.205740347943038 -2.026144517002588
C -0.006239241491417 -2.323412921244603 -1.933394822783305
C -0.488954878314180 -0.859100473065861 -1.802198690257689
O -0.925120330995964 -0.347121715377652 -0.784096033788539
O 0.013130924701102 -0.017932903383492 -2.709171919408103
H -1.708244184807670 -2.971390765075734 -2.940891682159334
H -0.944444381065025 -4.252329387066439 -2.025407368304004
H -1.927983574072356 -3.061409589716826 -1.170752660367140
H 0.598344848994592 -2.668412160043987 -1.101733212730698
H 0.548206026957136 -2.391487063534925 -2.857348992591419
H 0.536563120962014 -0.621833212014461 -3.276232026431835
11
maple-route1-mmgb-reference-mlip-reweighting-v1 phase=solution replicate=repeat-0 sample=74
C -1.245233958577669 -3.215803265529238 -2.050624650675842
C -0.008602421764737 -2.247389108604183 -1.892210265133351
C -0.427468955412230 -0.813050265313862 -1.774663455626044
O -0.958827928579458 -0.443095132779018 -0.749407355453926
O 0.012626347458734 -0.013655587637329 -2.782944736117254
H -1.758022254856717 -3.118869674742379 -3.007057158791993
H -0.817976959574168 -4.219907563498033 -1.992897728541949
H -1.935474244175150 -3.148466882450056 -1.227774454846485
H 0.393917549862945 -2.497725842971519 -0.877945058213575
H 0.761849513720754 -2.296124518904813 -2.666765522896964
H 0.279645624042118 -0.568245896628752 -3.505891404072905
11
maple-route1-mmgb-reference-mlip-reweighting-v1 phase=solution replicate=repeat-0 sample=75
C -1.160986635377464 -3.265128529112463 -2.087382435337355
C 0.046458885064596 -2.355860143267099 -1.878254326874349
C -0.422329294259467 -0.813175567316813 -1.723814454467627
O -0.981364016761412 -0.305047355596536 -0.769499868837748
O -0.093787483275812 -0.025799091476707 -2.759362821144782
H -1.643283769422104 -2.972763853549660 -3.057845407386535
H -0.892346916296119 -4.315121503594456 -2.147697852224277
H -1.866105960594919 -3.129392799090059 -1.274839199131596
H 0.596344228725186 -2.653464960803209 -0.964643088237225
H 0.722507408611251 -2.363315156069990 -2.756865289799442
H 0.334942736963992 -0.537216147675573 -3.464100219001671
11
maple-route1-mmgb-reference-mlip-reweighting-v1 phase=solution replicate=repeat-0 sample=76
C -1.080900630074377 -3.249391105966271 -2.142636773165631
C -0.013991049868807 -2.236757205958920 -1.796086458886641
C -0.436309016093130 -0.808911271106290 -1.744907628460451
O -0.946004000765387 -0.349931700668523 -0.729557558113738
O -0.161483595606038 -0.094653037427066 -2.813979506085494
H -1.564643153451829 -2.958981549422843 -3.075023798899121
H -0.635027467141253 -4.257082484572321 -2.299326235575103
H -1.835352922649525 -3.292322190682396 -1.309287236235784
H 0.483306757529485 -2.446671865840578 -0.859416893096212
H 0.737920883952448 -2.284593777167505 -2.585004621402796
H 0.500231624483033 -0.600727895053032 -3.367314943731996
11
maple-route1-mmgb-reference-mlip-reweighting-v1 phase=solution replicate=repeat-0 sample=77
C -1.015391697586312 -3.245351543630368 -2.185631572010585
C 0.113007469277609 -2.285339462255569 -1.690830803556125
C -0.461432584262871 -0.817372277483193 -1.749835502914203
O -0.993794434369203 -0.298919574501485 -0.740730262211955
O -0.224586951914071 -0.083028179841863 -2.854709633652831
H -1.429332245403024 -2.915551514243802 -3.126770302549871
H -0.625479075695123 -4.280156206637471 -2.355535000132231
H -1.827815004025723 -3.311758117360838 -1.401265731726254
H 0.402916513787070 -2.502748267003931 -0.648325828644536
H 1.010227897741456 -2.449008840004539 -2.253016585480346
H -0.065974922718983 -0.757739019241285 -3.575861039413314
11
maple-route1-mmgb-reference-mlip-reweighting-v1 phase=solution replicate=repeat-0 sample=78
C -0.932359302022355 -3.237543135383746 -2.198569402036690
C 0.088738427463511 -2.228675694971287 -1.698500505779879
C -0.361288652699607 -0.751976898278851 -1.653847276421755
O -1.028882121160795 -0.234833886862873 -0.783825087461581
O -0.355772228723257 -0.234173221002049 -2.869837937693416
H -1.201170050093481 -3.096284207425314 -3.281164738093899
H -0.402272812522044 -4.189463214356714 -2.149366564103563
H -1.791825996547335 -3.316231316470734 -1.537917069084225
H 0.497138491035328 -2.518284405541809 -0.703986450952766
H 0.958152135857213 -2.400424925976854 -2.325883272674552
H 0.149767226775791 -0.872637181472590 -3.342855614320426
11
maple-route1-mmgb-reference-mlip-reweighting-v1 phase=solution replicate=repeat-0 sample=79
C -0.851613014688076 -3.213330538429047 -2.179300243266694
C 0.154982861157716 -2.166367296131712 -1.563843774569517
C -0.402759252095314 -0.756340883169613 -1.684419215657124
O -1.011293724633929 -0.272818827719799 -0.778601804304051
O -0.466620680664910 -0.296946184097988 -2.979447429898225
H -0.989861035609982 -2.980775672675968 -3.269543615470973
H -0.537777904076189 -4.229097307746042 -2.101546161787841
H -1.775522619243479 -3.078661902638407 -1.684978831658910
H 0.422487327426991 -2.365715747835965 -0.543357179440531
H 1.115050975447212 -2.297676041213754 -2.138812660857178
H 0.202632050476330 -0.824085797248757 -3.409946951482091
11
maple-route1-mmgb-reference-mlip-reweighting-v1 phase=solution replicate=repeat-0 sample=80
C -0.743167350653181 -3.199945301446747 -2.139524041663418
C 0.209303631624623 -2.165146797331791 -1.549600863863389
C -0.420030130434199 -0.783217089061918 -1.701944054737717
O -1.030485972507561 -0.216649051807014 -0.835793635955535
O -0.546592553667180 -0.325039150682456 -2.971886138319588
H -0.770467261667399 -3.091037861499608 -3.202827924299142
H -0.461315728176135 -4.234099995067609 -1.895492847091790
H -1.698329019565869 -2.939601688324887 -1.694831089669305
H 0.293742590278699 -2.399506172916814 -0.496578152693423
H 1.191670672918669 -2.262122810224389 -2.019143408851303
H -0.281292079781648 -1.143777004782992 -3.492371108278149
11
maple-route1-mmgb-reference-mlip-reweighting-v1 phase=solution replicate=repeat-0 sample=81
C -0.662519417322104 -3.317704716557646 -2.124397408680323
C 0.192498953624674 -2.092816615006561 -1.606609229103373
C -0.411482874400135 -0.698918663594655 -1.677298604756511
O -1.082194912905498 -0.157868849668021 -0.793031896618009
O -0.604498158715473 -0.392368125767596 -2.993508403893480
H -0.549631111032815 -3.372382140627354 -3.177411024238269
H -0.088534969926103 -4.222487903420978 -1.784668217001421
H -1.742457928743131 -3.324297055754713 -1.773967891330925
H 0.475986261608034 -2.328031794871023 -0.558657313584871
H 1.066084095103634 -2.066291945260554 -2.209654722066290
H -0.010286455170698 -1.081281372590610 -3.430113841049579
11
maple-route1-mmgb-reference-mlip-reweighting-v1 phase=solution replicate=repeat-0 sample=82
C -0.556651976241876 -3.314179293031990 -2.041618369558040
C 0.304693077373811 -2.101552558275301 -1.516772105480057
C -0.544768609457942 -0.806859413199322 -1.752063695707488
O -1.092822762998805 -0.198185360217353 -0.855648043449256
O -0.673777426883559 -0.298790132361958 -3.024400693967177
H -0.658642181105683 -3.277383462288773 -3.177541159916400
H -0.016625304524277 -4.246875191616738 -1.864618134276617
H -1.541080717098984 -3.323949341017178 -1.524929363181504
H 0.475111127785520 -2.252826930046687 -0.421993328424402
H 1.233643635737157 -1.977405651610307 -2.096082546658323
H -0.065595948203544 -0.814616728026272 -3.531199267253481
11
maple-route1-mmgb-reference-mlip-reweighting-v1 phase=solution replicate=repeat-0 sample=83
C -0.450635140438516 -3.288903502831841 -1.966567131435873
C 0.271356990495805 -2.020444444491468 -1.621035524173624
C -0.531634950527692 -0.742295163629076 -1.750071067074816
O -1.202535902859280 -0.287783527530663 -0.835948853533139
O -0.635376218082030 -0.341194277196129 -3.024545115144764
H -0.909549395949647 -3.259072531366296 -3.007473437631246
H 0.229564052199462 -4.132391489429537 -1.986687542152896
H -1.201742927807869 -3.426053406946159 -1.195080696409134
H 0.529573677742634 -2.103454213740435 -0.552259913487357
H 1.146609660286267 -1.858868977072913 -2.340056433309859
H -0.276106096728240 -1.053146731822193 -3.520216538746110
11
maple-route1-mmgb-reference-mlip-reweighting-v1 phase=solution replicate=repeat-0 sample=84
C -0.374386078637917 -3.293983750207921 -1.880221687781642
C 0.412461595909858 -1.988262053681042 -1.639545352946381
C -0.563552293066072 -0.732374709524046 -1.759524002094923
O -1.317769240266835 -0.332412143166028 -0.877837703264010
O -0.712756763473802 -0.348381892312334 -3.027812302535478
H -0.961309594390128 -3.185093047515753 -2.748278429100173
H 0.247140649491162 -4.185665527543466 -2.104233601044433
H -1.029160268138170 -3.506578753116433 -1.033131358735206
H 0.945706139665340 -1.950210924071288 -0.682045533629765
H 1.084127525757874 -1.884046090879389 -2.489914814536646
H 0.082660827840240 -0.748859877727910 -3.517510434614930
11
maple-route1-mmgb-reference-mlip-reweighting-v1 phase=solution replicate=repeat-0 sample=85
C -0.279045120706507 -3.281054152061108 -1.775437645816146
C 0.412278914901758 -1.891755548062654 -1.653971679513006
C -0.603497920890020 -0.768292290891722 -1.839706970604057
O -1.320498862271311 -0.474683247153264 -0.908724618962570
O -0.776765784454964 -0.273234062879830 -3.048145605743330
H -0.872509607857594 -3.440704879989576 -2.632209744996810
H 0.506407669987472 -4.034758268442139 -1.865443305405659
H -0.848361578765803 -3.553140719081918 -0.873880001742749
H 0.787357801967998 -1.762413505837554 -0.642469028681942
H 1.226398853879387 -1.793485729116532 -2.310683665917203
H -0.021807758852594 -0.692333770702844 -3.562969991078236
11
maple-route1-mmgb-reference-mlip-reweighting-v1 phase=solution replicate=repeat-0 sample=86
C -0.100654334850295 -3.272864772708703 -1.667847778348738
C 0.460390266802271 -1.887812118356376 -1.748648627410268
C -0.697329464933166 -0.804116282240168 -1.836512581296849
O -1.450468669042819 -0.513086978946246 -0.894226648423486
O -0.778394270312722 -0.220003671294933 -3.063043166399880
H -0.608274567189859 -3.603540100321895 -2.629426541511828
H 0.699630860420423 -3.969829126958962 -1.511514763777189
H -0.799201455592880 -3.363040677447566 -0.847851037786457
H 1.080302164644995 -1.688864371313331 -0.887220789332593
H 1.158915795359362 -1.841362302630611 -2.590587381178763
H -0.245123198753688 -0.762536697078966 -3.597903460941845
11
maple-route1-mmgb-reference-mlip-reweighting-v1 phase=solution replicate=repeat-0 sample=87
C 0.059857266527575 -3.299860061661628 -1.556932243772554
C 0.428205302950839 -1.803910787060208 -1.774839129059983
C -0.769394138507230 -0.890988692671798 -1.890212964740001
O -1.460925764011526 -0.544022947855640 -0.978611737256724
O -0.849315366648506 -0.207349836082793 -3.022729319023271
H -0.370289269015535 -3.751649273579269 -2.501504149301927
H 0.920106909606489 -3.930189903606719 -1.233487125954477
H -0.721968805320915 -3.392389085586437 -0.802650031732616
H 1.097381568941094 -1.399893336721183 -1.009763069669415
H 1.043062718455680 -1.717306359866274 -2.713929994748175
H -0.042463736527100 -0.404012999016167 -3.478393741113678
11
maple-route1-mmgb-reference-mlip-reweighting-v1 phase=solution replicate=repeat-0 sample=88
C 0.231372309587353 -3.263008060409751 -1.463354693307406
C 0.416693813152822 -1.754019079350391 -1.784089228849599
C -0.876644078267379 -0.955284443648693 -1.951359041368721
O -1.490696210799993 -0.618584063983617 -0.942820849016631
O -0.887175692872770 -0.160640953674241 -3.103699554318448
H -0.272680280954331 -3.752882193067856 -2.274139151546337
H 1.204459201609602 -3.801567986019608 -1.207535652267673
H -0.433451076789820 -3.354656623202596 -0.562707164105943
H 0.955660927519340 -1.318824531518120 -0.908919138561709
H 1.093594402354403 -1.615174024600128 -2.632920820167484
H -0.172819700195205 -0.576039288279663 -3.710342317465806
11
maple-route1-mmgb-reference-mlip-reweighting-v1 phase=solution replicate=repeat-0 sample=89
C 0.333310057553209 -3.170695201642084 -1.411597646450476
C 0.497891928405797 -1.722415905512209 -1.803562358788279
C -0.831607102681890 -0.971893386953142 -1.921431290790704
O -1.622242561118391 -0.669054279986350 -1.044105219326519
O -0.947919590179472 -0.203853039119035 -3.036588760540194
H -0.243096786483774 -3.684487244804103 -2.185783960646102
H 1.354835726425930 -3.564558608121553 -1.339189711024926
H -0.134014268700052 -3.289817287126573 -0.407809233452552
H 1.159901410815868 -1.267568488427954 -1.063095174060574
H 1.010544064166859 -1.680977844494973 -2.753020497188094
H -0.450231216244631 -0.715506000961380 -3.737461888985486
11
maple-route1-mmgb-reference-mlip-reweighting-v1 phase=solution replicate=repeat-0 sample=90
C 0.393687441466923 -3.138620801427352 -1.356807268645048
C 0.496603909370478 -1.585862973896099 -1.820536922938486
C -0.842283497232791 -0.906126897087251 -1.917195562738312
O -1.645956442725075 -0.808376423708462 -0.991600116842630
O -0.984703912732011 -0.296163803151900 -3.145199989814597
H -0.327077130403820 -3.692324653480410 -2.021899131858679
H 1.370061482750843 -3.564904121618374 -1.404409732481434
H 0.075309012848144 -3.235506297038597 -0.328731730772732
H 1.055608203087413 -1.041097253553355 -1.084169831739098
H 1.006636749091588 -1.517230086192874 -2.790587548877819
H -0.103844878704250 -0.264690111162120 -3.469696053878871
11
maple-route1-mmgb-reference-mlip-reweighting-v1 phase=solution replicate=repeat-0 sample=91
C 0.432327238399423 -2.997757335183191 -1.314406988635204
C 0.611765425111140 -1.539122685988183 -1.737515681999080
C -0.820973979636990 -0.929088682066568 -1.955235914969305
O -1.660736309163227 -0.904979121101897 -1.086702652236271
O -1.102022370558866 -0.343849773279019 -3.135965994997563
H -0.330729414353532 -3.411594923959549 -1.983683935713995
H 1.379902910641473 -3.534879119736873 -1.304582032221419
H 0.056114445001887 -3.022939021514679 -0.304902819480922
H 1.075328755055057 -1.028652976476212 -0.875191933479677
H 1.225968833311177 -1.492917920674361 -2.668618389884725
H -0.314331564572203 -0.494755580742378 -3.651000290052440
11
maple-route1-mmgb-reference-mlip-reweighting-v1 phase=solution replicate=repeat-0 sample=92
C 0.543792887735737 -2.927374855014190 -1.301982088067616
C 0.525796202906769 -1.452485940492334 -1.707398228441004
C -0.856018852856546 -0.905524143340126 -1.952087974523065
O -1.697280250567162 -0.943385699455938 -1.080430263623242
O -1.081836325595951 -0.450400738355334 -3.175580712057624
H 0.024813416553761 -3.489658249988277 -2.059917827221070
H 1.623478804787109 -3.214164190943451 -1.115034856989599
H 0.059470444332032 -3.062735073657991 -0.323816408277436
H 0.993592516239809 -0.824482207247035 -0.911923849472188
H 1.086252877625869 -1.410525045586768 -2.666884168950221
H -0.327003608727464 -0.837487847435122 -3.724967703319802
11
maple-route1-mmgb-reference-mlip-reweighting-v1 phase=solution replicate=repeat-0 sample=93
C 0.698944121024035 -2.907312156371008 -1.302182804968341
C 0.590662058696331 -1.353381651702732 -1.699846955134446
C -0.926331669969350 -0.961360144733082 -1.958381028424455
O -1.790942521687049 -0.853789239005631 -1.060426357172058
O -1.138315386296161 -0.630896115198693 -3.219774252977961
H 0.445455349718893 -3.597077837484670 -2.132965020032865
H 1.687382612244033 -3.080283498872653 -0.858688429537001
H 0.023668632293056 -3.101550671734866 -0.431353722043860
H 0.939724251809722 -0.738196769990758 -0.860279262953392
H 1.188577727863813 -1.200218614533094 -2.579247973821838
H -0.220695863993679 -0.440183048602141 -3.574196954675767
11
maple-route1-mmgb-reference-mlip-reweighting-v1 phase=solution replicate=repeat-0 sample=94
C 0.798042093984082 -2.792947873150005 -1.324202186021322
C 0.544014838088986 -1.326428849964967 -1.577306003606411
C -0.919386404600664 -1.010688860081356 -1.964905011574072
O -1.761920236948193 -0.828039073856451 -1.130509338267722
O -1.215704062727297 -0.714797936387398 -3.214369326479911
H 0.789599817420164 -3.341346989262555 -2.299293412115713
H 1.751694829481249 -2.818077001058788 -0.887096041768713
H 0.103403333309190 -3.250498286438727 -0.595808055386354
H 0.753053245796909 -0.778193669853164 -0.687020727903368
H 1.225964776035689 -1.069120327470638 -2.348380024520508
H -0.494551353791718 -1.073591853460971 -3.712471581900158
11
maple-route1-mmgb-reference-mlip-reweighting-v1 phase=solution replicate=repeat-0 sample=95
C 0.884272211029398 -2.737381965726153 -1.371143930972532
C 0.504961678201373 -1.235094317561033 -1.551619194829471
C -0.983951775866047 -1.031364334307029 -1.917986389419914
O -1.824165479150526 -0.814365315293360 -1.047771791306723
O -1.161332995809057 -0.844856423681885 -3.301800749862590
H 0.750430863430672 -3.181881680089953 -2.353728230214496
H 1.910637910145082 -2.893617700545397 -1.012199719327057
H 0.222307952576061 -3.243873394228415 -0.686296260706864
H 0.737474999749013 -0.654358881499697 -0.669348358413510
H 1.171972639908516 -0.881992754902684 -2.347079320398790
H -0.325560841733931 -1.128297131272989 -3.690097704613828
11
maple-route1-mmgb-reference-mlip-reweighting-v1 phase=solution replicate=repeat-0 sample=96
C 0.904517953934145 -2.674404805155814 -1.468127837709428
C 0.522266864212098 -1.168294922885512 -1.549894193417133
C -0.919649359711249 -0.984131169590663 -1.871929982735238
O -1.888743611141135 -0.840843558074177 -1.180446530860487
O -1.179540097099361 -0.996379796571625 -3.146147847473917
H 0.622851817833419 -3.210560765500850 -2.354322565342056
H 2.006083760943635 -2.854352452746470 -1.214592460071071
H 0.353253230034063 -3.099915632033135 -0.658759104622625
H 0.666288783878510 -0.735623949063052 -0.518898370757478
H 1.202966541295439 -0.605483859850795 -2.244778147924677
H -0.284931122614947 -0.768513761879118 -3.548821945147436
11
maple-route1-mmgb-reference-mlip-reweighting-v1 phase=solution replicate=repeat-0 sample=97
C 0.889120033770965 -2.585594708265844 -1.504328884683411
C 0.494417765262777 -1.105275461438784 -1.440392868476341
C -0.942944648249972 -0.832156107563186 -1.890329776365365
O -1.869980966136108 -0.944956453743024 -1.051807674089940
O -1.155300570435441 -1.099022310357119 -3.301510070359539
H 0.562101284040992 -3.087473218680316 -2.450183667340339
H 1.983085565923493 -2.627728315546309 -1.435032884846570
H 0.503783890373294 -3.186642445507928 -0.655793732556772
H 0.759999460671750 -0.682747822678855 -0.432916138275091
H 1.137266393933948 -0.590238632028756 -2.175667448817488
H -0.270811440156062 -1.446334710304069 -3.616567295156139
11
maple-route1-mmgb-reference-mlip-reweighting-v1 phase=solution replicate=repeat-0 sample=98
C 0.919919901932890 -2.489185945687185 -1.541910661318409
C 0.504570162893491 -1.025127120757054 -1.482669834824815
C -0.920763696909954 -0.956508727224737 -1.870276164681474
O -1.882137996132848 -0.966816857516510 -1.152235637324874
O -1.175360085894970 -1.163691771673785 -3.148389009146413
H 0.663201882820246 -3.018525666039731 -2.514917853082544
H 1.974154749037652 -2.564558033580861 -1.392006990194245
H 0.406676371801235 -3.106700866604265 -0.748627065920856
H 0.634830581603010 -0.650683759794393 -0.491891219640400
H 1.086379675195615 -0.445549194661642 -2.180177525873189
H -0.326114044667179 -1.091887565302800 -3.561571931360172
11
maple-route1-mmgb-reference-mlip-reweighting-v1 phase=solution replicate=repeat-0 sample=99
C 1.088538980470589 -2.484441578272049 -1.518460175983425
C 0.503822939026208 -1.012166282775354 -1.549862312602620
C -1.033591780529653 -0.913077551651756 -1.879717026618015
O -1.934408747497603 -0.990891947960643 -1.038067572716487
O -1.194864474095571 -1.194908744091353 -3.211019931663582
H 1.057523187864359 -2.932486334291189 -2.507312800599493
H 2.141022392342230 -2.579094479709940 -1.162059491232000
H 0.434743639107917 -3.143330800222459 -0.962217505216290
H 0.550940569144263 -0.617015786218762 -0.579761784279192
H 1.072777366255649 -0.435618236617896 -2.273610697588854
H -0.331734770356059 -1.020581544207181 -3.579464607076031
