7
maple-route1-mmgb-reference-mlip-reweighting-v1 phase=solution replicate=repeat-0 sample=0
C -0.445533788231063 -1.559136330428909 0.117552811886384
N -1.859999297114689 -0.965352029685415 -0.020342728357872
O -2.641853527769667 -0.993855542089543 0.966740616184691
O -2.139622013439193 -0.358337558219596 -1.042653878974396
H -0.080921983275985 -1.121650473235780 1.047033846867293
H 0.219563257694488 -1.294215599221901 -0.748264572557525
H -0.411026561604332 -2.645165860523128 0.241182838555886
7
maple-route1-mmgb-reference-mlip-reweighting-v1 phase=solution replicate=repeat-0 sample=1
C -0.541265272428370 -1.554896995824441 0.204062707938241
N -1.875068512329894 -1.017585591220124 -0.037776249648050
O -2.593547594752548 -0.925068967310553 0.959968112031664
O -2.077132998116628 -0.375878421502095 -1.093864395930259
H -0.191939468594115 -1.311217501433422 1.218572578245226
H 0.114455308281127 -1.225323287239481 -0.611050464862724
H -0.599560889071344 -2.661907378883408 0.065905310887893
7
maple-route1-mmgb-reference-mlip-reweighting-v1 phase=solution replicate=repeat-0 sample=2
C -0.518016130149137 -1.642046405148554 0.247981882036842
N -1.872226957760893 -1.005567710573763 -0.015569660535042
O -2.642116282558043 -0.828424910181887 0.937806512109179
O -2.051837126003931 -0.400097301385352 -1.126788560360644
H -0.192580266015357 -1.552028538304091 1.304132863706515
H 0.159305273358199 -1.245884252541771 -0.493305528641338
H -0.596870356086154 -2.684470021789903 -0.093792820806550
7
maple-route1-mmgb-reference-mlip-reweighting-v1 phase=solution replicate=repeat-0 sample=3
C -0.600442786202413 -1.701817193966236 0.244481010459878
N -1.809744999441727 -0.909821772089324 0.004941264344319
O -2.641039701500040 -0.787471044339645 0.917104069605916
O -2.023456027423474 -0.472861152471640 -1.131980577155963
H -0.490147384271569 -1.628025020299337 1.327298640991724
H 0.239703129133620 -1.267694322891832 -0.311859942834802
H -0.738333541769846 -2.696798986865047 -0.132761316166155
7
maple-route1-mmgb-reference-mlip-reweighting-v1 phase=solution replicate=repeat-0 sample=4
C -0.635937298871603 -1.779396018132828 0.266278274973848
N -1.762286386762619 -0.791427532100645 0.027591824619712
O -2.659586768090012 -0.726490456792911 0.922375978149579
O -2.006855462680686 -0.556800914334051 -1.178728092269446
H -0.634400536688312 -1.816070125739929 1.351777712476043
H 0.309444277839071 -1.420169208408097 -0.154116511075030
H -0.879732966105984 -2.715732656690768 -0.226335053837594
7
maple-route1-mmgb-reference-mlip-reweighting-v1 phase=solution replicate=repeat-0 sample=5
C -0.701615607027909 -1.837430525988354 0.331634627863835
N -1.789226703368681 -0.843943395460999 0.020651903415878
O -2.613307320215415 -0.623384052343442 0.869181978942385
O -1.968419631642875 -0.559467376219812 -1.172515859845175
H -0.646086626509469 -1.979627097001243 1.422132666393324
H 0.204867566616836 -1.414676701791131 -0.109968855584964
H -0.950435723131632 -2.718245496011438 -0.293988848807279
7
maple-route1-mmgb-reference-mlip-reweighting-v1 phase=solution replicate=repeat-0 sample=6
C -0.739237285928514 -1.919315272022014 0.371406819848087
N -1.891654635705932 -0.943983748377140 -0.021442301947937
O -2.579174329610103 -0.512708639457881 0.902967631092652
O -1.879842716450563 -0.508483520748550 -1.210893486353320
H -0.707155889095398 -2.070815604641703 1.484002682211138
H 0.189354959371632 -1.438264565763116 -0.026522335406101
H -0.949666392175267 -2.806250545699717 -0.246768581002828
7
maple-route1-mmgb-reference-mlip-reweighting-v1 phase=solution replicate=repeat-0 sample=7
C -0.816561324864177 -1.960507853294386 0.336315078650292
N -1.932253265513213 -0.982879840660242 -0.050759745119600
O -2.522039337251610 -0.429885945141055 0.869066161431813
O -1.822048263031433 -0.517504357170037 -1.132368061664821
H -0.929381494702757 -1.986400882384450 1.432949986867018
H 0.184333355870721 -1.534891919992518 0.045930623200563
H -1.056822109326434 -2.933323531194018 -0.149679147528994
7
maple-route1-mmgb-reference-mlip-reweighting-v1 phase=solution replicate=repeat-0 sample=8
C -0.885546575360772 -2.024711855791583 0.350439609757170
N -1.893479478090971 -0.933557937158063 -0.043647875936801
O -2.493088247122180 -0.395102998828160 0.913977445211762
O -1.816419976869912 -0.529759835115491 -1.199931551070787
H -1.000315320256417 -2.083269173225106 1.429674300132466
H 0.118192779951151 -1.658387485920708 0.119332788824236
H -1.175085725443786 -2.997328034489742 -0.128636140913268
7
maple-route1-mmgb-reference-mlip-reweighting-v1 phase=solution replicate=repeat-0 sample=9
C -0.922153351460278 -2.091705973599006 0.390268477519019
N -1.787133492025635 -0.840905709311905 -0.006633261968978
O -2.483099723891012 -0.368032509901095 0.846208014417177
O -1.883118834672015 -0.572466587155308 -1.188514266664902
H -0.956201614604643 -2.335931263408087 1.458314411174476
H 0.061947979141269 -1.754813217649579 0.121486828295294
H -1.298174183526134 -2.897220677344143 -0.249335015942777
7
maple-route1-mmgb-reference-mlip-reweighting-v1 phase=solution replicate=repeat-0 sample=10
C -0.993446647670386 -2.056120884037549 0.369251577766835
N -1.715609330522028 -0.769656170207583 -0.003293475830356
O -2.463722544282381 -0.376950603641974 0.896655398729154
O -1.890080622265173 -0.655155243971705 -1.224140239680249
H -1.156448881779577 -2.373155093549526 1.399464130198843
H 0.078140442088621 -1.849282744611402 0.210207435320702
H -1.452421189606526 -2.730121132527779 -0.303276815491204
7
maple-route1-mmgb-reference-mlip-reweighting-v1 phase=solution replicate=repeat-0 sample=11
C -0.966145987425529 -2.114263205462407 0.361350096206879
N -1.756488804576005 -0.837654241877725 -0.028146881935434
O -2.420597041341270 -0.299005204638895 0.863634130748353
O -1.917496383509934 -0.615170675936220 -1.174788058839894
H -1.252169168572901 -2.331575054302046 1.373179151861654
H 0.127949069392512 -1.945240484503401 0.341239463203984
H -1.419169494881404 -2.920589033450084 -0.223757827067861
7
maple-route1-mmgb-reference-mlip-reweighting-v1 phase=solution replicate=repeat-0 sample=12
C -1.001289737858918 -2.106626112692203 0.356513980513438
N -1.878435391770189 -0.918133115456000 -0.041897254201569
O -2.353313359242742 -0.251277481492971 0.929352684903573
O -1.853436829431331 -0.605084251394937 -1.221900137831045
H -1.211059505971760 -2.341157974942147 1.410896399271397
H 0.005340177197405 -1.730716223967930 0.297476049041348
H -1.311580960609726 -3.007904582231245 -0.264997532234163
7
maple-route1-mmgb-reference-mlip-reweighting-v1 phase=solution replicate=repeat-0 sample=13
C -1.065439933430064 -2.127083394050290 0.388775053892228
N -1.967840735197911 -0.966574409517508 -0.035637617189141
O -2.254702448196352 -0.218122610064676 0.854927576341292
O -1.820019329147029 -0.582860627577114 -1.176980629582407
H -1.201983326300149 -2.468000284953366 1.453552211891382
H -0.107137602293106 -1.628757450620729 0.286871181966406
H -1.285364834568074 -2.946315529726359 -0.306115959893473
7
maple-route1-mmgb-reference-mlip-reweighting-v1 phase=solution replicate=repeat-0 sample=14
C -1.145469217407505 -2.187416305883839 0.403569423380348
N -1.877346292739670 -0.907189040157543 -0.019900968862327
O -2.249554949435138 -0.163360933436609 0.890430379780372
O -1.822672100855063 -0.627557354078001 -1.239827571855086
H -1.425737735584592 -2.507530663327022 1.417377211757797
H -0.062839818990934 -1.887807198772127 0.373556682904376
H -1.453964889764571 -2.917228866015445 -0.310029704104826
7
maple-route1-mmgb-reference-mlip-reweighting-v1 phase=solution replicate=repeat-0 sample=15
C -1.256457085951251 -2.233114807418099 0.416240611537796
N -1.666525664524216 -0.811043249672027 -0.012040715957984
O -2.270738722639944 -0.154616803532086 0.837460112455221
O -1.858284014936583 -0.667901218104834 -1.212920537949264
H -1.761287327545847 -2.339300466193249 1.348683992540081
H -0.156512233716254 -2.319198407900544 0.559957876292610
H -1.735510642881773 -2.945037908380763 -0.280658466706963
7
maple-route1-mmgb-reference-mlip-reweighting-v1 phase=solution replicate=repeat-0 sample=16
C -1.361621732274091 -2.225391344548611 0.442304495595016
N -1.687011951316018 -0.838554024972628 -0.005891912299085
O -2.209755866007803 -0.103490159597295 0.816997217063289
O -1.801350450405658 -0.701875986941017 -1.221910742815947
H -1.834781228228463 -2.276273365596536 1.424066170822186
H -0.297254607092078 -2.340378934150616 0.519406915333880
H -1.854789029470115 -2.962614175808427 -0.248177812356377
7
maple-route1-mmgb-reference-mlip-reweighting-v1 phase=solution replicate=repeat-0 sample=17
C -1.437344484884619 -2.285310453888309 0.517045624657038
N -1.904431155926946 -0.902801998638319 -0.013200682120127
O -2.066289307094248 0.007987422041569 0.802748825098132
O -1.702983763685112 -0.701289283877435 -1.265373924813423
H -1.754222805445749 -2.441532347890764 1.581617453897370
H -0.356467328149098 -2.275115405830391 0.416470170860614
H -1.795606604774606 -3.045272290888350 -0.179249910561824
7
maple-route1-mmgb-reference-mlip-reweighting-v1 phase=solution replicate=repeat-0 sample=18
C -1.577498327954908 -2.215110199395601 0.530488841239153
N -1.934245546216436 -0.903703363794657 -0.018924773123983
O -1.933261854154258 -0.018847505098164 0.749107896089951
O -1.679850335158808 -0.739360808346144 -1.222614864924631
H -1.867750002959758 -2.266324474100752 1.596624470223283
H -0.451756314087384 -2.304619739879896 0.428022172772119
H -1.983668951529233 -2.987941740334894 -0.119238053649011
7
maple-route1-mmgb-reference-mlip-reweighting-v1 phase=solution replicate=repeat-0 sample=19
C -1.697478124096246 -2.298816348118665 0.537740640629919
N -1.847929482896228 -0.871940290886320 -0.018331267547537
O -1.881513202332907 0.077925952962183 0.795034612616058
O -1.674672014660923 -0.779620618414961 -1.281629077827411
H -2.086161149846368 -2.193717041860873 1.544431271570965
H -0.647794769078792 -2.678811429454541 0.584884749545808
H -2.250750462791122 -3.030504138810067 -0.114757022314646
7
maple-route1-mmgb-reference-mlip-reweighting-v1 phase=solution replicate=repeat-0 sample=20
C -1.797189686801393 -2.296053110503063 0.542504117860472
N -1.705049197101519 -0.871781440345100 -0.000435287612423
O -1.879700864446189 0.048733709590587 0.705861798112116
O -1.695769800356972 -0.756287780354174 -1.212417436553597
H -2.217567884383051 -2.150250142356473 1.546133014659462
H -0.851567498251724 -2.758326927742063 0.617332946496852
H -2.403955972306580 -2.940235556201254 -0.134661888843565
7
maple-route1-mmgb-reference-mlip-reweighting-v1 phase=solution replicate=repeat-0 sample=21
C -1.890513992540566 -2.232365212577586 0.535406605601664
N -1.606983547576999 -0.858259009322528 -0.002470431267320
O -1.896202050628304 0.023876396936422 0.797627730974607
O -1.680480493781220 -0.803008643459711 -1.294455971638925
H -2.253834927310631 -2.150444638657404 1.566877604243066
H -0.951466453535038 -2.730589833201163 0.567452638913296
H -2.484020508588994 -2.780878844472597 -0.144772624339729
7
maple-route1-mmgb-reference-mlip-reweighting-v1 phase=solution replicate=repeat-0 sample=22
C -1.912834737918259 -2.329098735676309 0.535444005288064
N -1.726132891879718 -0.871986232704182 0.005373668657307
O -1.828531396417268 0.077795053797110 0.707420517216496
O -1.626710573385930 -0.749606482237665 -1.210444216071461
H -2.218539600819848 -2.329154838371957 1.563945451248197
H -0.917164258927147 -2.835859561117399 0.497655551971451
H -2.564928347026405 -2.868588616846381 -0.093424358765783
7
maple-route1-mmgb-reference-mlip-reweighting-v1 phase=solution replicate=repeat-0 sample=23
C -1.879108276348258 -2.215551240300681 0.529822843970447
N -1.867239069001936 -0.865829130185180 -0.041494516912463
O -1.770407891568601 0.024672332306376 0.811848648121568
O -1.584045408989609 -0.810992964582577 -1.279179780262749
H -2.091462754136152 -2.086669607067399 1.583002940760076
H -0.919545842551914 -2.752747276662926 0.472772978122809
H -2.728637999188642 -2.803159244996369 0.064592353718929
7
maple-route1-mmgb-reference-mlip-reweighting-v1 phase=solution replicate=repeat-0 sample=24
C -1.903437002444839 -2.298604018312776 0.554469723737410
N -1.930850047918390 -0.862611168322954 -0.032947807499526
O -1.699804162306457 0.059236199494901 0.709962043925722
O -1.579425356820500 -0.766417508680052 -1.207709872581809
H -1.923934353918141 -2.247241836102838 1.671861060101076
H -0.996809680905902 -2.817173390562070 0.314026487033691
H -2.838001155881502 -2.878106051864307 0.204537053954754
7
maple-route1-mmgb-reference-mlip-reweighting-v1 phase=solution replicate=repeat-0 sample=25
C -1.944880155521810 -2.227260830289075 0.544837278058051
N -1.793898951235289 -0.881102930538871 -0.011313790027452
O -1.729422318965009 0.076278980452068 0.777266891973306
O -1.636175801779213 -0.837946955591759 -1.276047721903233
H -1.794311175327118 -2.256771051993761 1.659618627025144
H -1.087662359417867 -2.811529400361251 0.127109872249844
H -2.910024045738328 -2.609229297043065 0.236813559561676
7
maple-route1-mmgb-reference-mlip-reweighting-v1 phase=solution replicate=repeat-0 sample=26
C -2.007405598216695 -2.258890928455326 0.609140895154506
N -1.574590547145820 -0.909376575440285 -0.018708457031905
O -1.772524172135994 0.072986843824370 0.691734165537291
O -1.715688853633437 -0.785290238353777 -1.250876273066688
H -1.815746747624715 -2.225626760279179 1.660407306765883
H -1.297983020670938 -3.068818563898397 0.253446965868059
H -3.034446171279724 -2.389024284026234 0.409395552200256
7
maple-route1-mmgb-reference-mlip-reweighting-v1 phase=solution replicate=repeat-0 sample=27
C -1.982510314060431 -2.221476238231886 0.568170428134603
N -1.665156069433067 -0.901835072793799 -0.009464894843947
O -1.741341954184738 0.106788421315891 0.714831047051139
O -1.685862554675209 -0.871678085374972 -1.239517101309491
H -1.630360210710448 -2.201401072973132 1.559873263852697
H -1.442188714092806 -2.959549457646834 0.059974435252901
H -3.090955841854341 -2.241239145759895 0.517938929206350
7
maple-route1-mmgb-reference-mlip-reweighting-v1 phase=solution replicate=repeat-0 sample=28
C -1.966227762755818 -2.256915437648920 0.634960452548178
N -1.915105088326361 -0.861030537110524 -0.052586339344156
O -1.668554365201618 0.085685250031123 0.714899713403624
O -1.568178878876854 -0.850874616416242 -1.270249609487357
H -1.349604113006975 -2.222677453049366 1.559668107744669
H -1.529357686693372 -2.934078746443462 -0.020275129939188
H -3.033988917430396 -2.394418525092807 0.874658249135315
7
maple-route1-mmgb-reference-mlip-reweighting-v1 phase=solution replicate=repeat-0 sample=29
C -1.983825227476163 -2.216225347407693 0.619635555682981
N -1.888205841277014 -0.869011951636891 -0.046312086234042
O -1.685658433452963 0.068307493927062 0.677186433508377
O -1.564375711409973 -0.863011348073760 -1.212904614468106
H -1.166823479178770 -2.278795322777381 1.384738022405093
H -1.748407020149761 -2.939303297265326 -0.232819228672566
H -2.955692015476053 -2.244209160269091 1.049551577088332
7
maple-route1-mmgb-reference-mlip-reweighting-v1 phase=solution replicate=repeat-0 sample=30
C -2.038467235432111 -2.242617193119326 0.626034187349681
N -1.696729804209522 -0.880953134724797 -0.031582209683883
O -1.787356423908648 0.130288539258614 0.725677862506341
O -1.571991529627616 -0.887256662499832 -1.282238891591631
H -1.132119517397915 -2.472110452614148 1.206948566479940
H -2.108596277560055 -3.003069661184997 -0.252449697549354
H -2.909288266354250 -2.100715453057301 1.277936476561995
7
maple-route1-mmgb-reference-mlip-reweighting-v1 phase=solution replicate=repeat-0 sample=31
C -2.053186975476256 -2.245848774001438 0.622057188872150
N -1.617344070484048 -0.893349146409895 -0.024092575478526
O -1.841215115956248 0.083079124685806 0.639376444960388
O -1.560999087329317 -0.835266688891284 -1.208002995708569
H -1.145024534539167 -2.684017019936950 1.037697614060047
H -2.487519649873482 -2.852522154617438 -0.138678024878347
H -2.767838805095873 -1.913282679582594 1.475952169786598
7
maple-route1-mmgb-reference-mlip-reweighting-v1 phase=solution replicate=repeat-0 sample=32
C -2.061857257617347 -2.200389557920569 0.568526128767108
N -1.678865562103518 -0.877907973619438 -0.022818231882096
O -1.843019190082678 0.139095832943859 0.729462602421287
O -1.495038198259981 -0.944023308142721 -1.242824371028909
H -1.141166528633470 -2.786142192427378 0.754472334432821
H -2.703249782599765 -2.625242097015435 -0.142792476074233
H -2.613183479081686 -1.952596886848821 1.506585486991041
7
maple-route1-mmgb-reference-mlip-reweighting-v1 phase=solution replicate=repeat-0 sample=33
C -2.112505538023302 -2.277778124907766 0.653298169253708
N -1.781580130566983 -0.879020108649088 -0.056511861637793
O -1.815463546486596 0.098870411887901 0.627869434813574
O -1.384464140207311 -0.822843651454896 -1.187068104365633
H -1.213384774890257 -2.915854041275288 0.618688685340137
H -2.992269561319589 -2.662317353442896 0.056386444435246
H -2.413759931250520 -2.123491949336902 1.627352758486430
7
maple-route1-mmgb-reference-mlip-reweighting-v1 phase=solution replicate=repeat-0 sample=34
C -2.104152473835005 -2.162523585380250 0.558893731856493
N -1.847727492947973 -0.855283280288870 -0.077842328992037
O -1.859556306117699 0.115452230644991 0.732302996319306
O -1.296940409303622 -0.969384871165723 -1.186178724856378
H -1.231908602148029 -2.714072191493588 0.255173814709017
H -3.098701940973541 -2.534702072520423 0.158574837098696
H -2.146808876001467 -2.097026110316186 1.639807826615687
7
maple-route1-mmgb-reference-mlip-reweighting-v1 phase=solution replicate=repeat-0 sample=35
C -2.196477835244962 -2.248739919131589 0.605714413944033
N -1.838621890850144 -0.875309848373705 -0.091048812422803
O -1.860748806100015 0.130573364971884 0.598647906263072
O -1.220778275064524 -0.885531571921845 -1.101936565820137
H -1.417165258315943 -2.945497920984311 0.267918310816294
H -3.204934705978437 -2.528530656100640 0.426487149242794
H -2.061250993786795 -2.130125143059109 1.764300655306945
7
maple-route1-mmgb-reference-mlip-reweighting-v1 phase=solution replicate=repeat-0 sample=36
C -2.208120815622097 -2.145662615795881 0.604047807600021
N -1.738927415123444 -0.893389703350306 -0.053969598307049
O -1.962930076126045 0.152076729278286 0.636023081416587
O -1.179486324589210 -0.992339286382223 -1.164237771378366
H -1.648809307773293 -3.030756523973730 0.187206413488051
H -3.267599870734180 -2.131584981975242 0.469539436438115
H -2.040402283144539 -2.054881014943987 1.705116183903472
7
maple-route1-mmgb-reference-mlip-reweighting-v1 phase=solution replicate=repeat-0 sample=37
C -2.244947893912148 -2.177304732838831 0.632008514696668
N -1.618148957002873 -0.901881499705011 0.037543676363170
O -1.989417110688905 0.199524795697174 0.473164926773412
O -1.211422022503581 -1.002685536940696 -1.096279652101731
H -1.894194305207813 -3.051848432382056 0.041411382474656
H -3.363961338664647 -1.973244821912343 0.596882733852446
H -2.006116938558488 -2.291142420402675 1.623597287313739
7
maple-route1-mmgb-reference-mlip-reweighting-v1 phase=solution replicate=repeat-0 sample=38
C -2.248895761419055 -2.094999596422845 0.693779639957435
N -1.657243029460471 -0.907398358359372 0.005982206597333
O -2.027162591342011 0.185567693142924 0.463582529089885
O -1.145736341888162 -1.057991660111444 -1.127425314048627
H -1.968557510925680 -2.941804846879783 0.108940197731017
H -3.344823439517597 -1.958468533369086 0.841676105783244
H -1.804716736827205 -2.217713091130597 1.655745091331655
7
maple-route1-mmgb-reference-mlip-reweighting-v1 phase=solution replicate=repeat-0 sample=39
C -2.228305202731341 -2.075220122708671 0.734880338070374
N -1.840105465949427 -0.897014378694815 -0.099381998797067
O -1.970820184925676 0.214662939574150 0.444595744535543
O -1.080290562259319 -1.113118478774630 -1.065507529344423
H -1.954794148399746 -2.969744332903402 0.187046386781870
H -3.227397205068939 -2.036885494014318 1.016972843480775
H -1.577080959557713 -2.089578981747277 1.688095008241987
7
maple-route1-mmgb-reference-mlip-reweighting-v1 phase=solution replicate=repeat-0 sample=40
C -2.217349098685403 -2.067120156242671 0.769817643148558
N -1.867495189237119 -0.902863298085582 -0.120676687690349
O -1.929124524073074 0.229743457177118 0.375187771088355
O -1.095484674617066 -1.132750265679498 -1.010288582167526
H -2.052700599130076 -3.049487823759113 0.258352443122825
H -3.242335731799597 -1.942615689252956 1.048538329553421
H -1.621610291636768 -2.047326343405106 1.694491819336222
7
maple-route1-mmgb-reference-mlip-reweighting-v1 phase=solution replicate=repeat-0 sample=41
C -2.247441449329652 -2.003251427304824 0.808945611807737
N -1.711161479928164 -0.907697560945639 -0.042695257333175
O -2.014611621469451 0.253811868649242 0.364384725095857
O -1.099990583909742 -1.216736963612202 -1.101939153395355
H -2.235774869611023 -2.976091646132040 0.303898357723934
H -3.347603465341260 -1.748583310353316 1.086413662834746
H -1.713085370111861 -2.053115549467121 1.689099497104032
7
maple-route1-mmgb-reference-mlip-reweighting-v1 phase=solution replicate=repeat-0 sample=42
C -2.290896248367208 -2.018866659039401 0.850383524150718
N -1.634786224296179 -0.891701260911596 0.026096264262550
O -1.975610490943046 0.246547639946181 0.203355350421252
O -1.172942041799408 -1.202227253586041 -1.035547235520307
H -2.137745666674597 -2.927788385868658 0.297602372527113
H -3.375154661517142 -1.890561561980163 1.026484882966424
H -1.783263862148852 -2.123174814515044 1.812384073246959
7
maple-route1-mmgb-reference-mlip-reweighting-v1 phase=solution replicate=repeat-0 sample=43
C -2.273398966151421 -1.898436446928946 0.869164348524337
N -1.660357651458101 -0.898872171786687 -0.015125941387840
O -2.032350390371755 0.284911059338250 0.248706114970544
O -1.112217967697754 -1.356452364618321 -1.068242534901742
H -2.128936255337091 -2.896786319899058 0.461907254474196
H -3.285263530823263 -1.731235851025387 0.905510404436107
H -1.799282729531328 -1.811706728103128 1.923273623990576
7
maple-route1-mmgb-reference-mlip-reweighting-v1 phase=solution replicate=repeat-0 sample=44
C -2.288441510614287 -1.936905517444213 0.987609503993414
N -1.768450074897330 -0.914616688586997 -0.079420898132069
O -1.924364063111123 0.266446316143546 0.106889516390434
O -1.105669175091464 -1.290338369374631 -0.982143986407704
H -2.058952385907884 -2.993270071690942 0.743366712526139
H -3.378502020732406 -1.894128863702169 0.929589862172485
H -1.914925659919121 -1.629797374602899 1.980124158337706
7
maple-route1-mmgb-reference-mlip-reweighting-v1 phase=solution replicate=repeat-0 sample=45
C -2.238208234387182 -1.813939086741434 0.982489734469587
N -1.860376465697110 -0.904695173298613 -0.155088470334865
O -1.936755707422537 0.327454774117024 0.160052003930353
O -1.069904323369338 -1.475192272538113 -0.963806948552944
H -1.727564458861781 -2.760257309691222 0.878850449487644
H -3.354493823917569 -2.115032566133652 0.894966097130905
H -1.962949802994615 -1.282428771617069 1.856946701134442
7
maple-route1-mmgb-reference-mlip-reweighting-v1 phase=solution replicate=repeat-0 sample=46
C -2.325652727062458 -1.778163925190502 1.072616328611984
N -1.791577649668719 -0.918596396482186 -0.097724114953884
O -1.885030129529721 0.239785558641312 0.008868940684762
O -1.107146477588652 -1.415096621786405 -0.951966828893048
H -1.620118037819266 -2.591670742417398 1.152134982526753
H -3.264715087305725 -2.257520373615111 0.858458232137173
H -2.306409068802239 -1.102536952825413 1.959402486869979
7
maple-route1-mmgb-reference-mlip-reweighting-v1 phase=solution replicate=repeat-0 sample=47
C -2.344487205093848 -1.739159382761704 1.083927653819435
N -1.684418438351714 -0.891042478722756 -0.043506078355040
O -1.921136997606403 0.350306173740365 -0.038099509535106
O -1.133642964573571 -1.588932952141321 -0.955697368467602
H -1.630552505729278 -2.522963615997636 1.392151029475555
H -3.106218188292362 -2.235296960190445 0.624093714727442
H -2.720764428246005 -1.037009306609140 1.869508767729920
7
maple-route1-mmgb-reference-mlip-reweighting-v1 phase=solution replicate=repeat-0 sample=48
C -2.374610685324551 -1.627856006052726 1.068926397233132
N -1.620534594534535 -0.912311762326875 -0.001278724764675
O -1.869289689663278 0.236817506871450 -0.101983992005925
O -1.202626625014665 -1.567399336142799 -0.907461316148067
H -1.695087547322918 -2.289428694359284 1.629878818390737
H -3.116746949327133 -2.215702580618887 0.489567549448566
H -2.911656972162217 -0.868286350550952 1.596633112979191
7
maple-route1-mmgb-reference-mlip-reweighting-v1 phase=solution replicate=repeat-0 sample=49
C -2.465641837952701 -1.614082608692291 1.135216237060626
N -1.638859472366064 -0.916489940729657 -0.026962130542429
O -1.776860212256176 0.347193200350049 -0.162184889191385
O -1.194410379527372 -1.686439213229189 -0.898663197891184
H -1.719387154726267 -2.087078124417733 1.781025243935844
H -3.197484592521627 -2.423390437121131 0.715409721939736
H -3.051951941825846 -0.833825506291272 1.600372443957935
7
maple-route1-mmgb-reference-mlip-reweighting-v1 phase=solution replicate=repeat-0 sample=50
C -2.435953446811822 -1.451572817597728 1.101028893824487
N -1.860214541394332 -0.944171379450613 -0.158940876987335
O -1.639521866939815 0.257187489697787 -0.126003072723119
O -1.182524913787186 -1.742023988811331 -0.792847241778487
H -1.481403601537770 -1.729743052357628 1.613793200583845
H -3.134911862661176 -2.275018969709940 0.878492905721279
H -2.991759315712406 -0.587502746866864 1.603722305717355
7
maple-route1-mmgb-reference-mlip-reweighting-v1 phase=solution replicate=repeat-0 sample=51
C -2.497856135481721 -1.376674890152989 1.182299249250567
N -1.849598940541468 -0.933303585038595 -0.145614777135110
O -1.519026464047207 0.247241692481078 -0.242368175647474
O -1.245162442981995 -1.808105634532753 -0.762523316119886
H -1.627145740368374 -1.719967490117705 1.794336404974073
H -3.157474855132870 -2.137548857884734 0.882700490373597
H -3.137525896239564 -0.569193811198707 1.630044414990953
7
maple-route1-mmgb-reference-mlip-reweighting-v1 phase=solution replicate=repeat-0 sample=52
C -2.538903525623471 -1.249250915214885 1.169656638531657
N -1.564170730314007 -0.957928727176989 0.017450331543311
O -1.527255423713541 0.260182498686476 -0.338874691796050
O -1.427653140441673 -1.927627956499645 -0.786402547897956
H -1.990772711899569 -1.577859868693297 2.034646678204234
H -3.286843123640820 -1.929820903760808 0.731865536426630
H -3.105493912000674 -0.401880258535698 1.334715444740862
7
maple-route1-mmgb-reference-mlip-reweighting-v1 phase=solution replicate=repeat-0 sample=53
C -2.528275612469066 -1.101339496343565 1.155094687970254
N -1.610346017933491 -0.988249188172198 0.003463371942220
O -1.429038812674489 0.138045125655463 -0.393800705681598
O -1.499874241655510 -1.932533137474918 -0.715413213985446
H -1.923433201345678 -1.312991849584177 1.995690114159287
H -3.383890329769942 -1.762259545777858 0.904815963584697
H -2.977586516134334 -0.160540568731292 1.312094825760718
7
maple-route1-mmgb-reference-mlip-reweighting-v1 phase=solution replicate=repeat-0 sample=54
C -2.547229017951962 -0.999363718763495 1.253584244334896
N -1.792478206685143 -0.945452908261621 -0.132504157250192
O -1.220832637264678 0.159896506088877 -0.460566669714098
O -1.544879593996967 -2.088064101405131 -0.636916760661615
H -1.760084565294330 -1.190491356446238 1.989944360475330
H -3.333606797993584 -1.706532616168558 1.191203986539086
H -3.018778942441847 -0.020584152819796 1.560872844569715
7
maple-route1-mmgb-reference-mlip-reweighting-v1 phase=solution replicate=repeat-0 sample=55
C -2.464055980732394 -0.842242031778667 1.165627862535305
N -1.845692359361565 -0.943360639975703 -0.153603639745169
O -1.159910341492260 -0.030784481667807 -0.446385477978395
O -1.640540980033026 -2.052588836022254 -0.549937464502389
H -1.646059008282803 -0.981576275924050 1.934730150378443
H -3.268350965672158 -1.559574004509241 1.204364023973625
H -2.888666185993205 0.177325624631265 1.344137699065858
7
maple-route1-mmgb-reference-mlip-reweighting-v1 phase=solution replicate=repeat-0 sample=56
C -2.494921990278336 -0.705319994204666 1.232437318992235
N -1.781296272139724 -0.962024348719054 -0.127409620190634
O -1.038062917869144 -0.025503366520005 -0.531342085209079
O -1.783350157773444 -2.171110848469053 -0.549893233481614
H -1.761218927690584 -0.758845076467631 2.069745954220718
H -3.355785029723525 -1.456416073713765 1.350598122885972
H -2.876854063243258 0.287882549340201 1.251079070511753
7
maple-route1-mmgb-reference-mlip-reweighting-v1 phase=solution replicate=repeat-0 sample=57
C -2.503027063711203 -0.622610534211011 1.178747200774064
N -1.628632194121209 -1.017554935879493 -0.006995613716812
O -1.026621349760227 -0.165829415246738 -0.610710960187221
O -1.916459941391682 -2.063385455527707 -0.517692852826223
H -1.900751076903022 -0.656908476515156 2.065884137416565
H -3.356764463250017 -1.370370177508787 1.272618396158856
H -2.839912272273457 0.406589862674080 1.048553060515012
7
maple-route1-mmgb-reference-mlip-reweighting-v1 phase=solution replicate=repeat-0 sample=58
C -2.445077355951299 -0.502709243671860 1.105779856951333
N -1.590939724714749 -1.082906256274513 0.012270744229265
O -0.977035575199903 -0.177129936926822 -0.569281449279297
O -2.059173438035848 -2.124783379984899 -0.503108359827764
H -1.872156609084313 -0.443890060081257 2.016945299712765
H -3.283171913936233 -1.109360300512291 1.274256381780456
H -2.676815095345026 0.567238924359107 0.795051314240277
7
maple-route1-mmgb-reference-mlip-reweighting-v1 phase=solution replicate=repeat-0 sample=59
C -2.484511932926540 -0.404811370747718 1.166734356291361
N -1.717468261011479 -0.999953913491752 -0.070783360521200
O -0.810071114887281 -0.376710533008355 -0.596106355073347
O -2.082340212314340 -2.082817119794223 -0.470479910222540
H -1.808691908087286 -0.330875623942066 2.048937031364199
H -3.270204687566450 -1.047884459175359 1.482530887000126
H -2.816870005946605 0.589302570864788 0.889687667362869
7
maple-route1-mmgb-reference-mlip-reweighting-v1 phase=solution replicate=repeat-0 sample=60
C -2.391166890709456 -0.332873582911524 1.048683025173672
N -1.805731996541009 -0.944324019769288 -0.171948554960201
O -0.724727459164340 -0.452801887254345 -0.496120747467890
O -2.182802975539242 -2.114798817411881 -0.376572624209987
H -1.603331746034351 -0.228251562940359 1.815644041481608
H -3.111042367107233 -1.078400589528633 1.534932243429747
H -2.823463043885975 0.594820509430799 0.808846480709677
7
maple-route1-mmgb-reference-mlip-reweighting-v1 phase=solution replicate=repeat-0 sample=61
C -2.389031333673658 -0.180344760055798 1.040483224457057
N -1.803017799701101 -0.948525883773360 -0.166931820690807
O -0.684891904985865 -0.609980847699049 -0.480172574657569
O -2.223670580071806 -2.110539213782995 -0.381511226231301
H -1.604778748892570 0.069033268389922 1.742977961748940
H -3.095918230444507 -0.843369161417605 1.601737995466704
H -2.891458213921231 0.735683338552881 0.661613270136677
7
maple-route1-mmgb-reference-mlip-reweighting-v1 phase=solution replicate=repeat-0 sample=62
C -2.423971745815424 -0.133300443481007 0.958290986539304
N -1.701425281703085 -1.022321357109084 -0.022515531913967
O -0.619314754658178 -0.679422404846008 -0.526964480705223
O -2.339557825112052 -2.029967190713214 -0.365156426489447
H -1.715701388957201 0.260978999074393 1.692471164727749
H -3.178954758181021 -0.697278899631352 1.471280041784632
H -2.882744089686638 0.683558128613830 0.298034172186107
7
maple-route1-mmgb-reference-mlip-reweighting-v1 phase=solution replicate=repeat-0 sample=63
C -2.366521092302518 -0.021197963231401 0.812142263412263
N -1.642662079114065 -1.149776082582420 0.132493091091897
O -0.667779684476266 -0.713725318180870 -0.471504954735437
O -2.404428821668094 -1.995550455120994 -0.408906661754870
H -1.600007698960694 0.473700137464211 1.447807257185262
H -3.171572544368821 -0.418979099173823 1.418732745060201
H -2.713167156403411 0.631906754709758 0.012065570860590
7
maple-route1-mmgb-reference-mlip-reweighting-v1 phase=solution replicate=repeat-0 sample=64
C -2.395048009118555 0.100647637270987 0.757603936181273
N -1.717518586907332 -1.038816517052742 0.000370767666476
O -0.552431528020247 -0.909617109346186 -0.398880397357248
O -2.429941639509568 -2.001844889446860 -0.324404720197627
H -1.574955449106564 0.544401044090974 1.333941417234129
H -3.110255258474351 -0.389704814696244 1.457260778965921
H -2.844078508043648 0.743194551295678 0.067790477295467
7
maple-route1-mmgb-reference-mlip-reweighting-v1 phase=solution replicate=repeat-0 sample=65
C -2.322610348307524 0.182027353591233 0.644799510447205
N -1.759678108335264 -0.972647031307073 -0.215566832473220
O -0.522089430984127 -1.053150534984660 -0.235874680592856
O -2.489213090567300 -1.993660552922777 -0.184712991734691
H -1.464548674960855 0.686082293790568 1.069876116660808
H -2.948412788374275 -0.310577600306275 1.394532972745961
H -2.929855811150456 0.791219195657238 -0.055277264287374
7
maple-route1-mmgb-reference-mlip-reweighting-v1 phase=solution replicate=repeat-0 sample=66
C -2.234100866576017 0.308458865788222 0.459635280337173
N -1.745200384318775 -1.021868712458759 -0.118063411094895
O -0.548408560993135 -1.165559103926459 -0.116668133660958
O -2.566118961318735 -1.964403726490165 -0.195996454931071
H -1.294195023611343 0.881440575107762 0.572394707709848
H -2.784750341420402 0.089792559860067 1.354308271913892
H -2.888958093288859 0.692201042472995 -0.381510831866960
7
maple-route1-mmgb-reference-mlip-reweighting-v1 phase=solution replicate=repeat-0 sample=67
C -2.219450293006085 0.404971902955253 0.257144737654431
N -1.714375581093531 -1.078212788455057 0.077480187349286
O -0.509371059592120 -1.333097623026880 -0.084906999157716
O -2.643530503976775 -1.842811113186041 -0.203763256163633
H -1.289451457062065 0.994965395319360 0.115722855678255
H -2.713560924892472 0.442195075779463 1.271228247557346
H -2.960265835650088 0.583466671184392 -0.520924119674378
7
maple-route1-mmgb-reference-mlip-reweighting-v1 phase=solution replicate=repeat-0 sample=68
C -2.021060610754044 0.408250208722226 0.071137062186356
N -1.760576516043767 -1.088632753294312 0.168666769989784
O -0.608446889668750 -1.349931405853061 -0.023562619124557
O -2.701458758283946 -1.820622465499642 -0.168586885270901
H -1.078003096119136 0.794839749809395 -0.284025406684981
H -2.280692740729700 0.619535666303262 1.142498485040270
H -2.835168407141608 0.619353178648596 -0.582367435365627
7
maple-route1-mmgb-reference-mlip-reweighting-v1 phase=solution replicate=repeat-0 sample=69
C -1.943045900504497 0.495109012061625 -0.029245918302632
N -1.747164279381459 -1.064344648605274 0.053138879833168
O -0.607636659817835 -1.520653746992671 0.089726760983085
O -2.780741219047197 -1.757517647416275 -0.074355457702641
H -1.109047669924719 0.872454935098688 -0.592931721759830
H -2.066699890703628 0.803677136574271 0.953527811389587
H -2.888180130909448 0.693529040709884 -0.580594679892761
7
maple-route1-mmgb-reference-mlip-reweighting-v1 phase=solution replicate=repeat-0 sample=70
C -1.842072552993273 0.437372616408625 -0.103225637669845
N -1.738109992491514 -1.083166616111637 -0.125126901391160
O -0.665814097127943 -1.569133921887620 0.198945261024700
O -2.828745615046052 -1.639438433567354 0.044776270607870
H -1.063327893417746 0.769581999483543 -0.774568232849449
H -1.838806429355907 0.775513558325316 0.891130202934230
H -2.799541161226722 0.661868730659503 -0.600329731170713
7
maple-route1-mmgb-reference-mlip-reweighting-v1 phase=solution replicate=repeat-0 sample=71
C -1.703112150926928 0.409009490478012 -0.236692695327537
N -1.776636050465274 -1.101566283676493 -0.122544488580690
O -0.725121413053150 -1.571131001960185 0.248991003003269
O -2.883843002738596 -1.601559708287364 0.107532263825727
H -0.901218448659588 0.609743533890665 -0.954072743382243
H -1.491500249172691 0.810750979204284 0.816141763649399
H -2.615052817675712 0.816168193242835 -0.592655000201635
7
maple-route1-mmgb-reference-mlip-reweighting-v1 phase=solution replicate=repeat-0 sample=72
C -1.690410504699397 0.428259061260569 -0.408198811054614
N -1.763603255936084 -1.058455158151540 0.053814047032354
O -0.720029197471131 -1.736945946182196 0.265597317827042
O -2.907980534507347 -1.494906769289610 0.108354812082220
H -0.940154590455998 0.548825565978656 -1.216956757976466
H -1.434666419917938 1.008559950683925 0.551274948358318
H -2.669113449413048 0.802486505853184 -0.757594085373558
7
maple-route1-mmgb-reference-mlip-reweighting-v1 phase=solution replicate=repeat-0 sample=73
C -1.542500601330502 0.298221852361957 -0.488804756208485
N -1.806120009613966 -1.003792003077208 0.194417227224838
O -0.800080825715977 -1.671937934333243 0.250535885995485
O -2.935888979305471 -1.475770249055462 0.099903847740278
H -0.787810986418386 0.130802950211104 -1.332362382162359
H -1.174338574613972 0.995104988633789 0.230868005555742
H -2.525169348405527 0.691480173197941 -0.931263383732536
7
maple-route1-mmgb-reference-mlip-reweighting-v1 phase=solution replicate=repeat-0 sample=74
C -1.495178786494908 0.294219558327276 -0.612887169684940
N -1.801337069217430 -0.993258044468893 0.162711276074230
O -0.821221287720339 -1.729214467184690 0.394710010099927
O -2.966096195718224 -1.418745414702254 0.104331477134452
H -0.877105437584488 -0.004798988477054 -1.485979683309937
H -0.966110117070254 1.030150241165476 -0.004028314035353
H -2.455924001658579 0.688657984568233 -0.982257978315974
7
maple-route1-mmgb-reference-mlip-reweighting-v1 phase=solution replicate=repeat-0 sample=75
C -1.491944729958464 0.245804118175005 -0.697990101522556
N -1.784255594437442 -1.078660215720308 -0.013941472022502
O -0.856053257411425 -1.718239088207469 0.551270046439624
O -2.958109436678689 -1.313670867486903 0.167164708468746
H -0.934904415823072 0.040013474218175 -1.565858364120673
H -0.823900506669499 0.859963584235972 -0.000128172011568
H -2.401401660060172 0.739841051860960 -0.917051326789303
7
maple-route1-mmgb-reference-mlip-reweighting-v1 phase=solution replicate=repeat-0 sample=76
C -1.368381835791595 0.116713872431062 -0.759675250128298
N -1.826702694658805 -1.157733227827251 -0.101275182315861
O -0.894227367173643 -1.601469495237460 0.588666735568281
O -3.010435637895448 -1.238944042253643 0.265287095602887
H -0.756161337550251 -0.098353238355596 -1.625205585589877
H -0.649121545109480 0.582603821773815 -0.087475015741040
H -2.204261286902466 0.751845898776782 -0.948715567025977
7
maple-route1-mmgb-reference-mlip-reweighting-v1 phase=solution replicate=repeat-0 sample=77
C -1.391807141356638 0.042371090831840 -0.924869188683801
N -1.794383821640782 -1.046098843656488 0.040336893373562
O -0.922337689769550 -1.718890777475493 0.652219836845024
O -2.974030398198205 -1.138589976409430 0.256344111749098
H -0.863802704600521 -0.402053262238232 -1.811652295640251
H -0.692722172704675 0.692359571930699 -0.527542450292127
H -2.357305003693373 0.557423098217746 -1.192406924097800
7
maple-route1-mmgb-reference-mlip-reweighting-v1 phase=solution replicate=repeat-0 sample=78
C -1.333486254459852 -0.123866898654256 -1.030884117628887
N -1.799580776364879 -0.893973540698660 0.187186250759820
O -0.934434999976579 -1.726513998206668 0.570219583627887
O -3.021047189840040 -1.096983143430748 0.319616622844005
H -0.908781573591015 -0.814520615038247 -1.764568404940182
H -0.473031096412045 0.539339965618907 -0.840820879007057
H -2.211048200657689 0.458252850385246 -1.400127677889019
7
maple-route1-mmgb-reference-mlip-reweighting-v1 phase=solution replicate=repeat-0 sample=79
C -1.376480650751642 -0.264859470222835 -1.114705810036172
N -1.787358163765892 -0.904213387828410 0.144615242745315
O -0.958452040810948 -1.710426507028305 0.612387627502487
O -2.973652182375703 -0.970032209662647 0.389543345260502
H -1.097664741107582 -0.998299371857412 -1.831109030562668
H -0.381448418868707 0.295319445366374 -0.938005570551062
H -2.138069536418127 0.433416910895987 -1.432581509650269
7
maple-route1-mmgb-reference-mlip-reweighting-v1 phase=solution replicate=repeat-0 sample=80
C -1.416899928384857 -0.335977522832590 -1.249762724718983
N -1.808768371519598 -1.040305733993356 0.061422330885817
O -0.931540697207351 -1.694148522539302 0.735624186315619
O -2.932357875929357 -0.800711120907273 0.473515055359398
H -1.348816746388306 -1.049738430910904 -2.080650876961177
H -0.443842050053333 0.117704680333095 -1.177769692739416
H -2.126271871923793 0.454146702370248 -1.458058276222898
7
maple-route1-mmgb-reference-mlip-reweighting-v1 phase=solution replicate=repeat-0 sample=81
C -1.405406999237381 -0.530720268859276 -1.253793571397403
N -1.874299397422892 -1.120061851839499 0.027597337285432
O -0.923847920227469 -1.553755938510843 0.657361013413321
O -2.887041190789049 -0.680607040906788 0.585505542165454
H -1.517103623642580 -1.302964581041227 -2.045418817598224
H -0.419922463995096 -0.221116925122803 -1.230819174199530
H -2.037812419014945 0.341413805134442 -1.463909588542490
7
maple-route1-mmgb-reference-mlip-reweighting-v1 phase=solution replicate=repeat-0 sample=82
C -1.577076334821505 -0.677571144495323 -1.377631530721945
N -1.822938391531883 -1.082312104695701 0.072257102736425
O -0.876451086477520 -1.565441129116206 0.753762841773212
O -2.811540732556490 -0.564662494363478 0.571347223748789
H -1.910133770431719 -1.446235715989359 -2.061159945392115
H -0.529894396618152 -0.397700771724057 -1.561972356616856
H -2.162964862182724 0.223594199534382 -1.565898760644738
7
maple-route1-mmgb-reference-mlip-reweighting-v1 phase=solution replicate=repeat-0 sample=83
C -1.663854365469685 -0.911177915581624 -1.425120657294457
N -1.760921410431391 -0.908019702234625 0.107145956378237
O -0.876012094225094 -1.551350442000115 0.695887106100376
O -2.790056068512370 -0.486972252564214 0.642566810821934
H -2.156042669890800 -1.806284509423221 -1.781378774426878
H -0.534056121164296 -0.889282049464014 -1.672306059253182
H -2.091943060151320 -0.020330216578032 -1.863813961514702
7
maple-route1-mmgb-reference-mlip-reweighting-v1 phase=solution replicate=repeat-0 sample=84
C -1.804075848832136 -1.142603467184032 -1.366453255752889
N -1.691848198213060 -0.816106582871203 0.089745314183487
O -0.860925088720667 -1.486696632717266 0.673731541635780
O -2.713762971591654 -0.400869927758136 0.622558500048540
H -2.561796546326690 -1.986930336396959 -1.454862119240142
H -0.792445939101260 -1.399902220586681 -1.739818508235462
H -2.169140890643069 -0.232613499844557 -1.915883312054043
7
maple-route1-mmgb-reference-mlip-reweighting-v1 phase=solution replicate=repeat-0 sample=85
C -1.981592817657025 -1.350937305675884 -1.389242002100152
N -1.697098489904492 -0.889693224186714 0.087092912243301
O -0.770759179734958 -1.407738002585204 0.732189837633120
O -2.616508538704534 -0.223031194172881 0.588701937060381
H -2.929663174514721 -1.976045126957627 -1.383402170421511
H -1.138468625807934 -1.829504341860862 -1.858626186945985
H -2.239469210663938 -0.391808875799031 -1.937995925720068
7
maple-route1-mmgb-reference-mlip-reweighting-v1 phase=solution replicate=repeat-0 sample=86
C -2.070902411440651 -1.553477275351176 -1.238431912209758
N -1.811822705511484 -0.994993935975052 0.150526608850087
O -0.732899481126947 -1.292321590271613 0.559282548315746
O -2.487906669177019 -0.039355290264003 0.558165442225168
H -2.992851765632654 -2.086832887516637 -1.238763621003729
H -1.198811934731603 -2.235690410142625 -1.445512977523540
H -2.098853822045628 -0.740818803932436 -1.956092514992533
7
maple-route1-mmgb-reference-mlip-reweighting-v1 phase=solution replicate=repeat-0 sample=87
C -2.293945069458507 -1.700984827905643 -1.101475341073124
N -1.797040202684499 -1.022397048662127 0.224276881738240
O -0.607506724224767 -1.182143175602676 0.516257123834737
O -2.407687648249976 0.019305590560107 0.401861780429975
H -3.305805841818587 -2.009079793980206 -1.030833729637153
H -1.606469958900551 -2.575528493778116 -1.196674572869865
H -2.190812672002568 -1.024420605499039 -1.910865771259573
7
maple-route1-mmgb-reference-mlip-reweighting-v1 phase=solution replicate=repeat-0 sample=88
C -2.411882308173491 -1.907447537277947 -0.852628141639661
N -1.706795494767046 -0.899598035897651 0.062714933461326
O -0.608151464117884 -1.185882598215090 0.441199442196234
O -2.353263664531292 0.113618859046727 0.370123548780704
H -3.500354849366372 -1.898621488839216 -0.629015340485282
H -2.009555569499880 -2.867726458790661 -0.672622389367495
H -2.287910701154873 -1.528577987806739 -1.862577268740866
7
maple-route1-mmgb-reference-mlip-reweighting-v1 phase=solution replicate=repeat-0 sample=89
C -2.536325130108667 -2.048472895437591 -0.567387367521583
N -1.651974291538584 -0.817249181746738 -0.120646839598767
O -0.598963969887606 -1.182887168754197 0.331843826554324
O -2.284819863425140 0.177278208785928 0.357465177716679
H -3.615269270298366 -1.755972916597127 -0.430505301786632
H -2.309377679086853 -2.907924990927497 0.033107487908042
H -2.386715919269203 -2.164853207477689 -1.674599629272339
7
maple-route1-mmgb-reference-mlip-reweighting-v1 phase=solution replicate=repeat-0 sample=90
C -2.696758121647667 -1.994145736969517 -0.285222285840954
N -1.687003374368561 -0.907582271352286 -0.036560594740415
O -0.479029266112635 -1.133681577244498 0.137720818602780
O -2.227683401177562 0.154828948729621 0.195451243794597
H -3.686809423195900 -1.565594993411505 -0.414273955000120
H -2.644535141471539 -2.586628275447463 0.704254656656624
H -2.392969078466880 -2.492769756173467 -1.230831242944146
7
maple-route1-mmgb-reference-mlip-reweighting-v1 phase=solution replicate=repeat-0 sample=91
C -2.709609020412604 -2.104156991854384 -0.021092249724619
N -1.717648205249797 -0.900034085352102 0.112058497569348
O -0.542682856134989 -1.186161983705134 -0.149050573394020
O -2.132108629147750 0.307300733723406 0.097510824100354
H -3.653797176390430 -1.817897224649044 -0.479673952834463
H -2.821066539900270 -2.393695976034917 1.084686880723188
H -2.181911460250261 -2.826996578756944 -0.644824187677941
7
maple-route1-mmgb-reference-mlip-reweighting-v1 phase=solution replicate=repeat-0 sample=92
C -2.689501472416552 -1.974863901206406 0.341582770904914
N -1.666228510676126 -0.923130312865073 0.103948676245485
O -0.595205551209643 -1.218301010464922 -0.434498020143835
O -2.136146616956425 0.224503439398598 0.054342526860918
H -3.479923306578410 -1.663875580405155 -0.388307772355667
H -2.996292013242616 -1.866379838886112 1.339539952453856
H -2.238017512293612 -2.910864954856298 0.018271952125494
7
maple-route1-mmgb-reference-mlip-reweighting-v1 phase=solution replicate=repeat-0 sample=93
C -2.648498456193118 -1.955205461785530 0.667469278133853
N -1.681126452990407 -0.920213246185000 0.023438581678799
O -0.690430031746638 -1.290993724039665 -0.647084710284473
O -2.070953744131271 0.281039535586207 0.017142778187139
H -3.429016372271371 -2.034819267132845 -0.096623078776573
H -3.008548293722883 -1.543640019825896 1.545102585304954
H -2.086135015053260 -2.887795363178971 0.724076130855532
7
maple-route1-mmgb-reference-mlip-reweighting-v1 phase=solution replicate=repeat-0 sample=94
C -2.457200292949996 -1.866633571183134 0.864209580513016
N -1.777715180032430 -0.926091642259434 -0.092010143529527
O -0.910500360567194 -1.423827373087122 -0.784744447524400
O -1.964334202539304 0.327131873694840 0.042414423022282
H -3.193286546036960 -2.440072118826441 0.352153716214479
H -2.845801847632087 -1.171194242384465 1.645156909590711
H -1.622177114015791 -2.461619052503521 1.215820629162099
7
maple-route1-mmgb-reference-mlip-reweighting-v1 phase=solution replicate=repeat-0 sample=95
C -2.310172396965974 -1.735290469187730 1.112690721144478
N -1.838227992735892 -0.944241623969164 -0.143862402137481
O -1.116738747459553 -1.474164857308453 -0.993957217719425
O -1.848072650019805 0.263744131086481 0.050386653542056
H -2.870679054939935 -2.620420557048462 0.805761996258181
H -2.901731281000138 -0.972641867993176 1.736706260022918
H -1.379671243144361 -1.982705873951612 1.627829955610546
7
maple-route1-mmgb-reference-mlip-reweighting-v1 phase=solution replicate=repeat-0 sample=96
C -2.080099915409041 -1.690763054565445 1.192310215992191
N -1.791489523188656 -0.905906404946338 -0.088275884920031
O -1.462161466173208 -1.608135159502581 -1.037805867425143
O -1.764514468695278 0.341139665974666 -0.023648657929353
H -2.297075510133578 -2.754280744030950 0.786169635321977
H -2.918283883792883 -1.246803473704247 1.713063377592800
H -1.163546426353376 -1.738399964407402 1.830279097355630
7
maple-route1-mmgb-reference-mlip-reweighting-v1 phase=solution replicate=repeat-0 sample=97
C -1.884633406793319 -1.590483123796026 1.305345174332817
N -1.693165420852208 -0.934967762988544 -0.094178540045300
O -1.798986059431183 -1.620436818765049 -1.095913011912673
O -1.698843184231870 0.272638866868303 -0.080108304919468
H -1.853686133628880 -2.698856638578028 1.150050342471272
H -2.843756726844632 -1.269675611564909 1.715793052350065
H -1.070997437534977 -1.282402827776821 2.023336715398211
7
maple-route1-mmgb-reference-mlip-reweighting-v1 phase=solution replicate=repeat-0 sample=98
C -1.718490706150633 -1.533350476940834 1.295311027705413
N -1.655087039427341 -0.956201376332160 -0.133895896005344
O -2.086565695437834 -1.679481659545723 -1.009349999104721
O -1.600704388937451 0.284233057689641 -0.132375069539938
H -1.421329727469842 -2.541614028580409 1.360195067496583
H -2.767469745158710 -1.416386434119665 1.705992835808010
H -1.076248689753809 -0.921108629312353 1.957217270295752
7
maple-route1-mmgb-reference-mlip-reweighting-v1 phase=solution replicate=repeat-0 sample=99
C -1.528326618929183 -1.530521185098733 1.276183918098077
N -1.732925091512689 -0.941317504400888 -0.117953144512170
O -2.322985609769815 -1.654390912011406 -0.852433842132442
O -1.485977846984400 0.255459639823778 -0.281458162607908
H -0.926439194609498 -2.434529833914898 1.252924466761489
H -2.503567939568174 -1.790652930222857 1.715518706428635
H -1.087538500971549 -0.843738550625976 1.936748087772357
