7
maple-route1-mmgb-reference-mlip-reweighting-v1 phase=solution replicate=repeat-1 sample=0
C -1.081683600679870 -1.752277352877243 1.016639472998957
N -1.804083139746816 -0.917642309959941 -0.034635908654945
O -2.974889364483611 -0.553977244648993 0.163863011690594
O -1.217644223093926 -0.641133913693530 -1.100852635048249
H 0.024266927072065 -1.730738439888115 0.843948079504412
H -1.530588584792446 -2.783902453232172 0.900899731382854
H -1.343984795209263 -1.333936572410622 1.964681978338366
7
maple-route1-mmgb-reference-mlip-reweighting-v1 phase=solution replicate=repeat-1 sample=1
C -1.134772465792356 -1.711490389442331 0.987508593122655
N -1.772792916078291 -0.895608071976802 -0.007985607634186
O -2.956753827259987 -0.545661038085150 0.214130388259072
O -1.212112297663464 -0.716539995325735 -1.146213032688880
H -0.033915184976363 -1.629068478769564 0.817207158923092
H -1.563748806912191 -2.707598969379469 0.851126672474031
H -1.427197545320247 -1.237289331352656 1.947088002014056
7
maple-route1-mmgb-reference-mlip-reweighting-v1 phase=solution replicate=repeat-1 sample=2
C -1.081985010330352 -1.730420249492000 1.018651326216924
N -1.777089181794927 -0.883105670846105 0.022370526755138
O -2.963796513193446 -0.473818823843660 0.156717673213857
O -1.259573018052458 -0.778021957012740 -1.142556893737641
H -0.011354224125934 -1.580983704757939 0.808215138081496
H -1.396255070955780 -2.763991363523763 0.812452964841140
H -1.330122709938538 -1.338571059067428 2.063290566332878
7
maple-route1-mmgb-reference-mlip-reweighting-v1 phase=solution replicate=repeat-1 sample=3
C -1.146374280731451 -1.672690186644898 1.021744778745086
N -1.765476272027764 -0.898045537913715 0.001341806086607
O -2.928192645998003 -0.462430765860243 0.215165791016813
O -1.241295621232847 -0.824808101054401 -1.188231525123079
H -0.048397475005792 -1.528272338501180 0.941675510242677
H -1.407201963109742 -2.738461252609224 0.800787627010517
H -1.533849515727019 -1.336366309257303 1.996787125979236
7
maple-route1-mmgb-reference-mlip-reweighting-v1 phase=solution replicate=repeat-1 sample=4
C -1.088122840316095 -1.667609215602713 1.038958552334735
N -1.796146601259954 -0.925368474438161 -0.017750268121177
O -2.933489941245094 -0.401987438939668 0.164557688502757
O -1.267712513322304 -0.867065423970275 -1.146268305637015
H -0.011028356961795 -1.411987520647411 1.093275000964355
H -1.181666027426808 -2.767466252671350 0.889846603083604
H -1.566003336296309 -1.388228940670410 1.958688247117151
7
maple-route1-mmgb-reference-mlip-reweighting-v1 phase=solution replicate=repeat-1 sample=5
C -1.123388511804965 -1.630703115413242 1.071680248713056
N -1.809036761182492 -0.938542267885595 -0.048441401656507
O -2.917125805853125 -0.389967264718438 0.175671983388833
O -1.238771091458893 -0.908904617202992 -1.166774290231554
H -0.118952797538254 -1.255520020230330 1.208663211242034
H -1.049920495302702 -2.676636001193983 0.924368092937732
H -1.694349876330721 -1.424507528272313 1.996868067584214
7
maple-route1-mmgb-reference-mlip-reweighting-v1 phase=solution replicate=repeat-1 sample=6
C -1.174862478801038 -1.582071330881158 1.123914908008014
N -1.821159696244616 -0.940853844372034 -0.064307676361003
O -2.874531113211132 -0.385224672314131 0.133428832467710
O -1.228307155380443 -0.952082757613792 -1.154700195450444
H -0.229009992883378 -1.133557568076384 1.279596383282973
H -0.936082528006691 -2.592157341913303 0.890446199671819
H -1.767066490688474 -1.567804199230909 2.042213671746014
7
maple-route1-mmgb-reference-mlip-reweighting-v1 phase=solution replicate=repeat-1 sample=7
C -1.164183114774377 -1.585219139734819 1.138254473605088
N -1.834635619970888 -0.922333511324453 -0.073977536677486
O -2.913077620050554 -0.343026769876371 0.085913451612252
O -1.194585498697136 -1.003652830620067 -1.114104753882863
H -0.231626245490680 -1.090980181741510 1.372941590993283
H -0.801189670746650 -2.585947662326202 0.888907902452005
H -1.756915172319349 -1.674659037760544 2.029627646440726
7
maple-route1-mmgb-reference-mlip-reweighting-v1 phase=solution replicate=repeat-1 sample=8
C -1.232096770979116 -1.551717667065461 1.144301236099529
N -1.804263798373080 -0.914068263581011 -0.095411626550914
O -2.861662942999263 -0.355597628651905 0.093715007179692
O -1.196793862911378 -1.033343037011426 -1.125888045059965
H -0.372119089926730 -0.996713606722926 1.614542179841940
H -0.792139470499098 -2.546124669810136 1.061350934624922
H -2.012803838433128 -1.651366718945505 1.900299811814172
7
maple-route1-mmgb-reference-mlip-reweighting-v1 phase=solution replicate=repeat-1 sample=9
C -1.219694425700379 -1.554925637911496 1.182274599445247
N -1.814944927507572 -0.911610578023394 -0.091128575599653
O -2.869613611284740 -0.295870510289198 0.031281907888102
O -1.193056686799529 -1.085411789307283 -1.101045575786836
H -0.458234509880483 -0.975099578928929 1.724096670345449
H -0.668283366936056 -2.477980875579162 1.013778200228854
H -1.986501707490798 -1.858214012920296 1.922267288564933
7
maple-route1-mmgb-reference-mlip-reweighting-v1 phase=solution replicate=repeat-1 sample=10
C -1.295381737066470 -1.531358495426929 1.189724924001604
N -1.801772258431837 -0.913716248953516 -0.084551213991860
O -2.840331928749710 -0.277555721635929 0.022468308924942
O -1.161970132608820 -1.128851162880992 -1.096100865497509
H -0.699938191262738 -0.843225408944215 1.720253753121909
H -0.619326107720190 -2.338572022214767 0.953768734742872
H -2.025155932753314 -1.982485750378215 1.857876149561589
7
maple-route1-mmgb-reference-mlip-reweighting-v1 phase=solution replicate=repeat-1 sample=11
C -1.345551775282694 -1.555815255718851 1.249013987261733
N -1.773332670548118 -0.912137720533987 -0.076078589338781
O -2.811709653438468 -0.238053143825192 -0.026288029192435
O -1.159470993551625 -1.154756954150728 -1.107453835833060
H -0.950699917763542 -0.752165680281660 1.839577338001955
H -0.564621778579553 -2.283109955374299 1.098533059361295
H -2.133471965692718 -2.087963590640799 1.728058179186164
7
maple-route1-mmgb-reference-mlip-reweighting-v1 phase=solution replicate=repeat-1 sample=12
C -1.357464948889644 -1.555194467177134 1.227817726597531
N -1.770447414910333 -0.919412364444735 -0.057603812062351
O -2.811454929506489 -0.172552402844705 -0.078059042442087
O -1.140216915008295 -1.213220508329085 -1.044989758086810
H -1.126537767787255 -0.734538192738979 1.936092002645023
H -0.541940112282226 -2.245422980921902 1.042851755684897
H -2.196333769851277 -2.170494589111262 1.508961814733909
7
maple-route1-mmgb-reference-mlip-reweighting-v1 phase=solution replicate=repeat-1 sample=13
C -1.433016083590541 -1.532598864394336 1.282961249967919
N -1.770781605941049 -0.951248761704746 -0.059195298647487
O -2.751550947112386 -0.150060376761543 -0.088169787482515
O -1.124250361242412 -1.230549127414943 -1.079737976024373
H -1.317700849423707 -0.672751643936083 1.992749663882666
H -0.556125208019669 -2.161357057104510 1.102552037665898
H -2.298486721333294 -2.222113060067071 1.480817158233432
7
maple-route1-mmgb-reference-mlip-reweighting-v1 phase=solution replicate=repeat-1 sample=14
C -1.476156119859664 -1.521551481400926 1.302518793168401
N -1.777131462765461 -0.945387152688727 -0.057356942468168
O -2.743968247668914 -0.133552577741772 -0.149661185910852
O -1.095216422765651 -1.268486128999691 -1.033264478265622
H -1.391076742361350 -0.611952291275687 1.920436357852912
H -0.504651227842111 -2.029659222069179 1.061280370775099
H -2.253841156471126 -2.292092817543956 1.564846817848184
7
maple-route1-mmgb-reference-mlip-reweighting-v1 phase=solution replicate=repeat-1 sample=15
C -1.483128616969773 -1.490848644497744 1.311083616549872
N -1.778785810674380 -0.952314528972678 -0.063423608501733
O -2.748207272556431 -0.144662120291369 -0.181297401797624
O -1.076540332057794 -1.286552653907677 -1.005372023226137
H -1.527426140078364 -0.555604404297406 1.882514794079520
H -0.480430123103092 -1.944212129355464 1.166925622278798
H -2.248163950902919 -2.230271260328180 1.538018425642171
7
maple-route1-mmgb-reference-mlip-reweighting-v1 phase=solution replicate=repeat-1 sample=16
C -1.470216467259840 -1.453890003624270 1.353564346090139
N -1.768816459798854 -0.938565893818360 -0.070196219220135
O -2.759388154533227 -0.169233357365546 -0.204803932320787
O -1.073158181179778 -1.308222796020474 -1.018507845758308
H -1.661310167985767 -0.579088778611021 2.004205183191745
H -0.500204781733946 -1.856919282825240 1.323277704706361
H -2.260960332737458 -2.186474371410365 1.433393428656293
7
maple-route1-mmgb-reference-mlip-reweighting-v1 phase=solution replicate=repeat-1 sample=17
C -1.484157901570539 -1.443652229552845 1.315591421524451
N -1.769454626732199 -0.899806297686746 -0.073103618315027
O -2.766015018905010 -0.185047701360858 -0.219195264812286
O -1.062637516385328 -1.330190661731678 -0.964010287012132
H -1.711754226827832 -0.687862276737807 2.060380350014824
H -0.439673342816640 -1.707831947129532 1.220803085237747
H -2.162326112872057 -2.293236289859601 1.333783855050682
7
maple-route1-mmgb-reference-mlip-reweighting-v1 phase=solution replicate=repeat-1 sample=18
C -1.540080679728690 -1.474220456270841 1.348900851128178
N -1.746391685863109 -0.871666461055152 -0.090405353791952
O -2.747943220479950 -0.185731693224840 -0.212854031144265
O -1.055599855994798 -1.331036859481848 -0.995205155134778
H -1.934552508331919 -0.775100990609998 2.069870812136341
H -0.408770757967803 -1.465216498081223 1.370236444047670
H -2.020077748688768 -2.463199097610296 1.416012984382593
7
maple-route1-mmgb-reference-mlip-reweighting-v1 phase=solution replicate=repeat-1 sample=19
C -1.535926756500715 -1.474527800182889 1.313649490720184
N -1.748353664233386 -0.879209238888951 -0.100955151670261
O -2.736650307816995 -0.177601731420668 -0.231580717971065
O -1.053940033298963 -1.332093665899375 -0.943633555554996
H -2.252947279472783 -0.901503187203260 1.967440735335166
H -0.486305607195095 -1.264237695576048 1.616409441754430
H -1.856408636853588 -2.539519572716658 1.313774617688553
7
maple-route1-mmgb-reference-mlip-reweighting-v1 phase=solution replicate=repeat-1 sample=20
C -1.536408424388159 -1.426590071768433 1.358255486091437
N -1.776933451144984 -0.888130552717894 -0.114277149057357
O -2.756578720895786 -0.177280051322342 -0.283043306770242
O -1.004369558011545 -1.356976694467687 -0.922197856047772
H -2.431676115890708 -1.176940604986826 1.988361520127513
H -0.612113310939958 -1.060619805040345 1.809360649956226
H -1.611199186249592 -2.528205406289581 1.232615722673716
7
maple-route1-mmgb-reference-mlip-reweighting-v1 phase=solution replicate=repeat-1 sample=21
C -1.633669550056573 -1.377081655713881 1.368668686092205
N -1.774943509356281 -0.911160423054982 -0.113780087577290
O -2.708359355557848 -0.229068475682208 -0.287699040223144
O -0.975214164858858 -1.340015010180421 -0.927305681999564
H -2.546024423628554 -1.301127192609507 1.937731196022788
H -0.833856972717094 -0.751221030168987 1.803442530583721
H -1.374836136150543 -2.439347503924306 1.319496100714324
7
maple-route1-mmgb-reference-mlip-reweighting-v1 phase=solution replicate=repeat-1 sample=22
C -1.622566014297693 -1.402785539365904 1.367424150793128
N -1.800939424234184 -0.923991226589684 -0.112065908783506
O -2.742440178124181 -0.189502646382282 -0.373404617256255
O -0.925325687713882 -1.356102948666715 -0.845190635490538
H -2.577749109348612 -1.493892149725779 1.849113783842498
H -1.096121741787256 -0.545941291105872 1.784013509937568
H -1.101899624692648 -2.338742828310055 1.476766603613109
7
maple-route1-mmgb-reference-mlip-reweighting-v1 phase=solution replicate=repeat-1 sample=23
C -1.661133433616397 -1.335904410912414 1.389512810536373
N -1.796108821369115 -0.942600746626769 -0.100968663831552
O -2.702852739559299 -0.237635737800132 -0.397335517380399
O -0.917935664161894 -1.349374870196443 -0.853905048625666
H -2.675106428977037 -1.675028447043830 1.680169195741593
H -1.469883458977623 -0.432551211342017 1.944600198560816
H -0.972364339703417 -2.153987307110126 1.589732051013947
7
maple-route1-mmgb-reference-mlip-reweighting-v1 phase=solution replicate=repeat-1 sample=24
C -1.704572301785398 -1.276444985254686 1.392745214917371
N -1.802282565915461 -0.941589374846987 -0.087441361468903
O -2.723079685309222 -0.259850537101674 -0.432344819132993
O -0.860076439374604 -1.374930668161897 -0.830690097646547
H -2.539001619087939 -1.969066278490499 1.595430251384994
H -1.817787782215921 -0.383579330385402 2.017564119291711
H -0.758501901578586 -1.865562605454022 1.565415061585103
7
maple-route1-mmgb-reference-mlip-reweighting-v1 phase=solution replicate=repeat-1 sample=25
C -1.727870791924945 -1.293277105533139 1.399258826035717
N -1.814742624602084 -0.945217245101713 -0.068198699110630
O -2.718039051204698 -0.279860179865985 -0.526491037923618
O -0.839183362331302 -1.348722500644175 -0.759340151848432
H -2.307619260420877 -2.195956873634914 1.628453207396222
H -2.118811439754914 -0.382787760420220 1.950038567442940
H -0.635263112788344 -1.476503288637877 1.621971235200890
7
maple-route1-mmgb-reference-mlip-reweighting-v1 phase=solution replicate=repeat-1 sample=26
C -1.776008222700658 -1.232117074239592 1.398852064232774
N -1.788539976238595 -0.970540417210054 -0.057615126916644
O -2.729052731168916 -0.333245878175826 -0.509598867087787
O -0.790598492356509 -1.337103879894770 -0.783909890293763
H -2.190974401769092 -2.251100817766787 1.601229112550516
H -2.500973254165678 -0.438040151328230 1.757730735188279
H -0.766232390458127 -1.059518639214001 1.810029169739372
7
maple-route1-mmgb-reference-mlip-reweighting-v1 phase=solution replicate=repeat-1 sample=27
C -1.723147324355859 -1.191293165887892 1.411716103085617
N -1.800126589436420 -0.945610987885217 -0.043593794210894
O -2.771471590750806 -0.386651171332308 -0.596265926441332
O -0.793821260744444 -1.333252220048265 -0.718874447995821
H -1.837256317806551 -2.301281875520573 1.526650065987350
H -2.584951518239345 -0.688237061976966 1.825476956992562
H -0.777357545479838 -0.799976769523161 1.810780171681372
7
maple-route1-mmgb-reference-mlip-reweighting-v1 phase=solution replicate=repeat-1 sample=28
C -1.785707226486350 -1.132940090001144 1.412944797636645
N -1.784273365311734 -0.937492620542857 -0.036038397798890
O -2.758625657939287 -0.446884806686012 -0.606904984504120
O -0.764706365564120 -1.337949495527892 -0.718303216488369
H -1.599201407967135 -2.188040393595122 1.572308652460884
H -2.749603970854330 -0.910641481631592 1.826149023537446
H -0.995986245513155 -0.477723845049327 1.805090397582384
7
maple-route1-mmgb-reference-mlip-reweighting-v1 phase=solution replicate=repeat-1 sample=29
C -1.795769659401851 -1.053198444231727 1.431465464087337
N -1.791254088716806 -0.971192004104722 -0.044027136834590
O -2.758074626777012 -0.479667270499845 -0.643216331823914
O -0.745582061701796 -1.356925532938853 -0.695291323887418
H -1.408088618879378 -2.012504607346753 1.743286234970262
H -2.825619643697560 -1.024771984990895 1.827006021399742
H -1.217947528684497 -0.185344718961167 1.733733211129913
7
maple-route1-mmgb-reference-mlip-reweighting-v1 phase=solution replicate=repeat-1 sample=30
C -1.768620451317183 -0.936145217960127 1.418181744553701
N -1.818935082092924 -1.029358711979563 -0.054257473498837
O -2.740009186174884 -0.498598135591558 -0.710662682326524
O -0.761472488420923 -1.399758242348409 -0.608024033007693
H -1.234551937795441 -1.784219028307958 1.878918939659565
H -2.799281616158265 -1.094644358213868 1.763434404876485
H -1.392665599293256 0.056199427910140 1.649773791775924
7
maple-route1-mmgb-reference-mlip-reweighting-v1 phase=solution replicate=repeat-1 sample=31
C -1.832045494760589 -0.780287380166150 1.412737140253752
N -1.803215667449405 -1.057974948730535 -0.069728725928893
O -2.713686183374720 -0.544047018156481 -0.707019781538632
O -0.736454076190264 -1.484218396421267 -0.596482298251359
H -1.270020317369011 -1.500421257956306 1.990942661540180
H -2.840785056261809 -1.010046171647983 1.737872461002840
H -1.595124445271028 0.290148392826197 1.608038543779466
7
maple-route1-mmgb-reference-mlip-reweighting-v1 phase=solution replicate=repeat-1 sample=32
C -1.813778544954831 -0.710040615788577 1.391691726065507
N -1.813013704347606 -1.010765168475595 -0.087255128039945
O -2.701826856150205 -0.593764219091536 -0.788580491993085
O -0.776488819481724 -1.546365675898806 -0.481653093476319
H -1.104180613309502 -1.370896442074387 1.878269673998241
H -2.740508919543091 -0.913751895127887 1.926096079334921
H -1.501306898483135 0.347396948981050 1.507484756144181
7
maple-route1-mmgb-reference-mlip-reweighting-v1 phase=solution replicate=repeat-1 sample=33
C -1.844058925265156 -0.623815101069454 1.403589977730749
N -1.761853590710916 -0.983186163591038 -0.111944724636963
O -2.692067552571092 -0.602123065735605 -0.785609930928767
O -0.789208577870861 -1.649461464102518 -0.476169978139709
H -1.152347311054809 -1.197170144060092 2.050440465765822
H -2.826411192067947 -0.827601254270995 1.856463897049601
H -1.673731281368085 0.434441730497251 1.476956767258557
7
maple-route1-mmgb-reference-mlip-reweighting-v1 phase=solution replicate=repeat-1 sample=34
C -1.825793927813789 -0.559681000833400 1.349546047738146
N -1.734877694302145 -0.960256647107854 -0.124382844423501
O -2.666338305660797 -0.610401866277399 -0.799180167715432
O -0.843590215965613 -1.720460934898167 -0.399027870230693
H -1.114138495081348 -1.030879025683842 2.035391832781207
H -2.796216310330259 -0.899658328767221 1.706936132517398
H -1.874444823494837 0.519001217368606 1.448667093645343
7
maple-route1-mmgb-reference-mlip-reweighting-v1 phase=solution replicate=repeat-1 sample=35
C -1.815771050866119 -0.497657948064196 1.359018495335849
N -1.742061602491342 -0.946688208738658 -0.134718195615596
O -2.637590520131021 -0.607607437449300 -0.872506871498907
O -0.887850359623286 -1.793268179744639 -0.326333432331550
H -0.958116616015814 -0.916821158022790 1.885190138303162
H -2.709216882450773 -0.920233441493946 1.832362743474382
H -1.885660894386057 0.605578932067828 1.515025940292831
7
maple-route1-mmgb-reference-mlip-reweighting-v1 phase=solution replicate=repeat-1 sample=36
C -1.861896256123135 -0.438324102040621 1.317665185012085
N -1.749568914476730 -0.991479731011270 -0.112437345791330
O -2.588420486728473 -0.571132548100793 -0.842989006509033
O -0.888321334933590 -1.857825785992579 -0.328784482059868
H -0.946218311185306 -0.732447106425776 1.874219653226102
H -2.800158482235536 -0.796080409133677 1.838917906161802
H -1.934229433254239 0.655324929917672 1.271818130307427
7
maple-route1-mmgb-reference-mlip-reweighting-v1 phase=solution replicate=repeat-1 sample=37
C -1.815069265098632 -0.438652478287342 1.344530326781292
N -1.804111758293095 -1.027548416055608 -0.083992755516008
O -2.557202188585236 -0.565018948929554 -0.924393090075751
O -0.918489428294400 -1.832994801521624 -0.290028910553922
H -0.838417467072292 -0.697595814828764 1.854327335684759
H -2.733766076718718 -0.804003951533390 1.869042319197842
H -1.921988261941309 0.649327916014883 1.215388300521797
7
maple-route1-mmgb-reference-mlip-reweighting-v1 phase=solution replicate=repeat-1 sample=38
C -1.825286388242123 -0.406680896177418 1.330281328177690
N -1.829699883282600 -1.064523895352741 -0.059943732100872
O -2.543799899596335 -0.548518643304433 -0.922456935440620
O -0.896419596449858 -1.846688259537617 -0.290483252125439
H -0.859953338833139 -0.644946251631417 1.812224794152077
H -2.724778013555310 -0.806097275652379 1.774334901315669
H -2.001260814947145 0.689957074614381 1.173301850144066
7
maple-route1-mmgb-reference-mlip-reweighting-v1 phase=solution replicate=repeat-1 sample=39
C -1.844927403240071 -0.380868787916062 1.317964269138060
N -1.822275643028390 -1.050025707684741 -0.041124315673775
O -2.520219373069717 -0.547016267091298 -0.896584482857260
O -0.910098713063436 -1.876797993014533 -0.313027672905301
H -0.900624882428466 -0.709308695049156 1.714662218101187
H -2.765355347911606 -0.790772402141652 1.728180203623389
H -1.935887722465051 0.686161906161019 1.161629670959335
7
maple-route1-mmgb-reference-mlip-reweighting-v1 phase=solution replicate=repeat-1 sample=40
C -1.808858114013819 -0.426065610539706 1.366781332065023
N -1.783798266487802 -0.971863133354311 -0.060571509316714
O -2.551616667711542 -0.555234965236371 -0.974500879818039
O -0.951478814948534 -1.892417530444475 -0.259972481893957
H -0.887350299421817 -0.845288351328577 1.720930416398517
H -2.775625292005408 -0.755588802962737 1.755301304098063
H -1.751440305738952 0.616812645045696 1.202199838990928
7
maple-route1-mmgb-reference-mlip-reweighting-v1 phase=solution replicate=repeat-1 sample=41
C -1.874636777773675 -0.405318113923714 1.331644512436559
N -1.693995569753663 -0.936130553712071 -0.072217878262462
O -2.520864912655764 -0.535563188945485 -0.890163103679653
O -0.993074426543825 -1.969067344842985 -0.293617264924558
H -1.054065011020364 -0.844973493651457 1.872652049040074
H -2.919337863987804 -0.634489521394230 1.504533529618182
H -1.722482050835026 0.658916160938357 1.082143007885974
7
maple-route1-mmgb-reference-mlip-reweighting-v1 phase=solution replicate=repeat-1 sample=42
C -1.836173984183874 -0.425332740356410 1.355173496800569
N -1.691089451236899 -0.908773026825870 -0.096065953615062
O -2.514880310797864 -0.523506608321743 -0.951530970401707
O -1.037902772694353 -1.977502637398726 -0.239723222223426
H -1.102629990089331 -1.036631312597600 1.905006148870156
H -2.897528131219324 -0.657115530466237 1.427262761471564
H -1.575817816676113 0.674785950239231 1.299972943094883
7
maple-route1-mmgb-reference-mlip-reweighting-v1 phase=solution replicate=repeat-1 sample=43
C -1.827875413621136 -0.412862966421252 1.333672848939056
N -1.784143653719864 -0.982892711524560 -0.076540360514681
O -2.453838271531875 -0.473466068358480 -0.942405155331595
O -1.031572151673946 -1.971708789950421 -0.255540673438345
H -1.108676016000292 -1.074152451009438 1.878335360031695
H -2.912837978113605 -0.543578237675928 1.560038840953000
H -1.432691930352442 0.594106317399462 1.291777051062942
7
maple-route1-mmgb-reference-mlip-reweighting-v1 phase=solution replicate=repeat-1 sample=44
C -1.840748529436673 -0.397225891712907 1.343788581746429
N -1.862363914047596 -1.073831297744609 -0.072691164985137
O -2.403930443680812 -0.421136166678120 -0.919245919883587
O -1.007891012747872 -1.975851269312975 -0.296913872918685
H -1.145770665458606 -0.948579230562375 2.000065706629838
H -2.888244816852881 -0.312199728076354 1.680951968206189
H -1.347504877343025 0.542630371155661 1.158772945040021
7
maple-route1-mmgb-reference-mlip-reweighting-v1 phase=solution replicate=repeat-1 sample=45
C -1.780442328042289 -0.471653609957890 1.311008503898990
N -1.873096858578828 -1.063576552628629 -0.096021714460249
O -2.408197672092422 -0.411821676769399 -0.945699168448917
O -1.049991863175346 -1.925080236491039 -0.222955057945678
H -1.231201630956501 -1.064897882065892 2.003232535573920
H -2.803118443824280 -0.312831095382168 1.615960633466815
H -1.170519154817447 0.443815882759225 1.176173878894849
7
maple-route1-mmgb-reference-mlip-reweighting-v1 phase=solution replicate=repeat-1 sample=46
C -1.823092700515147 -0.402969770615010 1.364667359338089
N -1.820975845023473 -1.046560528356243 -0.115532355427395
O -2.390846628319841 -0.401325070806833 -0.918724140352982
O -1.060928411079010 -2.009093889649407 -0.296454309734809
H -1.512853587062330 -1.079064863324521 2.163529678255894
H -2.859621090913058 -0.182131697766487 1.583021125265990
H -1.137884420655161 0.441148639724593 1.420751434292962
7
maple-route1-mmgb-reference-mlip-reweighting-v1 phase=solution replicate=repeat-1 sample=47
C -1.826661496014082 -0.472301019498929 1.319596372242196
N -1.753766836510413 -0.976422064654550 -0.132795236094006
O -2.390713544405571 -0.378668730611137 -0.908489518064050
O -1.112391697913381 -2.012117197481568 -0.258106237240179
H -1.712620909890699 -1.343045170999569 2.021581994430293
H -2.844601028672088 -0.130438867593104 1.579630873046585
H -1.030152846549232 0.199498350361963 1.553643541083987
7
maple-route1-mmgb-reference-mlip-reweighting-v1 phase=solution replicate=repeat-1 sample=48
C -1.842891527112522 -0.520198196734679 1.372252086301771
N -1.685257113821225 -0.943141779049274 -0.138427568720224
O -2.396687939205401 -0.361599215514595 -0.923038956923134
O -1.148886884826745 -2.025988880872250 -0.284794110474035
H -1.902510296709206 -1.343001861859770 2.086249435161073
H -2.817487122360575 0.013677804447379 1.543206245441454
H -0.953952683548989 0.116735503375760 1.629924116462488
7
maple-route1-mmgb-reference-mlip-reweighting-v1 phase=solution replicate=repeat-1 sample=49
C -1.846471844632612 -0.527898422512589 1.358601629574485
N -1.708920062114755 -0.975664890178765 -0.100993443605153
O -2.346500483858853 -0.317167251597368 -0.884693506563092
O -1.175187627568731 -2.043662106431066 -0.333646089384385
H -2.031459993277925 -1.313404701758790 2.046510230456270
H -2.731275159636177 0.153562154078543 1.432423265515058
H -0.914504631926487 0.081412058921066 1.593711941265046
7
maple-route1-mmgb-reference-mlip-reweighting-v1 phase=solution replicate=repeat-1 sample=50
C -1.780790730604793 -0.566283139947656 1.365120369215625
N -1.825340997431695 -1.012528078370866 -0.072115165975525
O -2.301533445190396 -0.238759538125373 -0.951156835309964
O -1.182189865451250 -2.037689203196190 -0.301804848485556
H -1.931806354992561 -1.488640773089699 1.982884294425095
H -2.643225325438015 0.061068377633082 1.595924981985005
H -0.868583755283549 -0.025706589515619 1.557762088912571
7
maple-route1-mmgb-reference-mlip-reweighting-v1 phase=solution replicate=repeat-1 sample=51
C -1.774271355155982 -0.538607823745170 1.366227443102291
N -1.903155044578905 -1.070107008435792 -0.033123682109913
O -2.214433305116628 -0.208027657361554 -0.868184766667329
O -1.214016810460236 -2.047602171322361 -0.417022526639030
H -1.871703899472542 -1.434846988960723 2.032364184581008
H -2.607478744188238 0.133712264506360 1.619018326034347
H -0.848363403022230 -0.004261650122884 1.432187726789855
7
maple-route1-mmgb-reference-mlip-reweighting-v1 phase=solution replicate=repeat-1 sample=52
C -1.743320005899547 -0.662845767810902 1.343151884306173
N -1.855189091967552 -1.014350978183453 -0.023676642778034
O -2.235426140280982 -0.119018680630225 -0.871716848901510
O -1.272747259561821 -2.070155578675411 -0.393039751369654
H -1.831287549618369 -1.562494365195767 1.914278732808288
H -2.526528411695215 0.058767380255441 1.626784199748602
H -0.738696462564558 -0.143783197501666 1.361379765624156
7
maple-route1-mmgb-reference-mlip-reweighting-v1 phase=solution replicate=repeat-1 sample=53
C -1.709386559128471 -0.680960453046312 1.449850466469361
N -1.756970645343267 -0.976681771276684 -0.033439258908898
O -2.254350776964315 -0.128458552581108 -0.869386617186503
O -1.366262038684591 -2.073845811745489 -0.493572877857011
H -1.911836585234899 -1.605197467571866 1.965203970325578
H -2.465110711120626 0.072025636971245 1.695876076733931
H -0.710218525750198 -0.220320399991715 1.659955389552662
7
maple-route1-mmgb-reference-mlip-reweighting-v1 phase=solution replicate=repeat-1 sample=54
C -1.657681378754117 -0.740516053279559 1.351448021944875
N -1.703274591015721 -0.961577845772282 -0.056994722460340
O -2.282573815720334 -0.055086256359263 -0.725514251396749
O -1.421995695197311 -2.095196277760647 -0.524196427371180
H -1.951353958896254 -1.746829340566879 1.793777480860741
H -2.432272236751284 0.004162008374872 1.567673713460875
H -0.730000024918866 -0.328696850641276 1.663623180584775
7
maple-route1-mmgb-reference-mlip-reweighting-v1 phase=solution replicate=repeat-1 sample=55
C -1.594039689819830 -0.863851131718093 1.466996148840386
N -1.702278949655761 -0.928962795987861 -0.081424331947942
O -2.280951045396062 -0.030030143350205 -0.741291084116549
O -1.500778765352471 -2.027731140304008 -0.600262507534351
H -1.809487040180186 -1.890194580440762 1.840614861533243
H -2.234794891743578 -0.069517985361925 1.875754387057476
H -0.609593164978732 -0.568119955218005 1.726697731866050
7
maple-route1-mmgb-reference-mlip-reweighting-v1 phase=solution replicate=repeat-1 sample=56
C -1.597837122130093 -0.894162399900636 1.389980451701388
N -1.776506720358229 -0.976693384039233 -0.083518817811106
O -2.212521516969059 0.054076685991693 -0.584548711062188
O -1.513399738738741 -2.048699657255312 -0.678221214939050
H -1.861287091290977 -1.842386222109915 1.830209137747565
H -2.095383418077576 0.007067574552384 1.782155223939172
H -0.505314890816884 -0.664054171269338 1.524624596956738
7
maple-route1-mmgb-reference-mlip-reweighting-v1 phase=solution replicate=repeat-1 sample=57
C -1.493531181496752 -1.011336931683585 1.419103513981643
N -1.908460381806922 -0.987103529766601 -0.079677859267190
O -2.154194286824370 0.102802024544911 -0.601346810711257
O -1.559470141591586 -1.969444332662811 -0.696571778883836
H -1.763507229056268 -2.004735640897592 1.805975762977249
H -1.931223383896716 -0.137891460583818 1.908796283717546
H -0.376527065385816 -0.855051679663074 1.559905793449120
7
maple-route1-mmgb-reference-mlip-reweighting-v1 phase=solution replicate=repeat-1 sample=58
C -1.445497942819963 -1.076294940415796 1.374617237935215
N -1.890879306197568 -0.974351137170461 -0.093742049067097
O -2.111606941362995 0.143712931915481 -0.476784007585501
O -1.654294369262161 -1.953807418207445 -0.764655203010779
H -1.789018602557880 -2.098154056197730 1.707862841890774
H -1.887144870707472 -0.185706465085149 1.877667964816816
H -0.379818922617055 -1.005800445965180 1.512792371737244
7
maple-route1-mmgb-reference-mlip-reweighting-v1 phase=solution replicate=repeat-1 sample=59
C -1.421315955539725 -1.168830292205235 1.390371134330337
N -1.773929557912916 -0.937138753668041 -0.125988054468664
O -2.108613980230444 0.188545133926039 -0.386720494760788
O -1.789455916460120 -1.938570043362688 -0.840462908264229
H -1.743396487042741 -2.176957805312448 1.677535059740944
H -1.778636076707470 -0.284942729536760 1.963468191771417
H -0.347829677035567 -1.200247419981279 1.495229244578945
7
maple-route1-mmgb-reference-mlip-reweighting-v1 phase=solution replicate=repeat-1 sample=60
C -1.372898227228220 -1.292016931109755 1.350285988314052
N -1.698799918711040 -0.903229056988065 -0.149543289828424
O -2.098419899845640 0.212961712190764 -0.340914758827829
O -1.915999770294314 -1.869104861035231 -0.820811023212453
H -1.678977372786960 -2.294014731138271 1.554256428298683
H -1.719387695825793 -0.466872632062194 1.978062971691721
H -0.247059988001071 -1.392366052891887 1.375969708721584
7
maple-route1-mmgb-reference-mlip-reweighting-v1 phase=solution replicate=repeat-1 sample=61
C -1.283624440206885 -1.312481827532718 1.287281319280652
N -1.742308571767686 -0.933920307946965 -0.125502978779768
O -2.025634561563391 0.247385635798705 -0.214385452857987
O -2.024552728426135 -1.853980251402659 -0.906897192646646
H -1.700286380400558 -2.299680763486689 1.517125391389978
H -1.664443785559639 -0.481058293587790 1.885459021346013
H -0.179502720673361 -1.483287236535296 1.287160378742618
7
maple-route1-mmgb-reference-mlip-reweighting-v1 phase=solution replicate=repeat-1 sample=62
C -1.161354507321825 -1.431961043711464 1.257831895948240
N -1.846058289784620 -0.929125272757557 -0.060466955010919
O -1.983551652354370 0.270054763462862 -0.247069772585154
O -2.084669176940595 -1.759264438803251 -0.899917529947767
H -1.644697007867375 -2.434161237363827 1.423501750195086
H -1.500687478137215 -0.687307778007744 2.012691622207466
H -0.133170986402724 -1.643194568941207 1.111036081929001
7
maple-route1-mmgb-reference-mlip-reweighting-v1 phase=solution replicate=repeat-1 sample=63
C -1.118909205747865 -1.466651783102362 1.131152878292805
N -1.938570056701934 -0.934214032721437 -0.004684105141126
O -1.871151771091790 0.316086414054091 -0.157840087226405
O -2.171260463976838 -1.774994677498146 -0.906548487540203
H -1.478624301731661 -2.464420701548453 1.380935827431007
H -1.254271148077180 -0.731372912374734 1.947247306820225
H -0.175750483761863 -1.565835204988375 0.639958105451738
7
maple-route1-mmgb-reference-mlip-reweighting-v1 phase=solution replicate=repeat-1 sample=64
C -1.013663321041748 -1.530150797018429 1.124556975206890
N -1.903499153685548 -0.952184245995788 0.006795468517138
O -1.844574622210308 0.258986328012601 -0.148670636220102
O -2.331579067995006 -1.642540831194602 -0.916301824708025
H -1.375815547851176 -2.494839018885566 1.413797812151625
H -1.099952135608835 -0.825860983450346 1.936383502089163
H -0.062359744638241 -1.628334500933170 0.542939684563254
7
maple-route1-mmgb-reference-mlip-reweighting-v1 phase=solution replicate=repeat-1 sample=65
C -0.994550477912752 -1.610281332822659 0.994514561806181
N -1.785893078889823 -0.928992904415331 -0.061366575482153
O -1.832810214115796 0.366844665741203 -0.078483859809928
O -2.450111599241077 -1.682501123997702 -0.814770364307095
H -1.542733473877849 -2.552017273079633 1.179465860972225
H -1.185574582704546 -1.033744257941951 1.900286993977045
H 0.024931488934626 -1.790467361922005 0.583365076275438
7
maple-route1-mmgb-reference-mlip-reweighting-v1 phase=solution replicate=repeat-1 sample=66
C -0.941517632753838 -1.640910607012606 0.943136501629998
N -1.720661237257777 -0.947146889768086 -0.136595864717751
O -1.791831183806166 0.272281834776258 -0.026614810822448
O -2.598124642059370 -1.542092129898163 -0.762836127705230
H -1.470430334016450 -2.618781398273113 1.177905778726044
H -1.149964113941500 -1.098326454113864 1.908114691555451
H 0.077126521359373 -1.762823770307635 0.584174729081782
7
maple-route1-mmgb-reference-mlip-reweighting-v1 phase=solution replicate=repeat-1 sample=67
C -0.935863409018699 -1.739005292618129 0.847445623329098
N -1.761232895954238 -0.935696126093519 -0.119323126743992
O -1.667936928948752 0.332144500095161 0.007643360243918
O -2.705841736457344 -1.517652127552869 -0.709818257278777
H -1.357891515692424 -2.742743747258592 0.975059012077655
H -0.980257123562811 -1.350744896527579 1.888111562802403
H 0.038502325483114 -1.719438096891232 0.321011685733918
7
maple-route1-mmgb-reference-mlip-reweighting-v1 phase=solution replicate=repeat-1 sample=68
C -0.886152017874185 -1.855342325688983 0.702884300890217
N -1.871109144902737 -0.910034414839433 0.022722571008544
O -1.567703340269318 0.294779538860120 -0.051764385229109
O -2.764054811759537 -1.390884640527780 -0.624934020258001
H -1.245182756744601 -2.847474379280875 0.611625097692562
H -0.865101613715648 -1.701458353305601 1.764227794885167
H 0.078435601919843 -1.654435821734172 0.162784947197765
7
maple-route1-mmgb-reference-mlip-reweighting-v1 phase=solution replicate=repeat-1 sample=69
C -0.848116417710039 -1.902235270986441 0.516258629115013
N -1.929708360237887 -0.887598542380980 0.100752804465102
O -1.415274434004154 0.248340717862737 -0.037032254502266
O -2.896309016175289 -1.318890179442094 -0.533169107978576
H -1.245053125992333 -2.885444994828851 0.298588492833273
H -0.855734488368441 -1.849671732825412 1.581370706941948
H 0.109990759052624 -1.634302231249678 0.095293449544976
7
maple-route1-mmgb-reference-mlip-reweighting-v1 phase=solution replicate=repeat-1 sample=70
C -0.878085368545016 -2.040312992917871 0.343744981384782
N -1.863716221150645 -0.885873671068674 0.027030674788619
O -1.396353518976292 0.260380308035869 -0.016815682190540
O -2.944159362871990 -1.195530644417909 -0.320570947407289
H -1.407338111075922 -2.944419847519674 0.004648377944619
H -0.767502699213584 -2.136359432046566 1.452610513320020
H 0.087803801088498 -1.807226975278236 -0.091503985640771
7
maple-route1-mmgb-reference-mlip-reweighting-v1 phase=solution replicate=repeat-1 sample=71
C -0.902343482707971 -2.106084087153462 0.165231773555703
N -1.857044779419037 -0.888197349615582 -0.096201520934461
O -1.285513605615399 0.226180540802702 0.063430476436581
O -3.050268648518068 -1.098512485336457 -0.110343492963607
H -1.460635413995385 -2.983912119634905 -0.200167470624230
H -0.556584149140347 -2.273874808708378 1.223091886551969
H 0.036254403195329 -1.815206723876982 -0.420131834422568
7
maple-route1-mmgb-reference-mlip-reweighting-v1 phase=solution replicate=repeat-1 sample=72
C -1.013919442771377 -2.134604103145019 -0.092158738200152
N -1.862555538689835 -0.865549770361632 -0.139853080528590
O -1.212753860859660 0.137044306328814 0.142092143430968
O -3.008399260825905 -0.998872029849610 0.090303985514302
H -1.692052968105266 -2.964556093170829 -0.410153238232115
H -0.633620492474491 -2.304830832675720 0.941567611561284
H -0.065489688050317 -1.949599392778391 -0.688042910819295
7
maple-route1-mmgb-reference-mlip-reweighting-v1 phase=solution replicate=repeat-1 sample=73
C -1.111779098087315 -2.201570358810309 -0.374510786108056
N -1.856362504183288 -0.858879860079788 -0.036164451775061
O -1.096032536806393 0.135057724402284 0.147121273178783
O -3.026535772585911 -0.933358546665630 0.259754078098637
H -1.939030776367792 -2.918082298543673 -0.600334611220344
H -0.666807424261893 -2.485612045528870 0.594959659082887
H -0.267925159327182 -2.125505982785323 -1.011204761746959
7
maple-route1-mmgb-reference-mlip-reweighting-v1 phase=solution replicate=repeat-1 sample=74
C -1.288716754445535 -2.151829315442856 -0.591682618484387
N -1.807624043740508 -0.917575624645138 0.115476011679784
O -1.025905334660941 0.047217296602691 0.111679287779841
O -2.970086611599855 -0.849964625586393 0.400743396288290
H -2.179627213628166 -2.689109805560385 -0.893052413395128
H -0.635617061569722 -2.711936784541472 0.048370793093381
H -0.641506253335339 -1.843527083181233 -1.371013233877227
7
maple-route1-mmgb-reference-mlip-reweighting-v1 phase=solution replicate=repeat-1 sample=75
C -1.522201330746722 -2.117930961351299 -0.800559267519769
N -1.746093079624405 -0.973429062286717 0.181554961996010
O -0.923323876753078 -0.005306077269936 0.112611242129007
O -2.892924084309864 -0.791564904969730 0.567299477680098
H -2.505552319520830 -2.427961168887279 -1.105605866655579
H -0.848320715059795 -2.899240887483951 -0.506520945126909
H -1.034137730057096 -1.641336598741543 -1.693069699170436
7
maple-route1-mmgb-reference-mlip-reweighting-v1 phase=solution replicate=repeat-1 sample=76
C -1.763475887434312 -1.962364551900086 -0.977849812307025
N -1.766823056438105 -0.944614801290841 0.079332820443992
O -0.776122335614210 -0.163042315872499 0.148155533928359
O -2.788344944831491 -0.797065774070717 0.784539051600772
H -2.828423828786402 -2.286024414712993 -1.194702391923092
H -1.084499593030934 -2.785898268241930 -0.664808970267775
H -1.311049421719130 -1.554272675708611 -1.920233531311462
7
maple-route1-mmgb-reference-mlip-reweighting-v1 phase=solution replicate=repeat-1 sample=77
C -1.981918811487809 -1.812485000021372 -1.138985030137791
N -1.813466002823458 -0.822984517698559 0.001165748412680
O -0.665646431963461 -0.364903473830599 0.190433833503654
O -2.643806260577960 -0.828988416766039 0.949907140739499
H -3.057912573514058 -2.204925886777368 -1.182876415431108
H -1.306230015349465 -2.662458328721085 -0.766840635022758
H -1.640751995269054 -1.520120338494956 -2.120864262298338
7
maple-route1-mmgb-reference-mlip-reweighting-v1 phase=solution replicate=repeat-1 sample=78
C -2.185106844143689 -1.625073242809632 -1.114467582011983
N -1.782562731968089 -0.808805841160874 0.019377846339777
O -0.577218779562579 -0.531891690239164 0.131368097729665
O -2.553081139284708 -0.874916231262457 0.987833230808101
H -3.254615142229409 -1.825927996298600 -1.091478529722522
H -1.591105342597915 -2.565819892481149 -1.143590593602485
H -2.005996098654829 -1.041258418313006 -2.036373429950011
7
maple-route1-mmgb-reference-mlip-reweighting-v1 phase=solution replicate=repeat-1 sample=79
C -2.354117164550671 -1.463783598041550 -1.230253443961536
N -1.737886647229657 -0.927146997992387 0.077077095706591
O -0.535306504835385 -0.655564920141837 0.071982364401283
O -2.464805459892791 -0.831546124221670 1.111697839705799
H -3.391858814103860 -1.496085861737536 -1.178603878977820
H -1.952311696630055 -2.354693738284391 -1.629055858560688
H -2.188524633548951 -0.590390312128809 -1.911325529648848
7
maple-route1-mmgb-reference-mlip-reweighting-v1 phase=solution replicate=repeat-1 sample=80
C -2.485065903635638 -1.188849531121137 -1.180910489904278
N -1.697548721869178 -1.070924475203999 0.099825880551698
O -0.515456599074583 -0.786364398208346 0.009931808009233
O -2.389504073848453 -0.828463838499207 1.099187580147363
H -3.551041019108857 -1.272022892620665 -1.012570585719569
H -2.152770538838765 -2.088350669275412 -1.636811484715773
H -2.337316530815779 -0.326954495519393 -1.780763131124746
7
maple-route1-mmgb-reference-mlip-reweighting-v1 phase=solution replicate=repeat-1 sample=81
C -2.587575962020832 -0.958501778109047 -1.161377341573035
N -1.702877385010564 -1.094531944461713 0.088888460284605
O -0.495743581893789 -0.963624630253478 -0.068312056337954
O -2.304313157214943 -0.844609540668579 1.161897638898794
H -3.653498097755794 -1.170552913242495 -0.920837186075639
H -2.231136408975701 -1.855401328873148 -1.695899965993120
H -2.534057370320880 -0.013898622329626 -1.644573174202912
7
maple-route1-mmgb-reference-mlip-reweighting-v1 phase=solution replicate=repeat-1 sample=82
C -2.640332114896452 -0.810387572969557 -1.126709435977685
N -1.700174968987891 -0.957070805147923 0.081211940225347
O -0.547468441755142 -1.178213512844440 -0.157811885257484
O -2.206089799016539 -0.911245263180541 1.227227907698315
H -3.694039474902747 -1.021301517798614 -0.872267619003256
H -2.265675796104438 -1.537672194928316 -1.918698126795707
H -2.609725857750877 0.302348715898855 -1.398869216920530
7
maple-route1-mmgb-reference-mlip-reweighting-v1 phase=solution replicate=repeat-1 sample=83
C -2.694805335420707 -0.649384891441808 -1.023899169592163
N -1.637382483938588 -0.864773857546458 0.077490959371835
O -0.595240336243653 -1.377597918141594 -0.251806517998968
O -2.157225137331612 -0.955654753683822 1.213086957823736
H -3.713605633271515 -0.889509949903429 -0.641383631733676
H -2.413747599943616 -1.207834602024356 -1.957645049427471
H -2.682230020080004 0.512079173249590 -1.042645172573469
7
maple-route1-mmgb-reference-mlip-reweighting-v1 phase=solution replicate=repeat-1 sample=84
C -2.686264253038061 -0.439320651741345 -0.963361713873036
N -1.661754701830071 -0.922543964531304 0.076491781264416
O -0.706006154324740 -1.520416808970567 -0.353171639913020
O -2.034885167240077 -0.948997238923315 1.261820994264413
H -3.699983413136845 -0.876168129725091 -0.678473339869362
H -2.315867765300149 -0.888994425853550 -1.894858284734659
H -2.730108015455660 0.641531384006907 -0.938738090971517
7
maple-route1-mmgb-reference-mlip-reweighting-v1 phase=solution replicate=repeat-1 sample=85
C -2.673092453292862 -0.218560599107825 -0.833442943611120
N -1.730954969513200 -1.047005233525497 0.054807655266804
O -0.776461469692472 -1.645093142813530 -0.459239377740747
O -1.927709602637753 -0.931350683672563 1.265132973367181
H -3.641702110029327 -0.708860050842790 -0.742184172504060
H -2.217389430340722 -0.428485413129408 -1.786409246724168
H -2.664994204413918 0.809207801107702 -0.598825307482873
7
maple-route1-mmgb-reference-mlip-reweighting-v1 phase=solution replicate=repeat-1 sample=86
C -2.607765574091219 -0.063846222893000 -0.755283803521539
N -1.791943584032887 -1.115666531762230 0.041652968735913
O -0.920147412113391 -1.727404733624280 -0.558299099057900
O -1.802665751825217 -0.960069105772398 1.283049537698445
H -3.583798329240388 -0.443957949917295 -0.788284179510532
H -2.094630387965485 0.133937856173572 -1.674888290681756
H -2.484775843437835 0.859301459053112 -0.123588021148434
7
maple-route1-mmgb-reference-mlip-reweighting-v1 phase=solution replicate=repeat-1 sample=87
C -2.502952336398259 0.049664993755316 -0.678038632548829
N -1.760519691216237 -1.059604733317304 0.042474609404770
O -1.137202538016735 -1.790022649320754 -0.657782561325040
O -1.712013705644763 -1.055207723213284 1.303941155907049
H -3.513121369434136 -0.370911875565640 -0.840093613632094
H -1.900077081950295 0.433304084718510 -1.527782622504900
H -2.430870623728868 0.859499871257862 0.091766495294701
7
maple-route1-mmgb-reference-mlip-reweighting-v1 phase=solution replicate=repeat-1 sample=88
C -2.489526731766083 0.214076692826491 -0.495667571091503
N -1.624431772420643 -0.995239541930767 0.029430828157061
O -1.313481007465201 -1.925441786103194 -0.761881779522782
O -1.662521105135267 -1.124445052510104 1.257878060548896
H -3.451481392245355 -0.343505112635457 -0.824579418493577
H -1.842854885704716 0.687070953149365 -1.314539624355431
H -2.589454674851255 0.968708028814867 0.264423407187290
7
maple-route1-mmgb-reference-mlip-reweighting-v1 phase=solution replicate=repeat-1 sample=89
C -2.408422498604510 0.217973848028835 -0.380765862739232
N -1.625925985209231 -0.993128309807953 0.034411769699644
O -1.523277057036381 -1.849398698265603 -0.838871156757852
O -1.532882866784052 -1.206322409157507 1.221524212332018
H -3.266547957853125 -0.269130852679701 -0.865542800564415
H -1.681437416303152 0.671426085874211 -1.069565361323927
H -2.596699029519695 0.921922696717127 0.428323933441542
7
maple-route1-mmgb-reference-mlip-reweighting-v1 phase=solution replicate=repeat-1 sample=90
C -2.358010438407208 0.353015659083199 -0.305924606102939
N -1.717649337731923 -1.047678638409501 0.021782239930226
O -1.651021043197829 -1.874857089811488 -0.908315946632135
O -1.371617673861887 -1.274799748174883 1.208993583544173
H -3.268626554469883 0.171190688317180 -0.768400045027471
H -1.664265550168965 0.943593576097988 -0.839308127902057
H -2.468180106202742 0.841701687515381 0.686851553090465
7
maple-route1-mmgb-reference-mlip-reweighting-v1 phase=solution replicate=repeat-1 sample=91
C -2.229587641167079 0.344769253811373 -0.185895309223611
N -1.804798501020144 -1.075333617521034 0.031881754579774
O -1.803282691495437 -1.826653941413122 -0.922123007204050
O -1.267156545716341 -1.294545185221054 1.100075681661127
H -3.148479906541493 0.372592777733926 -0.729279815376079
H -1.456331538117075 0.918501326802164 -0.618896828691163
H -2.353799428767798 0.695650237753591 0.810566194741749
7
maple-route1-mmgb-reference-mlip-reweighting-v1 phase=solution replicate=repeat-1 sample=92
C -2.145813408108671 0.402606159204419 -0.138287985133841
N -1.852727159333057 -1.093487058442000 0.098327548592013
O -1.998998672162180 -1.768642202416651 -0.948020630946108
O -1.113558220648448 -1.398373824227776 1.045257849878914
H -2.950609527635843 0.500709556170681 -0.936390517468875
H -1.237299664503989 0.869287240215174 -0.552815322125844
H -2.432215432521632 0.899224122328067 0.731666699820166
7
maple-route1-mmgb-reference-mlip-reweighting-v1 phase=solution replicate=repeat-1 sample=93
C -2.035069270866430 0.419890805291206 -0.045500414954879
N -1.798018414633708 -1.056186000633872 0.047887130043232
O -2.200711424551522 -1.794592350663979 -0.863306808282467
O -1.073770413856092 -1.427364602906367 0.906453792537398
H -2.661528812474684 0.670395133680593 -0.932993949692796
H -1.020258524404764 0.874540960836998 -0.270656868856843
H -2.453670032009561 0.883341674517594 0.900362160739843
7
maple-route1-mmgb-reference-mlip-reweighting-v1 phase=solution replicate=repeat-1 sample=94
C -1.932532411553521 0.433671533312233 -0.034995629547807
N -1.704008445137806 -1.056331357202916 -0.022211175016011
O -2.453675733676044 -1.721300519386458 -0.814403288287437
O -0.992132325289635 -1.512050914844673 0.888269648928367
H -2.464169124617528 0.816751886573593 -0.897503558538987
H -0.959787298754372 0.972138768348471 0.022681988246897
H -2.528576780403475 0.652134731337307 0.946215746036804
7
maple-route1-mmgb-reference-mlip-reweighting-v1 phase=solution replicate=repeat-1 sample=95
C -1.834254831355160 0.459365870457679 -0.007024072319765
N -1.666391030840704 -1.057048950628387 -0.075288568295224
O -2.591634878682935 -1.631279059099287 -0.630190494348946
O -0.979505998537707 -1.623583816747197 0.727860628327712
H -2.199470831226194 0.934582562322814 -0.949552018597621
H -0.901946740673647 0.951029525923363 0.268175787308068
H -2.551319787818936 0.596748629565915 0.779324681831204
7
maple-route1-mmgb-reference-mlip-reweighting-v1 phase=solution replicate=repeat-1 sample=96
C -1.692445106818891 0.422437477692475 0.066361837115690
N -1.736815019443352 -1.066878806430666 -0.057496867340941
O -2.808060216366110 -1.572729489319436 -0.553301406185120
O -0.854788992317174 -1.633107891520675 0.574218854265797
H -1.689911826279362 0.848871420871776 -0.944826328338723
H -0.738477437408243 0.691395118157746 0.493183187314367
H -2.468927985590991 0.738222862546910 0.645113393468457
7
maple-route1-mmgb-reference-mlip-reweighting-v1 phase=solution replicate=repeat-1 sample=97
C -1.619564363219096 0.498592906706916 0.067244680810386
N -1.785428712576394 -1.071399213739569 0.078782861908301
O -2.839097108687996 -1.461611113139994 -0.405492623951564
O -0.852448174506411 -1.813999646183883 0.310639313227676
H -1.340959248262200 0.718132457987131 -0.911893365695681
H -0.781993417667177 0.754245484967528 0.677808529475642
H -2.511062775906206 1.063938364477390 0.364368126330667
7
maple-route1-mmgb-reference-mlip-reweighting-v1 phase=solution replicate=repeat-1 sample=98
C -1.472145484228994 0.367176003210030 0.093560906674028
N -1.806766109666327 -1.079076512699818 0.128047125495383
O -2.955204528128881 -1.334728169466004 -0.312531631945148
O -0.854351494165333 -1.807355544538485 0.139714250282935
H -0.958109603189006 0.584412992870661 -0.820805929672100
H -0.826031025859382 0.553872572589369 0.961111536518063
H -2.439370664309877 0.954567888036349 0.221885950210033
7
maple-route1-mmgb-reference-mlip-reweighting-v1 phase=solution replicate=repeat-1 sample=99
C -1.322808575979356 0.415378794446101 0.182128141422660
N -1.797869065742885 -1.073760394756733 0.070218489343859
O -3.023735512139141 -1.274329434033100 -0.201250825039821
O -0.942004897895686 -1.919522933709418 -0.011250179983604
H -0.530817987666149 0.694721726306275 -0.615012931060187
H -0.890525117545727 0.533933818374659 1.208575329798192
H -2.225233576141154 1.036302809936729 0.140587821384920
