23
maple-route1-mmgb-reference-mlip-reweighting-v1 phase=solution replicate=repeat-1 sample=0
C 0.450293043777669 0.905796309591048 0.171549193493478
C 0.197112607451760 0.717666857423584 1.686667533536008
C 1.013224124204336 1.608180621250604 2.659296333302183
C 0.863446425672690 1.227601226901799 4.140734014711914
C 1.770794825173861 1.990261839465310 5.098148155794943
C 1.680228654928776 1.388329693885748 6.487930085666525
O 1.007581026586330 1.905473200376677 7.420229525311328
O 2.050440245252654 0.051084705247498 6.461581268283619
C 1.867916394326626 -0.702682925169522 7.651349886191170
H 0.139986697897662 0.100306917018256 -0.504984627804809
H -0.083046686533098 1.726866368193318 -0.270689658943341
H 1.472692448117883 1.175767383860404 0.049615009127869
H 0.387530469437234 -0.364257753195124 1.965792159905853
H -0.904443218536794 0.727657554010753 1.792333200967945
H 2.071289467137510 1.606458688229266 2.363481740321195
H 0.616521507155052 2.644448028635791 2.575545763776693
H -0.188325573276485 1.368328980962020 4.344887536830751
H 0.931431771272000 0.157649672187461 4.315628142690773
H 2.840147776419754 1.967019164652967 4.755406091274405
H 1.508313867905068 3.039953477417643 5.178967996815450
H 1.817599458220545 -1.785566229334503 7.504433928568429
H 0.898454846680315 -0.441098263609962 8.102615573878712
H 2.584158976235053 -0.483727507864291 8.444340342754131
23
maple-route1-mmgb-reference-mlip-reweighting-v1 phase=solution replicate=repeat-1 sample=1
C 0.540128075345095 0.783611122304141 0.221301817479010
C 0.245550972264313 0.772084452962691 1.723606591229205
C 1.077521003401528 1.673555516528517 2.602008009406473
C 0.813907453071065 1.309647784494276 4.079688330898085
C 1.725192257332163 1.959935954930803 5.072888213255636
C 1.569544231282817 1.402467927862197 6.516458877477404
O 1.040370339509209 1.955609636025399 7.440421148631580
O 1.999467109957762 0.097956419014434 6.526562000997357
C 1.862730269796279 -0.824431433080783 7.598994122833334
H 0.011721134203421 0.011895649640196 -0.305520510211598
H 0.025932306802029 1.632113687791718 -0.193044292874037
H 1.594012007857307 0.940514487618851 -0.078993736602975
H 0.368090831670206 -0.237731766859160 2.066705659873755
H -0.865406934670150 0.877972879454490 1.812964177283464
H 2.104225081276203 1.459252172056225 2.355956518292014
H 0.834779085432649 2.732331790029484 2.475778709397481
H -0.261411581088462 1.330746971514469 4.257020106423720
H 0.991524902330887 0.225096854330250 4.187790390193467
H 2.742782424652606 1.762103939940109 4.748142119135585
H 1.569361697120064 3.055199376905521 5.184662573126442
H 2.124291911147282 -1.822237068198522 7.290916474083630
H 0.837689361486580 -0.844360459333374 7.961683287851605
H 2.419073952504118 -0.533653322197337 8.470497249239331
23
maple-route1-mmgb-reference-mlip-reweighting-v1 phase=solution replicate=repeat-1 sample=2
C 0.619229681912818 0.765448875527529 0.228162470825328
C 0.224216890475320 0.719274923543823 1.701678831821867
C 1.106361625482776 1.645443185482014 2.569671242177191
C 0.776477273311171 1.380401725490392 4.094421522839032
C 1.739554581064912 2.027439012191456 5.110262016264135
C 1.588090667299830 1.397903379019595 6.511431786584007
O 1.000387096183724 1.915908110357013 7.452116070504068
O 2.024163734092119 0.060823014626385 6.472277185113509
C 1.798037845811084 -0.796960393253761 7.635799153549168
H -0.033664335943049 0.037034786763566 -0.276208846707324
H 0.440399906185263 1.734638670281210 -0.281856842967108
H 1.716914521000096 0.597472689003717 0.107016520809393
H 0.320038270051468 -0.298678483925469 2.007252949737804
H -0.825021617444133 0.931496118842948 1.789991658265203
H 2.149753877218978 1.442196637177658 2.320729816343309
H 0.849130651031912 2.677475251037396 2.398461127983524
H -0.264409370184382 1.717078712770630 4.249217668070737
H 0.633410935516533 0.311098632377006 4.321217555393583
H 2.720210123032050 1.763467553984272 4.778743392739299
H 1.609296077775493 3.110455773591247 5.226804549676506
H 2.398451987316138 -1.702435225965620 7.553308696085766
H 0.762944093824246 -1.044794020326298 7.764186885413916
H 2.055952911773281 -0.199089745536739 8.518398425971762
23
maple-route1-mmgb-reference-mlip-reweighting-v1 phase=solution replicate=repeat-1 sample=3
C 0.690964159171980 0.778280767012184 0.162160257737665
C 0.221230278335082 0.668689450857715 1.675430906682294
C 1.097381787070403 1.592322551942285 2.659100857670009
C 0.688812328291364 1.512834863583777 4.138422635898491
C 1.774758266808940 2.043638671854668 5.120914261176318
C 1.624708679618930 1.350514890339716 6.462475086455060
O 0.920420823341555 1.783055977935456 7.401669988668197
O 2.079040852014869 0.071860533259988 6.482401829593888
C 1.758470533715847 -0.684487874085912 7.672366646980638
H -0.076181536575828 0.270475775161971 -0.508183731038591
H 0.936877160559631 1.796645051482236 -0.264842688777372
H 1.685764231184044 0.325110383625973 0.163854513834074
H 0.174109404873353 -0.416540205833225 1.930556230583421
H -0.781543606124600 1.045358076806939 1.741434221670250
H 2.110757655310749 1.177405048034746 2.577964520385617
H 1.111248159087014 2.643390164167596 2.330051331875461
H -0.289660417477819 1.973109475058397 4.340983669524360
H 0.494477363255702 0.464113101884532 4.431037301407688
H 2.763283342936034 1.742230666913132 4.733609106976059
H 1.631326192072966 3.096112480109867 5.272768682318246
H 2.521443125666474 -1.480721956713527 7.713981813336709
H 0.739926553298558 -1.095589506845996 7.652737593321072
H 1.848219119056872 0.000853699313199 8.539149296198833
23
maple-route1-mmgb-reference-mlip-reweighting-v1 phase=solution replicate=repeat-1 sample=4
C 0.763373861433895 0.748032310091285 0.241827663120831
C 0.231284067240778 0.764299081511247 1.672884697373402
C 1.098210126357832 1.492385492410689 2.645029100549534
C 0.619475586900633 1.563479000029993 4.066644614335556
C 1.748731434104352 1.959221533117519 5.096793275325080
C 1.571720360721887 1.356137537392814 6.466177184455695
O 0.799727802244668 1.851341102057218 7.297950325007926
O 2.176243938215446 0.094642911896064 6.595890664225532
C 1.839859844758921 -0.735944348978171 7.696686744450114
H -0.060614403540370 0.521348575198824 -0.478784372285005
H 1.182279574968787 1.737114010926448 0.002061069574511
H 1.670247542313419 0.145281184927331 0.201446028375886
H 0.052646165933055 -0.325674525755528 1.890552100350987
H -0.731394595594542 1.350771142307425 1.702156426665411
H 2.045795043205128 0.930286348291407 2.564734067238876
H 1.243159772520271 2.526607899422370 2.243124801908921
H -0.196613419537941 2.274720321332629 4.201590070945477
H 0.201206352288038 0.605453077838943 4.413349553614580
H 2.709302515306943 1.525952849907358 4.714010937042079
H 1.720521787239561 3.054982741222873 5.209555814622009
H 2.418286080696918 -1.657360182785419 7.568846877736770
H 0.744952263375901 -1.006689275606020 7.710158379443515
H 2.052667394793732 -0.221858124199348 8.649232248087520
23
maple-route1-mmgb-reference-mlip-reweighting-v1 phase=solution replicate=repeat-1 sample=5
C 0.806035943159412 0.656973765857510 0.254568656822328
C 0.146043472515736 0.903097625439958 1.644446552205426
C 1.203751464238701 1.428322543611133 2.622719218438432
C 0.650647768279829 1.568053648572339 4.039410196272652
C 1.764781656193657 1.880330986162679 5.058956316391226
C 1.423050698767482 1.344150625089945 6.446634426042070
O 0.697130656657200 1.838667254904515 7.278017638554280
O 2.219365356197509 0.194835913279229 6.674429906091675
C 1.899363546192409 -0.712723502411396 7.740980119158190
H 0.062989526928767 0.451795790338965 -0.497942490460676
H 1.263111715349795 1.588291156579982 0.042058494368982
H 1.699947610690350 0.026515678113730 0.266919406322103
H -0.118645302480226 -0.131221211106614 1.871015610036867
H -0.790376084395516 1.562143654204749 1.632973886921676
H 2.060894209128848 0.739852724945513 2.561720096552831
H 1.508658463245060 2.423403269790219 2.271348319898444
H -0.075162638006538 2.389506911352938 4.121252462158970
H 0.154638813054801 0.668123825263570 4.370351431653624
H 2.629485055674299 1.289980433670591 4.753142414386958
H 1.978347495989426 2.990426032410283 5.106160988020461
H 2.301549827541563 -1.697956235491458 7.469199149485309
H 0.810251466278525 -0.868136358312256 7.901156686136463
H 2.261342773776225 -0.413718279750600 8.726989345008532
23
maple-route1-mmgb-reference-mlip-reweighting-v1 phase=solution replicate=repeat-1 sample=6
C 0.786471284338299 0.589374165164580 0.191394362251355
C 0.152657665809127 1.029802219484036 1.567582157437174
C 1.264685010647060 1.376109981491606 2.620950721160285
C 0.679103488344957 1.583580320613091 4.054393360464421
C 1.805702609747571 1.871136213741460 5.108387458387749
C 1.419393721385495 1.291084498398327 6.443738407180376
O 0.634986814709236 1.767893979489327 7.243241916197984
O 2.170971546965627 0.163905267678573 6.670462166418063
C 1.922202533430583 -0.578847064798905 7.850543926923617
H -0.054171219306072 0.199753802942065 -0.361940700945652
H 1.226931029853589 1.427328928139687 -0.317196744297339
H 1.634746068924036 -0.094932416664845 0.265998651960375
H -0.496539465896334 0.214142595045476 1.813946205851694
H -0.467165674212856 1.895173636690120 1.379605922701913
H 2.001592407086044 0.577268698240172 2.681454597207985
H 1.798573712249703 2.277274337327763 2.287513751976327
H -0.115311159115520 2.351954174854943 4.100090922492375
H 0.210583261066997 0.640026695278521 4.311502707860536
H 2.784745209465820 1.469739158225878 4.843002316020980
H 1.842936278356321 2.954319503918994 5.282362790066998
H 2.376796530912551 -1.592650919019490 7.774449238299037
H 0.873774860603294 -0.717675200558080 8.005007077788495
H 2.254994430128416 -0.103897831705073 8.785978324681587
23
maple-route1-mmgb-reference-mlip-reweighting-v1 phase=solution replicate=repeat-1 sample=7
C 0.726169511865149 0.563083939311514 0.169104169265606
C 0.226293448373183 1.133157942322437 1.509869570420983
C 1.313809168215835 1.353055625211945 2.584921532431759
C 0.728017345405388 1.572171700557460 4.006173205420645
C 1.781152361739100 1.948855974413748 5.060780611636723
C 1.490224659168407 1.292881927187514 6.468319219349095
O 0.574916370892645 1.687011545622221 7.219273929411313
O 2.064233526155565 0.053186508799642 6.686865689441586
C 1.960233265409814 -0.489463041334470 8.026665824688898
H -0.176723130513370 0.048862437600534 -0.230609937484399
H 1.337716401189514 1.163688506967334 -0.550386999209792
H 1.414833467958179 -0.249726006449081 0.379369838565409
H -0.555731735068810 0.464893789401496 1.837642359927772
H -0.207366011897217 2.066102870832775 1.291695567760867
H 1.945792817835596 0.478189291494922 2.704385855150811
H 1.953297119949670 2.192117385014550 2.253457249753543
H -0.025328845469461 2.372291906549396 3.956305090412713
H 0.180085337569121 0.633588024094378 4.319965712187170
H 2.821713583901742 1.678774901129041 4.807531337391480
H 1.733759484491974 3.012701877912887 5.161290932578733
H 2.645101168686737 -1.338581416151588 8.173376218925243
H 0.929017265641322 -0.797436264496885 8.199139176897585
H 2.166547921036210 0.267701560449615 8.807193253561378
23
maple-route1-mmgb-reference-mlip-reweighting-v1 phase=solution replicate=repeat-1 sample=8
C 0.676579063796747 0.496553767830632 0.183372053717230
C 0.253036160919570 1.197529056188555 1.485755290566096
C 1.368532531287187 1.336494267573247 2.539347680756977
C 0.781815481786433 1.525570125507782 3.974336176758309
C 1.734805667801851 1.883567130412489 5.128701403608948
C 1.369509372677422 1.239452061321812 6.441053446944093
O 0.558287753511360 1.741323869051290 7.195989599403959
O 2.078209565087731 0.085865014827922 6.718111261236591
C 1.994803457561497 -0.416568225840592 8.062739405536700
H -0.158251336642745 0.219208809741663 -0.517691757536413
H 1.512324532913059 1.050198074188635 -0.305649108076961
H 1.282242333082682 -0.452383045927421 0.338830912076399
H -0.569465773352835 0.656503405593452 1.964266786511351
H -0.105197442298294 2.214757610191839 1.211004171659502
H 1.968969448710894 0.410647578656553 2.605409060996248
H 2.068485966470602 2.137953588622618 2.244090511170238
H 0.050080540152612 2.340006831590112 3.881001700756283
H 0.207487591401622 0.600602529442116 4.265623365183211
H 2.681143767790557 1.391463793332814 4.957196121437352
H 1.928752970170519 2.949739280342086 5.232547915792508
H 2.748595516802339 -1.189347014754055 8.190146582728165
H 0.934309873150399 -0.776766979385396 8.265498769941956
H 2.216867199668407 0.387071156527593 8.787491808741525
23
maple-route1-mmgb-reference-mlip-reweighting-v1 phase=solution replicate=repeat-1 sample=9
C 0.675002900570878 0.480691240994522 0.208025418413920
C 0.281377422290344 1.202650986018838 1.487996221207383
C 1.356803049694765 1.290195660717076 2.559703441923730
C 0.761196720562968 1.510791698958065 3.949879781866814
C 1.802013041556620 1.734736772795596 5.055572062231636
C 1.262912519509777 1.205109772902758 6.418436256005982
O 0.531541232313294 1.804161029634797 7.187306238556546
O 2.118534496456969 0.228863297074357 6.784264525827700
C 2.004884360256014 -0.417364114801964 8.068352883672071
H -0.038166001754858 0.596609912799081 -0.611148984937769
H 1.630476674566622 0.927697288255987 -0.024250498233138
H 0.968890523559615 -0.595156254467676 0.215134397223481
H -0.523257634822414 0.620158992189891 1.981356548732367
H -0.135767721057857 2.228525050300201 1.176804497726728
H 2.031091675165855 0.427348251205164 2.565555507655537
H 1.998295430607790 2.150013965218402 2.345245212404320
H 0.036854008760213 2.343366381645584 3.920270615105972
H 0.240735639351425 0.607575436014620 4.201979513639948
H 2.771575293262109 1.289848856324340 4.823899912103379
H 1.951325761408740 2.824960282768709 5.199927702557816
H 2.723812415871087 -1.239969183727409 8.083158346728611
H 0.960955997560162 -0.732282897514369 8.288046284996426
H 2.349695391413249 0.277935989139099 8.845036007832164
23
maple-route1-mmgb-reference-mlip-reweighting-v1 phase=solution replicate=repeat-1 sample=10
C 0.755653562337972 0.504431987318533 0.204170781570636
C 0.253513686152240 1.171301163570734 1.480535658008586
C 1.328438447382697 1.242199029841795 2.554514596358666
C 0.687598141697078 1.505683533978866 3.935619401605374
C 1.774736028164634 1.702709390338321 5.019408356517703
C 1.382472707551160 1.278439296726885 6.462592000025332
O 0.501322359361621 1.844605661194238 7.105519896529229
O 2.217793207207702 0.230436608072041 6.848565323800121
C 1.924519325606309 -0.417224519936361 8.121810157028493
H 0.050943804603709 0.747906238221204 -0.569962044436254
H 1.779277983735655 0.722959895026905 -0.074774355697780
H 0.678489823619832 -0.524854756705248 0.207021782797005
H -0.547303166261772 0.538226656888094 1.935196504451200
H -0.202244400577877 2.136612226384778 1.185728313571503
H 1.957091361746632 0.351242005494953 2.547663060057123
H 2.032238586404718 2.054196584439453 2.323912240627291
H 0.005713541697553 2.368933937127416 3.930067067988062
H 0.153950687086554 0.618602495016289 4.219469879193021
H 2.710852322226121 1.196710515514498 4.717825004947477
H 2.052549038511075 2.769415917013350 5.073372555980765
H 2.544649953380342 -1.320133846354760 8.268881951060209
H 0.901906162250577 -0.648481313990609 8.220177656458178
H 2.204101609531249 0.272224894650422 8.937601549415733
23
maple-route1-mmgb-reference-mlip-reweighting-v1 phase=solution replicate=repeat-1 sample=11
C 0.847200515896972 0.541126945221187 0.114968854061533
C 0.161091289275100 1.105303580367926 1.421011693666237
C 1.245559759114727 1.165862246706015 2.588979817983849
C 0.703560159204909 1.458371267183983 4.003067764236219
C 1.827517549124532 1.782862581933577 5.033490352364619
C 1.502636580732110 1.305328824024631 6.442993563495803
O 0.583174762223658 1.786601538748525 7.039230952184157
O 2.159163007655304 0.243107510102081 6.903944271148516
C 1.807189666458399 -0.312992699632570 8.193374986251085
H 0.167250419849699 0.616597402316506 -0.698801481354218
H 1.854975013112533 0.894258738709113 -0.133630946170659
H 0.882029126634561 -0.500210729841622 0.143486141279181
H -0.768102286722178 0.625218459275966 1.758979875151274
H -0.067352521248365 2.084091040431920 1.115505639313200
H 1.750282954347692 0.197194154742456 2.609419920862442
H 2.048745032600483 1.853270669366705 2.341194320867539
H 0.097232326835080 2.348239273459353 3.992033671723449
H 0.105674673593392 0.566110227861559 4.361438705016187
H 2.734785438425828 1.267928558028416 4.681907184420469
H 2.145065771248275 2.831418499848741 5.038018105799170
H 2.463083594265481 -1.151543173539302 8.453304956794906
H 0.800516971839038 -0.710989298310718 8.178661144030002
H 1.882562911981334 0.395687055986531 9.019605174546491
23
maple-route1-mmgb-reference-mlip-reweighting-v1 phase=solution replicate=repeat-1 sample=12
C 0.849681939818546 0.606373155389967 0.094426330288735
C 0.214464820072464 1.060024392257735 1.405566599515357
C 1.188620505300300 1.040128674407355 2.595867783955467
C 0.728264363000682 1.412831121695962 4.000703684926201
C 1.904634971193279 1.727080599170141 5.010262734196756
C 1.504167409909929 1.324491163216961 6.462178537792287
O 0.547406035889204 1.891867626515498 7.040369426912321
O 2.169314180019773 0.210173827156529 6.919641730109745
C 1.752226924609151 -0.209047700156716 8.203623565826828
H 0.145198823834276 0.405503385273118 -0.710873079552989
H 1.683380179518324 1.256653040914894 -0.170354326843824
H 1.262517454443109 -0.441474264001616 0.264107042286397
H -0.591365596638431 0.421876338668732 1.652480270420914
H -0.157231786278586 2.063486513909666 1.201610501739963
H 1.572906040366302 0.007262430496327 2.656080419540703
H 2.065006007246538 1.651693985401453 2.389435710698983
H 0.139912935864558 2.330365165110749 3.991124914926795
H 0.105836021134731 0.553202946428778 4.364623510846163
H 2.799047165278474 1.258385066111707 4.628480693267765
H 2.168873675799487 2.775168119274057 4.987221358954858
H 2.316908109853891 -1.044317004696824 8.615418719486575
H 0.705776221199940 -0.652003944275702 8.076405376338279
H 1.717998591662938 0.584437730450012 8.944781680518851
23
maple-route1-mmgb-reference-mlip-reweighting-v1 phase=solution replicate=repeat-1 sample=13
C 0.809877621282570 0.660794381879858 0.108168882679609
C 0.292384732493669 1.024868902732308 1.505758605371616
C 1.308918138754765 0.911366035091161 2.581896935371714
C 0.750904044908808 1.407625726780064 3.930822170393899
C 1.859982063125508 1.570118161784409 4.975838349066313
C 1.397610058642265 1.322875744120111 6.411572045155335
O 0.605065248739897 2.000935387535713 7.016747063893250
O 2.088833091203927 0.307834085637460 6.928117260943862
C 1.727084397251489 -0.200344376219303 8.266904508522328
H 0.042162627409969 0.369760820890166 -0.668737847396364
H 1.350509352791372 1.591217819880962 -0.137636929201309
H 1.558357234973330 -0.211835972383889 0.079898376840272
H -0.478794772341972 0.289743863435453 1.748926911907135
H -0.196960007959097 2.043066935043395 1.456231054409438
H 1.798996596853431 -0.078967800917420 2.608807164446675
H 2.105700640952797 1.656517749766812 2.363554220191165
H 0.185287210030981 2.364752545422554 3.914574693040935
H 0.094202374295107 0.615934066039779 4.222615614602709
H 2.655108037104996 0.954698304239248 4.633729318212695
H 2.277390409756401 2.567526932547603 4.927436901107614
H 2.269580375689709 -1.114389492604651 8.517424866060537
H 0.656545621054488 -0.562422931469321 8.288566659889266
H 1.910774085744537 0.553229889196116 9.074228889747184
23
maple-route1-mmgb-reference-mlip-reweighting-v1 phase=solution replicate=repeat-1 sample=14
C 0.781987277958155 0.744861856422169 0.064569342817380
C 0.275248760815344 0.961581378608918 1.517202365695132
C 1.439967670936588 0.924747955270708 2.544518479406635
C 0.833468626879329 1.355806781906429 3.908043668645411
C 1.887933158101014 1.494000514014753 5.009641748408379
C 1.318610434592118 1.285206252547696 6.429316504163660
O 0.650239899502309 2.135037511150925 6.964426781861795
O 1.983284021495577 0.236604149324119 6.972928423517319
C 1.680280459340498 -0.149866943265746 8.329553971537775
H -0.095717964315129 0.467629024118683 -0.588634306892203
H 1.195847429180617 1.752005382016660 -0.245921351372697
H 1.465881343101719 -0.066951795257047 -0.120795269534788
H -0.426216785414685 0.088090597722000 1.731110888566530
H -0.354035666175263 1.860369407038216 1.551767891862877
H 1.895517714275218 -0.075889389973936 2.617535946393721
H 2.269233519014250 1.615754038661074 2.308578953305640
H 0.313658274792261 2.331148808758147 3.850984643882795
H 0.070800493988315 0.608587162849421 4.111388480956535
H 2.648391780478752 0.766787398999858 4.730299260167573
H 2.381818418520402 2.474943785051789 4.896774789015411
H 2.250903081067801 -1.077618646221713 8.612716663649914
H 0.647921727770078 -0.406947886025716 8.439249894807359
H 2.063104034262688 0.676479006332157 8.988788238435093
23
maple-route1-mmgb-reference-mlip-reweighting-v1 phase=solution replicate=repeat-1 sample=15
C 0.772650267434778 0.816668211071842 -0.012983634520946
C 0.248883394881228 0.820117484850444 1.447561793149706
C 1.408911140087232 1.021727830130616 2.472012389989868
C 0.916999319671262 1.298139399786378 3.928522786106159
C 2.034020646477043 1.487764120635593 5.020675314166782
C 1.373272648938863 1.263355907160325 6.432115659606929
O 0.724638002520835 2.160032949863152 6.973253365712186
O 1.816837744475816 0.133006172347964 7.021621877646610
C 1.591235380339210 -0.028379963616666 8.443303915309828
H -0.112396390356141 0.663771174274106 -0.590889525733569
H 1.283761333184777 1.736699192489029 -0.338039454827829
H 1.302556841211924 -0.070651345085550 -0.226687807391874
H -0.403083042665799 -0.043457700714865 1.652536053946498
H -0.413070432225911 1.672444146104819 1.505562798476473
H 1.963425297544538 0.087357036376703 2.576621554882765
H 2.110429793675684 1.780871094329353 2.143321415315331
H 0.356968207269893 2.232448804020531 3.922862519549755
H 0.144248953716551 0.500905879562559 4.143851263136093
H 2.824809178228293 0.714543017203160 4.800345606279052
H 2.498095949401273 2.478571993965971 4.829257272784345
H 2.181707887607367 -0.872947698445288 8.854891254203753
H 0.545562870121168 -0.234352027730800 8.646224076697441
H 1.978882762903526 0.870167313891886 8.914099188988873
23
maple-route1-mmgb-reference-mlip-reweighting-v1 phase=solution replicate=repeat-1 sample=16
C 0.739564733555558 0.846400970185323 -0.065974921417448
C 0.279279155380286 0.762919731205407 1.419083800631463
C 1.401795826872730 1.099998624622345 2.431284206461479
C 0.918703312934592 1.215703825557244 3.922247269864022
C 2.009855594149843 1.372027308554160 5.006448682852197
C 1.516672848699095 1.273128586422368 6.455772667035599
O 0.845013442333406 2.160441364575271 6.969394973532019
O 1.729643786517173 0.127084045712368 7.058328912446568
C 1.472184466984150 0.108943358067224 8.504986385469127
H -0.032209892284359 0.761499756912596 -0.776317112706331
H 1.320935158575942 1.705388805912983 -0.318420443525119
H 1.299738609794095 -0.084396429678417 -0.138792235167603
H -0.148599367825351 -0.169549558300194 1.650008127123189
H -0.529405537056955 1.493033085154131 1.616806633128164
H 2.169650538122858 0.330011508780580 2.412509261592204
H 1.812046698142350 2.044718977816412 2.098253992345948
H 0.187639362126808 2.039293816510853 4.016641877200951
H 0.340178584867771 0.293208059346336 4.118967775607643
H 2.743311337873326 0.558117645980293 4.835605887744057
H 2.510390522766092 2.332504594182989 4.775291571979706
H 1.865175851088608 -0.736546562207573 9.018698436999843
H 0.366667437982904 0.093918669557510 8.713152268531003
H 1.927636115801965 0.948141030201861 8.964235663845962
23
maple-route1-mmgb-reference-mlip-reweighting-v1 phase=solution replicate=repeat-1 sample=17
C 0.712506524837673 0.800875968061925 -0.044134415680785
C 0.340498742450305 0.804723665969414 1.415906880004879
C 1.376991114122682 1.183368756046805 2.473975798699743
C 0.871258617291962 1.046136873322815 3.909537209584864
C 2.002116454739882 1.195495375931452 4.960044046932560
C 1.478057407520088 1.305500618590971 6.426728525762702
O 0.983973515764205 2.342220472196658 6.872819101603275
O 1.777703839694337 0.152956280210893 7.142090464952347
C 1.368677964820846 0.098211704527056 8.530154810520457
H -0.092728936008258 0.701795033029486 -0.810331789651942
H 1.062302546909039 1.827017442400665 -0.196888609210046
H 1.512585991161544 0.056608793187193 -0.224507323603641
H 0.034965001908223 -0.202517004475387 1.711082189696494
H -0.561540446632785 1.418152750915431 1.629163601437767
H 2.281506295129687 0.551745369114371 2.386322294655374
H 1.585756837101160 2.250031811340237 2.272021227248473
H 0.050447803785436 1.785975237672706 4.061913799619434
H 0.414742379785177 0.087931185859856 4.045561495332977
H 2.666978181002932 0.343201966509413 4.857199519693661
H 2.487942868415393 2.131999607437950 4.673956702885792
H 1.361581318811673 -0.878957230371518 9.006837654315250
H 0.317368515571090 0.412815819092953 8.618787523933502
H 1.989664672052805 0.729269022485799 9.180035867339667
23
maple-route1-mmgb-reference-mlip-reweighting-v1 phase=solution replicate=repeat-1 sample=18
C 0.772139424313867 0.851875137962637 -0.006952325450541
C 0.253648629697168 0.814941958203524 1.420809642508432
C 1.319993338342950 1.229502316188368 2.487288896219884
C 0.885609396789079 0.866325093894026 3.928823004674937
C 2.024245479043596 1.057566056324733 4.987000727451615
C 1.460537487743211 1.314150800205771 6.399174778654726
O 1.159279644911966 2.403764990366665 6.789271760135074
O 1.751153408677448 0.247360004923185 7.188369607721901
C 1.273724600036198 0.151825403299928 8.499402622104929
H -0.016635914983202 0.499775603839551 -0.741948041370706
H 0.736918668815448 1.964391947708703 -0.247050151372719
H 1.742154264129233 0.335285695054387 -0.202635021048516
H -0.038467164781287 -0.247076128911077 1.715522547094949
H -0.661881012003023 1.370830687610854 1.578004878194099
H 2.264950126915271 0.671736170248960 2.289782501084841
H 1.480608273838315 2.324534596635873 2.362037494023599
H 0.013555414863682 1.495498980071138 4.144150259182998
H 0.519054912702257 -0.153985299845748 4.026347809436606
H 2.583424412964775 0.114692009829885 5.008436272484315
H 2.607472858621259 1.930308126498885 4.663957715563843
H 1.175813503646441 -0.921365376388901 8.811533845755593
H 0.276482579295786 0.547108884960168 8.610106845602534
H 1.981018975693512 0.575482015069291 9.276364197891592
23
maple-route1-mmgb-reference-mlip-reweighting-v1 phase=solution replicate=repeat-1 sample=19
C 0.828295955446984 0.991937645875504 0.018745276001557
C 0.172479235606549 0.753843205323000 1.429327163842542
C 1.259519162701869 1.186051665956359 2.519420387653708
C 0.892847668095109 0.755696624590897 3.965363756887776
C 2.071294750844189 1.029682043427391 4.934493485398957
C 1.601685591171008 1.316327066004171 6.364753861285790
O 1.241521347446518 2.416431882783836 6.770403709719055
O 1.657136954868755 0.179697470383902 7.162268993154651
C 1.186408355766072 0.306180793171424 8.527998683689257
H 0.172021522020888 0.389610046800920 -0.633218362153786
H 0.761211398984206 2.012958987381397 -0.425488454931067
H 1.803717015155308 0.471395777414939 -0.012083000108993
H -0.128434816971521 -0.289457893168145 1.607970710722632
H -0.757808250017052 1.289566157434895 1.583912561354448
H 2.229127112950518 0.720133748250726 2.285992911445972
H 1.391270781216318 2.271979911689346 2.453708460843255
H -0.000871508654557 1.272754770968737 4.249511510697654
H 0.637342010252477 -0.319056661240613 4.091557684825872
H 2.630030115158502 0.064803437470871 4.991509699543299
H 2.642615890857715 1.901619333195775 4.552268055984851
H 1.208709925491280 -0.664792866473121 9.051239022811108
H 0.133237072568770 0.674289535901557 8.522862538710216
H 1.846617223574395 0.949545260300054 9.139691941969598
23
maple-route1-mmgb-reference-mlip-reweighting-v1 phase=solution replicate=repeat-1 sample=20
C 0.775773548974246 1.099092438399424 0.049731581219811
C 0.250186700159007 0.677371991739445 1.438522467741666
C 1.236773940624369 1.102745697317555 2.556610897884528
C 0.900852071085130 0.678926614670898 3.991384533268943
C 2.133734147098461 1.008559763883750 4.922625531543846
C 1.720095270634221 1.286638988976397 6.359659423055582
O 1.297510487297455 2.393994131280492 6.718009852645296
O 1.511871349302954 0.162970796325169 7.141865898125353
C 1.110747652113846 0.453431199331009 8.518668971726296
H 0.123731053989681 0.668221719465119 -0.690638568786989
H 0.757643766402795 2.138226410520720 -0.134833631959991
H 1.764912736632123 0.611389295830290 0.016612114273260
H 0.002957563548538 -0.327133845072841 1.486903256712877
H -0.662162919489288 1.242232542652755 1.654956474385245
H 2.215550703552678 0.665368485718633 2.352421654293023
H 1.332563861478662 2.177560093628753 2.563466300743562
H -0.012980909278017 1.213969274142262 4.316267816053116
H 0.656227276179079 -0.393526252700196 4.096452692365099
H 2.870907493630270 0.190289713416937 4.917498685297808
H 2.523457535269440 1.987705706076175 4.563869834713659
H 1.377765348743191 -0.399781028285901 9.138015492427513
H -0.010272948836650 0.676243877170704 8.529398118211557
H 1.658111131329743 1.293721020848614 8.881658438462418
23
maple-route1-mmgb-reference-mlip-reweighting-v1 phase=solution replicate=repeat-1 sample=21
C 0.663930764586420 1.175545088180269 0.071122387186141
C 0.328766456393056 0.623153036838264 1.468960312236184
C 1.314600782491014 1.009344438452619 2.532711306747431
C 0.984785300398898 0.664262388553170 3.989729131921746
C 2.146829329571267 0.915199876704818 4.983383920268648
C 1.612033481611266 1.313708496459664 6.317229889941175
O 1.356860652094668 2.465984122490296 6.648908222288206
O 1.477294440567110 0.235703031860584 7.168918754225075
C 1.027527168572160 0.456228129046487 8.495152493838699
H -0.101994343591894 1.182430764416678 -0.677599892886896
H 0.880453234016260 2.193183728851426 0.264405033210210
H 1.578489829897174 0.683890525280797 -0.177820240369208
H 0.294298856314426 -0.465854069528602 1.428671444591436
H -0.646395958150361 0.982861695454015 1.803057497523614
H 2.256085765461445 0.498252397085924 2.286662099173174
H 1.495841765134996 2.079003043267016 2.556821061037225
H 0.050180079469803 1.201202879659247 4.327647556192900
H 0.726918193251080 -0.387667264887083 4.102306650015568
H 2.726153992927657 -0.016382074337644 5.102815053820549
H 2.753046246257132 1.748967281026967 4.626751189505542
H 1.171012350363594 -0.482630656029834 9.040900435600513
H -0.006507766971334 0.762598908173139 8.457335500753777
H 1.637280231470516 1.255860633846991 8.961125363056199
23
maple-route1-mmgb-reference-mlip-reweighting-v1 phase=solution replicate=repeat-1 sample=22
C 0.544375680899230 1.221919378663190 0.100730813780968
C 0.378875667447904 0.599776356503433 1.509677638652677
C 1.491948403761237 0.915437007810441 2.472051692078292
C 1.051644406673589 0.606473801531060 3.922882978361230
C 2.095544260310652 0.839604404209516 4.988884801524493
C 1.557297820079214 1.372549886088615 6.300642491429716
O 1.377039551186356 2.540397614369487 6.615377018472572
O 1.495263069964800 0.307078906036462 7.221895876364570
C 0.950400701309360 0.444208667524768 8.530034992334931
H -0.429253752565218 1.309918148952408 -0.383347096185588
H 0.785008587039031 2.301961054288650 0.275108744436225
H 1.307265866930098 0.744512642972747 -0.484471292245371
H 0.424295034409033 -0.541051582004692 1.344208340698991
H -0.597008223808512 0.842507226684797 1.953395411979359
H 2.427715374638774 0.406059941754403 2.185070428720380
H 1.676509859219992 2.013479782763272 2.559129054088118
H 0.204713895231095 1.263356673456042 4.170248657359844
H 0.658774566822881 -0.405685784865144 4.046780518868266
H 2.521280536347737 -0.154684180030400 5.183358872067020
H 2.866610926170308 1.543031323307089 4.680591477124272
H 0.752846006293921 -0.557499663416608 8.923593882944928
H 0.071928187118785 1.036243308224427 8.519771185826658
H 1.644576698359002 0.988941831104381 9.221115491009771
23
maple-route1-mmgb-reference-mlip-reweighting-v1 phase=solution replicate=repeat-1 sample=23
C 0.482711777782544 1.282134921199111 0.101861040406088
C 0.376992918366143 0.561564900966703 1.464311442381137
C 1.590612695468393 0.849237203289558 2.468074639304581
C 1.046632129578968 0.607144075351648 3.916508671828492
C 2.176863648464620 0.869870592615903 5.000938659040290
C 1.628052590209601 1.335653166525345 6.321188465660571
O 1.353539296854059 2.502863817860014 6.612816305366928
O 1.428098055024180 0.276787671879853 7.237145445132207
C 0.912181022251748 0.553473526110878 8.546427747110467
H -0.565915382218195 1.147119945261954 -0.255571685090730
H 0.532297271538394 2.401656012949291 0.123776820810552
H 1.224642926560378 0.797491135834387 -0.595583636037965
H 0.157987913729422 -0.526475489934062 1.327826954012373
H -0.539207647063612 0.965725906695987 1.954855904413207
H 2.403709040129739 0.119818396504608 2.311022105393585
H 2.068587953929965 1.859822475221763 2.470835385654228
H 0.172056005526012 1.175344638633867 4.129453334566629
H 0.684623773425244 -0.437009837595739 3.994119699761644
H 2.812754560595728 -0.024480690069632 5.115781582551521
H 2.805800943263350 1.731254044067714 4.726435062545687
H 0.472618577683031 -0.356577768082757 8.978547053622819
H 0.138202644390380 1.374874363643205 8.538417924600033
H 1.659263014046565 0.939743770950457 9.242045013041759
23
maple-route1-mmgb-reference-mlip-reweighting-v1 phase=solution replicate=repeat-1 sample=24
C 0.513950798931275 1.317475855579146 0.104077077869385
C 0.278915240498684 0.563606081217676 1.453404090794493
C 1.526742097220180 0.742540836435924 2.442865813711479
C 1.167365350872746 0.601799379022316 3.982901959258186
C 2.299133373581301 0.918450224856807 5.009673414185860
C 1.691180066641593 1.294574013763048 6.347858967094541
O 1.322092905390039 2.456399815198999 6.626342127572106
O 1.305098324256029 0.263524003389110 7.207831754500722
C 0.893060308953008 0.661021088846426 8.509792090194509
H -0.376776311993964 1.087279540595057 -0.548014322362803
H 0.535716466163424 2.402566679648581 0.106639728066848
H 1.444735941698265 0.839666507762894 -0.345986963445632
H 0.135061875499451 -0.470924353952806 1.312689839666774
H -0.617715692397992 0.927323530444909 1.988244776497663
H 2.312430362849366 0.047804826194670 2.159677104012641
H 1.955766955394783 1.724754463479263 2.372921076025476
H 0.352269580008493 1.291740827183308 4.213676559615492
H 0.696687589020901 -0.354362857655194 4.208338511631387
H 2.921645776944117 0.023617507819824 5.106367559746677
H 2.950650350034510 1.764040634821421 4.701654999657556
H 0.527837522524566 -0.225866883542921 9.076970398171307
H 0.079637761445064 1.450412375055592 8.515255049801466
H 1.701886192226171 1.109492440775523 9.068685825247695
23
maple-route1-mmgb-reference-mlip-reweighting-v1 phase=solution replicate=repeat-1 sample=25
C 0.571798189864268 1.243372502246263 0.178525446286967
C 0.304538519047987 0.601249286056284 1.509274857118202
C 1.468731524077644 0.715245314406258 2.467780549837978
C 1.174771645828404 0.591585920967550 3.985405118802714
C 2.251359730385946 0.883698702963172 4.994405627570368
C 1.693911871272089 1.349802883196891 6.326213906796686
O 1.370471728816086 2.515805631981284 6.548830228427307
O 1.302067468500148 0.299325910651591 7.179292092301074
C 0.828590309245744 0.618446753715564 8.487466463651272
H -0.195414081314888 1.186039020381272 -0.591051281379716
H 0.625387663089509 2.323344115825882 0.375472572684476
H 1.560342277299375 0.933106731366530 -0.145506059951368
H 0.132028141823706 -0.449210784041860 1.469090087856184
H -0.520537817879372 1.051052446173693 2.017940627203210
H 2.192992563596051 -0.020626145658595 2.150515164565835
H 1.925824965189719 1.682105589961188 2.350552871455362
H 0.326498969675037 1.262481734398743 4.250775448722662
H 0.754131548090199 -0.377840744431084 4.193986257794243
H 2.775067421872843 -0.067761815457107 5.175730683470723
H 2.994480924489382 1.615003736926376 4.667675220995827
H 0.693127227243765 -0.323463178187990 9.041500248853151
H -0.068793355596788 1.193669253221615 8.477249574236868
H 1.607025291561074 1.221454183734273 9.015806286676076
23
maple-route1-mmgb-reference-mlip-reweighting-v1 phase=solution replicate=repeat-1 sample=26
C 0.615319594748777 1.164518932127111 0.209594986402599
C 0.348911657637916 0.648018394211502 1.571240878169737
C 1.495928593029405 0.729950091890353 2.582279471710609
C 1.017739203848672 0.563835286335599 3.988398029953026
C 2.157675757372539 0.798688229567808 4.974522799793240
C 1.659886327944410 1.400278370885979 6.270864046108992
O 1.472409633847346 2.582205455382361 6.510062216624741
O 1.428139592310256 0.346382156153751 7.156165348895664
C 0.750539720827790 0.583183794957020 8.432346856507330
H -0.202278708556595 1.127875657395564 -0.453563124470798
H 0.782086503757533 2.249710195766717 0.325954620178077
H 1.504367510360041 0.762590380412074 -0.179651093412452
H 0.086023289332283 -0.452469595833444 1.616584921535708
H -0.482909099178512 1.150047988801447 2.003149267030703
H 2.278524770063451 -0.009757067004037 2.389573029648751
H 1.997375959411803 1.710979528793993 2.511005029926912
H 0.178804401384126 1.246107841978243 4.184759273435368
H 0.575685761576896 -0.436430532152396 4.051250276396663
H 2.790163534331018 -0.091956267689044 5.143943550269617
H 2.805763032465870 1.613335007713965 4.640205409858060
H 0.674098597403866 -0.368368136437520 8.954541114770487
H -0.224765952108947 1.000666248507649 8.271551570626167
H 1.368869101510029 1.291742194358627 9.028152374031750
23
maple-route1-mmgb-reference-mlip-reweighting-v1 phase=solution replicate=repeat-1 sample=27
C 0.709854622044614 1.120199420760011 0.173471924398385
C 0.268396619823331 0.638430708254358 1.564622088822468
C 1.454519209670849 0.749322610199672 2.578342638066326
C 0.959084567830276 0.612773769449693 4.056833442664473
C 2.159382202962874 0.808573002064703 4.987661221445358
C 1.693945704354607 1.365366229223663 6.297319541534510
O 1.516099928844270 2.551747490196537 6.543699709559265
O 1.485656248767266 0.346148236418267 7.178883912112265
C 0.718086877619597 0.640658216522511 8.351749622450850
H -0.197403098318966 1.053390589931352 -0.407376965548266
H 1.033984280433630 2.120782309417679 -0.009637747003415
H 1.402509876990676 0.414765496556669 -0.284044463509419
H -0.086255979109332 -0.411003038128998 1.625198558293060
H -0.615917226825630 1.200410242514166 1.974633664773734
H 2.338748074692294 0.083958555504648 2.407107718845533
H 1.909093166180696 1.763430214337303 2.480390845170117
H 0.173571017639638 1.341323848630910 4.224584708795602
H 0.480140323509439 -0.377599556881451 4.176080874188724
H 2.678308395263469 -0.129088486516590 5.199680940765735
H 2.906530237329950 1.544869549778335 4.605854921036110
H 0.653867173994074 -0.240319161756131 8.971787527728377
H -0.323346604924187 0.886971499893343 8.008523725772513
H 1.165587716153481 1.461634576011876 8.855329180683908
23
maple-route1-mmgb-reference-mlip-reweighting-v1 phase=solution replicate=repeat-1 sample=28
C 0.768073998317526 1.008805216308145 0.096702481925589
C 0.200770689721852 0.661123870024715 1.478075474899502
C 1.347107412691933 0.797195294724489 2.513296638655829
C 0.983924078334265 0.691428510506146 4.062413293954988
C 2.220836005611561 0.837547542514904 4.964236503975779
C 1.809727905108136 1.317873885220946 6.374199587045389
O 1.507236617340264 2.517901770654125 6.580279402385353
O 1.462539028216637 0.325021330301693 7.261782144853348
C 0.685121000238277 0.680282418749046 8.399399600289302
H -0.134785420229287 1.044587931831427 -0.579913683858862
H 1.213216895242628 1.985253689314078 -0.017990889360014
H 1.447726216226950 0.224348006731852 -0.328230297679031
H -0.238088435198865 -0.286366097782237 1.577567978642702
H -0.606167966939082 1.380844048861543 1.789554128813971
H 2.084250011653189 -0.013410591910164 2.348500878119091
H 1.976786701690098 1.679834135410168 2.320417444519184
H 0.299296971179483 1.528391292716576 4.270914074214198
H 0.438200589868209 -0.238185928553237 4.300393436053803
H 2.619099147793803 -0.170394524637319 5.136352369650709
H 2.989641972208297 1.495749617472214 4.517244782430881
H 0.581810859030794 -0.155160862448979 9.116724788864005
H -0.355412425418524 0.848744919169925 8.048932897869925
H 1.080001073556780 1.551869531521484 8.878777904339701
23
maple-route1-mmgb-reference-mlip-reweighting-v1 phase=solution replicate=repeat-1 sample=29
C 0.707071735697913 0.838784644305982 0.023115260834983
C 0.228256300580342 0.765196203871474 1.462709771101151
C 1.379157572123467 0.784720763631407 2.511224200444719
C 0.993576338143207 0.785816713260443 3.992701956989299
C 2.179232538044417 0.816243873591784 5.011429032225921
C 1.789779859105563 1.317950411449401 6.399370090925846
O 1.528570700901801 2.500918458711426 6.608513075516894
O 1.445622601144837 0.327847838452984 7.258443093921748
C 0.709715146551080 0.686031329417929 8.438913223248548
H -0.073155837905412 0.830693998778437 -0.793751779343418
H 1.235927698251249 1.851944572525542 -0.013985208834719
H 1.489819028501551 0.069422610876761 -0.149949274379161
H -0.320334547780847 -0.162923041256595 1.611842775447070
H -0.442457701177453 1.540505380731931 1.718140280064745
H 2.076818313117938 -0.021511975297113 2.384361808589110
H 2.002370704360615 1.652298509909943 2.348789950335314
H 0.420243491949712 1.753293387133536 4.120302882519726
H 0.308160251815369 -0.056370314015397 4.177868137690563
H 2.621826616031262 -0.184231866419204 5.080874667523058
H 2.889063273144389 1.569521748627912 4.688349734612338
H 0.507860082752200 -0.208120018377532 9.098247311360851
H -0.291101729626604 1.020886838912585 8.214122137791446
H 1.258749742058040 1.435792382796285 9.077958890239250
23
maple-route1-mmgb-reference-mlip-reweighting-v1 phase=solution replicate=repeat-1 sample=30
C 0.652139364194533 0.658097490457576 0.020478510288925
C 0.339370202021729 0.857862386965929 1.518557383370136
C 1.483586903351233 0.800958596283325 2.496222551197459
C 0.989587327315583 0.944240788135858 3.940554596666926
C 2.138223322247129 0.811130166111092 5.003345651152759
C 1.631837856111640 1.358089940124473 6.360696445113875
O 1.547677251669784 2.537271471776830 6.664908727093881
O 1.370127181403781 0.282895271739648 7.190436405200615
C 0.795642901324417 0.633991843450643 8.495797429966087
H -0.228547059526096 0.493887067236800 -0.603208454191488
H 1.173088056811036 1.606233470766752 -0.339633669175395
H 1.361327914206168 -0.193923001350039 -0.079559792475627
H -0.301883490185887 -0.022983528321278 1.787393835373863
H -0.212949622957910 1.724070620677649 1.757020879533172
H 2.094858731814026 -0.050786781893457 2.400213469715452
H 2.152238506944341 1.619319229791713 2.242411931625798
H 0.382837340925225 1.865267825889808 4.102376224728938
H 0.353011856653600 0.042465205093886 4.090908456437264
H 2.348778036371817 -0.261451760174516 5.028966489687851
H 2.973076636309945 1.464982490080991 4.744940772434683
H 0.467905177577852 -0.241958101729699 9.073004562896935
H -0.108571578057503 1.249191214935023 8.445492579768434
H 1.591239088560928 1.119215798283738 9.140371816003793
23
maple-route1-mmgb-reference-mlip-reweighting-v1 phase=solution replicate=repeat-1 sample=31
C 0.663007575683379 0.493757351476411 0.045195715584662
C 0.328510825923017 0.867605767143182 1.505146765656042
C 1.567983313822253 0.847224889637657 2.445948208201914
C 1.038449331810775 1.051103835856682 3.910242994076615
C 2.096612461932273 0.904904300116080 5.004458169911679
C 1.539006306858733 1.354824149897129 6.365900780659870
O 1.571838079275350 2.508396038083219 6.693359369896900
O 1.204294126008441 0.304165181347131 7.172178244553741
C 0.937099554099567 0.552426074403727 8.564974369537635
H -0.349858761923499 0.349463252602996 -0.363802130828852
H 1.170195438185840 1.261076625444401 -0.501291562852531
H 1.150644597821846 -0.504229054567786 -0.022040640129135
H -0.499373254789604 0.226224390537784 1.855477488922374
H -0.045436826140240 1.950872519490914 1.554695546582642
H 2.163114836458021 -0.084249992299950 2.345483533609007
H 2.314672924709852 1.580948942103788 2.122381700661143
H 0.723985652382968 2.106058426669072 3.980305147880600
H 0.183591430206609 0.374306274949023 4.137515359629765
H 2.304640659564352 -0.163647350193478 4.957171759327428
H 2.894967363982845 1.587199354769877 4.696951667591060
H 0.664273419583978 -0.359595600684020 9.047350660838697
H 0.086882778818825 1.257575878687845 8.714691221671307
H 1.868957139461941 0.865487541703779 9.014579787375707
23
maple-route1-mmgb-reference-mlip-reweighting-v1 phase=solution replicate=repeat-1 sample=32
C 0.690229126432761 0.298774108809780 0.049229593586660
C 0.297124752666637 0.891107769905971 1.433194133598442
C 1.503462854186626 0.848888897367251 2.462577523560352
C 1.063108911139227 1.220210881183354 3.865933367224106
C 2.119741790433026 0.954778029546878 5.019962016952572
C 1.522247434391230 1.366299204743658 6.389186159540444
O 1.572741069809287 2.534936602557251 6.786969931761195
O 1.101130775258654 0.314842873717402 7.134578881942981
C 1.059172924922323 0.501360131579294 8.563931014340429
H -0.261224813976054 0.296818639756405 -0.512265129027441
H 1.459419891546080 0.866960533693942 -0.412048590368704
H 0.969620027153468 -0.728686696277468 0.113522971952167
H -0.591821400052488 0.332630011135711 1.777109913605669
H -0.041848637153737 1.995123972328760 1.304767196482055
H 1.825990957565973 -0.250746515649811 2.544170226358559
H 2.449462233295897 1.334111010204852 2.129717473482458
H 0.869864918036187 2.305618911319101 3.851356143978168
H 0.148214450985616 0.665758442405565 4.124831543235331
H 2.187630983848726 -0.128744221596194 4.971347415682914
H 3.040798248259694 1.478191785269249 4.707009675074833
H 0.850021928477052 -0.432938665572733 9.085255045324946
H 0.286741082687193 1.224856096029901 8.796720680617424
H 2.043825529016605 0.795993098336712 8.849467247630001
23
maple-route1-mmgb-reference-mlip-reweighting-v1 phase=solution replicate=repeat-1 sample=33
C 0.688974319687920 0.111435378243958 0.079036402669966
C 0.347834379681916 0.904645479135010 1.357100115740278
C 1.336296425863779 0.740376467308850 2.492235955017423
C 1.018033567166387 1.429741416686348 3.864516162457379
C 2.040425937379754 1.014341410363569 5.030010128057305
C 1.524656243324456 1.416725188123818 6.388548825066374
O 1.640307484927322 2.538833275712165 6.876845571259026
O 1.147451169821268 0.330620540663655 7.070849264320476
C 1.121596907311632 0.448338881657719 8.535593038110804
H -0.037730338098044 0.213274887501584 -0.702595659709496
H 1.739848998822475 0.458612130827783 -0.142390969992360
H 0.755391316215899 -0.935331688099158 0.266079785738958
H -0.645900432300577 0.542238820735763 1.688118606335626
H 0.263880577674043 1.931811087524387 1.161391905328917
H 1.684518144144637 -0.308984155966373 2.612232468500588
H 2.251604018336098 1.272347767630126 2.139758922895823
H 1.034014262776775 2.510896286369504 3.695891969180243
H 0.037794860988490 1.119581752044569 4.192364861839556
H 2.093115127523514 -0.078289475013734 4.957124800518917
H 2.989425240600911 1.489686082792168 4.754444458678259
H 0.894984659834852 -0.499190069432568 9.063598712659948
H 0.382732491365770 1.167595940385865 8.782278258280243
H 2.096704999810069 0.755940379764286 8.892430764140020
23
maple-route1-mmgb-reference-mlip-reweighting-v1 phase=solution replicate=repeat-1 sample=34
C 0.698458746092846 -0.037453528198518 0.175979037894496
C 0.374656527742504 0.920214614835565 1.337136504344503
C 1.267823448894001 0.695925413477168 2.524869884429919
C 0.944683403193339 1.567022555226652 3.813552624083452
C 1.902760467346561 1.113244452274562 4.926480017892784
C 1.529234694802530 1.482315220998052 6.392606522694059
O 1.770246002420425 2.550143669269342 6.882472759548234
O 1.277944886863574 0.331761016970724 7.084856798086556
C 1.098000763074134 0.368944004534169 8.533606088770194
H 0.171153577138553 0.152925668681951 -0.757675645181992
H 1.815288065305380 -0.017451329958162 0.146164875858072
H 0.432487880089401 -1.120653771960602 0.383687320284589
H -0.628581680173157 0.685723289556387 1.667554052299920
H 0.387782914010490 1.920863152792419 1.063510953663445
H 1.144142521879165 -0.325537338855009 2.807933577382038
H 2.315794216894334 0.778551806303100 2.263943913675504
H 1.026140316347083 2.638216611067601 3.572904105661809
H -0.072103117569427 1.315931603813540 4.124953025164730
H 2.033446560879039 0.018540134634692 4.823676500890593
H 2.770359454571119 1.685336059441626 4.636738720635113
H 0.703489587826960 -0.559410131869609 8.962331899927220
H 0.378881049736584 1.156904863062685 8.762301847755701
H 2.037689898838613 0.584799106488433 9.094655324455243
23
maple-route1-mmgb-reference-mlip-reweighting-v1 phase=solution replicate=repeat-1 sample=35
C 0.683370163333112 -0.157129085091177 0.283546950813225
C 0.353546875674595 0.942656032177183 1.296637102215556
C 1.124895553753706 0.642880282262021 2.599893093346072
C 0.889377967835616 1.574428990890624 3.792503702011713
C 1.937419054939824 1.224176457422492 4.896330095428512
C 1.578976856469962 1.506985545192758 6.395908371978606
O 1.856946692426801 2.556565698873618 6.900982049002836
O 1.363623828936079 0.323435000029630 7.078974469918318
C 1.074575474529770 0.375268728844967 8.458180992870323
H 0.185563974900106 0.143236574573449 -0.696696619008232
H 1.733696094811713 -0.380696325117463 0.223347245903201
H 0.121604636280297 -1.152070873362816 0.412786027401368
H -0.689174838735087 1.135545969160133 1.448560358983504
H 0.734861113524461 1.917294546990714 0.851454422058302
H 0.937333828111592 -0.371951224441532 2.941206566552805
H 2.171741612800559 0.726868641455628 2.418657291133836
H 0.995167919990748 2.568344636973366 3.332672681211491
H -0.159233011647092 1.423436268588500 4.129812623754588
H 1.955476199354768 0.127943331775382 4.875608662168635
H 2.894008788277584 1.668832411491715 4.569221646338049
H 0.701705239719801 -0.582509887449102 8.826182799446535
H 0.293890278954569 1.168075521142175 8.682032770949414
H 1.966914521549389 0.577300788253640 9.103173278055749
23
maple-route1-mmgb-reference-mlip-reweighting-v1 phase=solution replicate=repeat-1 sample=36
C 0.580002320630022 -0.241126390114132 0.277699957687581
C 0.372381330985331 0.940731713585856 1.272205270509588
C 1.027712844056877 0.586103441205108 2.646226394784393
C 0.907891576352823 1.547165330859539 3.912646226396144
C 2.060156430191073 1.223915222557592 4.912086580795061
C 1.679308875476785 1.513432885788312 6.366044519968516
O 1.838263862023023 2.597262579085645 6.943151736675793
O 1.356892452127228 0.370403499291738 6.977339128469909
C 1.075571646110529 0.447537642744722 8.386002506560841
H 0.050552812243144 0.017648710522330 -0.660520177245614
H 1.581114046811755 -0.671446338105403 0.174720592998393
H -0.035513068708677 -1.045759318739456 0.518120311503249
H -0.687729834884384 1.203674116591749 1.478039751597782
H 0.773649255634466 1.898247053116040 0.784337667705166
H 0.552828929570382 -0.370186961133748 2.964792863108807
H 2.092901968614731 0.373654794208256 2.508242771488196
H 1.021032797669998 2.554578986316516 3.512711891113595
H -0.105164955609004 1.451170186456377 4.331884423724979
H 2.263030759402162 0.150408557212649 4.855603075098124
H 2.955036927967580 1.788572649801370 4.565417820030603
H 1.023909385704435 -0.580248581432282 8.814462758780957
H 0.143395149174034 1.018420379135448 8.641465613122994
H 1.897143395017533 0.876545174947244 8.978805096112493
23
maple-route1-mmgb-reference-mlip-reweighting-v1 phase=solution replicate=repeat-1 sample=37
C 0.385705643994497 -0.218355297742360 0.324540535950340
C 0.392234552188974 0.872062883421649 1.376703942017463
C 0.981648641857838 0.414184393505371 2.724211574558741
C 0.996387261318864 1.521837271213512 3.870461643578070
C 2.158217673438656 1.294644816255204 4.873541209669868
C 1.774252503883988 1.536422435700309 6.336200615814120
O 1.814236379915466 2.683185550571185 6.863911807607467
O 1.346924750149372 0.389808911558468 6.936055845889290
C 1.042380575123802 0.459901668922760 8.384780229476453
H -0.020770920322932 0.055235165751292 -0.585790293945934
H 1.427829860803090 -0.568631978268329 0.300359477263643
H -0.121416316322325 -1.052455714972841 0.594001171122374
H -0.596289365570793 1.329981090703685 1.652977886343341
H 0.995543110314677 1.665203222857714 0.977721256871970
H 0.452553625585290 -0.533876985359346 3.028480235947842
H 2.065388454751417 0.159899779155040 2.498822970655807
H 1.003052065131228 2.531006264833207 3.468825272483383
H 0.048972658655687 1.383758292462770 4.371666596630462
H 2.578753985314220 0.276487203366219 4.753130166535684
H 2.922983845850757 2.019672885805093 4.604982238806886
H 1.134439857781069 -0.577930121931505 8.789011269163833
H 0.069355849720992 0.885774430258259 8.601135435499756
H 1.782821236283713 1.054456621057822 8.920816759481250
23
maple-route1-mmgb-reference-mlip-reweighting-v1 phase=solution replicate=repeat-1 sample=38
C 0.217767441549187 -0.204833396981026 0.388255025042602
C 0.416688367891189 0.831857755566112 1.489618187329980
C 1.023877514317915 0.293237391240311 2.828788897074844
C 1.107506647184415 1.410668144423744 3.824026076273452
C 2.234480143659283 1.355076031782886 4.847556302524850
C 1.751307871152195 1.610007411270348 6.277578900729863
O 1.759699504138359 2.709655051341977 6.783655388794574
O 1.427488805164260 0.452675695147689 6.943920331262145
C 0.998074782563094 0.491485911770165 8.317608559873067
H -0.171866808384755 0.211801309898823 -0.488354158103071
H 1.144995476880448 -0.657238534304651 0.250473126277853
H -0.415095845067989 -1.072125209647540 0.676316427745254
H -0.547695567667969 1.128732526912912 1.866009632282052
H 0.887677549475511 1.697008251126201 1.116200671924694
H 0.423077737512358 -0.574524089399546 3.148776146937129
H 2.070700255901406 -0.011888279942557 2.599857365723137
H 1.202234620894665 2.374505822713608 3.318010564489621
H 0.122592925772324 1.380621246055924 4.317301523388882
H 2.628461614344162 0.330556956116841 4.805159383787728
H 3.057837796157628 2.006853977646731 4.603681296075965
H 0.920208962553700 -0.553307717453826 8.602236953586059
H 0.057647478329461 1.007854344173225 8.375276865285779
H 1.729401855210054 1.054931622350122 8.943301837220405
23
maple-route1-mmgb-reference-mlip-reweighting-v1 phase=solution replicate=repeat-1 sample=39
C 0.070123575018536 -0.260669315101124 0.458861147736697
C 0.317422355534224 0.746697826825891 1.563521740090773
C 1.114469835363985 0.280806603063997 2.812690998972450
C 1.195655624800369 1.398740253091793 3.847967265582971
C 2.321989530292456 1.304315206770737 4.890199447951944
C 1.789790554577586 1.656251482049423 6.263082566086174
O 1.679202624504146 2.754819238958580 6.754728713061841
O 1.520725390972254 0.468636107642706 6.927127196311002
C 0.950031133317741 0.554914481387287 8.215759622122256
H -0.384728472202846 0.384707613705918 -0.358353673886396
H 0.960548247392656 -0.785630347787846 0.139797139032560
H -0.695399876912815 -1.079301109308314 0.697109816751543
H -0.557406189376958 1.240614523492470 1.896990590152262
H 0.930792106628944 1.524235114237487 1.087691102139517
H 0.567111688092921 -0.553741658620158 3.202830410292584
H 2.081027051769277 -0.006397254743676 2.498130402500446
H 1.402390379361744 2.368272323513376 3.353283489241270
H 0.172079493817610 1.476703337549603 4.308145011175225
H 2.654346598188059 0.275105724212274 4.889039717665793
H 3.234787573280634 1.887019014644523 4.654241813864355
H 0.646637823699717 -0.416755048828422 8.509917281363604
H 0.107073159030645 1.255213359502854 8.158438858643423
H 1.651419188718642 1.050396869626073 8.893697540449656
23
maple-route1-mmgb-reference-mlip-reweighting-v1 phase=solution replicate=repeat-1 sample=40
C -0.053047487098950 -0.365684934783157 0.555719805602377
C 0.195511256545568 0.763594959502020 1.588486812257170
C 1.209232025009261 0.317937162910274 2.740918728740045
C 1.269957168208792 1.478379567906127 3.809479040422765
C 2.406921549303537 1.228531517200813 4.872642791965955
C 1.970010426239444 1.620639002293269 6.286498450973018
O 1.622939574673842 2.746712950836867 6.635526343879788
O 1.542617733311313 0.486951352343647 6.977356391090702
C 0.862779517300960 0.621535075389754 8.244911255544586
H -0.749489631282317 0.031298804993919 -0.303017459326139
H 0.853208692724629 -1.034532816992219 0.220086557853935
H -0.655001303675188 -1.084596922433767 1.101133505435146
H -0.744839345605386 1.148966609409784 2.026477088993885
H 0.661436442107466 1.643842902364488 1.044188662446292
H 0.821702109379005 -0.564712120799392 3.219961248569737
H 2.146336122252491 0.109558607134744 2.308706597095488
H 1.427014462038170 2.504107793706349 3.404985380439412
H 0.275966932990536 1.517461763550397 4.284335774987507
H 2.891186468975038 0.256888075929497 4.765269107109490
H 3.217873215758503 1.952249195877666 4.650348594632291
H 0.467229307510823 -0.323480390535907 8.634367237740765
H 0.032712871060050 1.359561922991435 8.171692029598217
H 1.453151907143336 1.143689204899465 8.956161658679001
23
maple-route1-mmgb-reference-mlip-reweighting-v1 phase=solution replicate=repeat-1 sample=41
C -0.159864209117967 -0.483069887324227 0.742013664928560
C 0.115261545769291 0.739959535226229 1.635546092406168
C 1.234532922046203 0.456348738037118 2.679275045968303
C 1.350770599832172 1.507073673139341 3.796028839642096
C 2.470158526040996 1.197471615561524 4.863655757535762
C 1.947771394994994 1.550610658507102 6.218693551617660
O 1.671363485223614 2.725469860331222 6.509727317668180
O 1.550398787912839 0.493436757646450 7.023811254262070
C 0.828916693321260 0.726008768926791 8.221956993562454
H -0.909387867981078 -0.209802322493289 -0.003229777597473
H 0.825634728853046 -0.859035420943617 0.290833663810153
H -0.469684815870085 -1.335753502938372 1.384182002117103
H -0.867208938974432 0.944040671778454 2.186569557423518
H 0.364635961759546 1.638336601321227 1.028295391539501
H 1.092875138645982 -0.536414008800728 3.141430333529732
H 2.179322882930172 0.478287818311906 2.080336413147872
H 1.500532506781227 2.523764319383086 3.436683216520292
H 0.384122949870611 1.506498906928069 4.269199029263425
H 2.793827317441627 0.140240600647306 4.815308439527951
H 3.381104962159549 1.754673410584496 4.666384414709648
H 0.484515724930041 -0.236857559056877 8.730181844534357
H -0.060756900659425 1.356858203108881 8.101261329375829
H 1.382164458488765 1.366788108783737 8.917065275893410
23
maple-route1-mmgb-reference-mlip-reweighting-v1 phase=solution replicate=repeat-1 sample=42
C -0.212682935519811 -0.592091352207047 0.900474306210912
C 0.066474123900268 0.676852787855923 1.742386024776379
C 1.305965401949239 0.573812530659717 2.589077047138617
C 1.405517698591956 1.486980492871784 3.772998548767792
C 2.394985995879300 1.097342668955035 4.859879936428849
C 1.879236819313282 1.560185768111692 6.176137362622811
O 1.745937429064951 2.738189977249904 6.513357358745809
O 1.551315297594961 0.512725591401043 6.986930735063510
C 0.842754772938803 0.858791964008948 8.155334262625658
H -1.040097179544767 -0.382229425750329 0.275915594404240
H 0.610354993623420 -0.580904230553829 0.288623034558897
H -0.192810287936557 -1.560779773777037 1.447524306421779
H -0.819055207174815 0.805488006657578 2.385385047717784
H 0.165339957964270 1.545133985852202 1.092943722217645
H 1.259471112100493 -0.454912195776303 3.061974800791575
H 2.214112723208538 0.691686399973285 1.910745368611568
H 1.753549651542639 2.442934618048906 3.449699848704037
H 0.401023022161141 1.603553635039278 4.167586658752685
H 2.431211344209891 0.008390139644116 4.919896159530079
H 3.397388872531948 1.410273470628474 4.633047942354446
H 0.684223735940353 -0.069809133983547 8.724543217846012
H -0.121141342024405 1.316226013418654 7.967902862253879
H 1.390579564458435 1.638984824400323 8.772367857751611
23
maple-route1-mmgb-reference-mlip-reweighting-v1 phase=solution replicate=repeat-1 sample=43
C -0.242982771873427 -0.658263884554079 0.933994113564276
C -0.000956685396847 0.603726468756219 1.814214125199561
C 1.400082071998536 0.531053464023781 2.486660813545249
C 1.425222418266805 1.524532729282462 3.678781018263495
C 2.330301752102350 1.054302021322758 4.823098809737186
C 1.917446365366458 1.599436863523465 6.188203091279744
O 1.918467291599681 2.774616383576618 6.485598382940481
O 1.452300853966940 0.555261278560390 7.013745408537252
C 0.793868047250918 0.926402605446914 8.261197860393887
H -1.236402198794557 -0.643532718277749 0.482357318900711
H 0.436118455023309 -0.702118610742408 0.131549513334207
H -0.063088805475693 -1.450398051208652 1.610191623109474
H -0.769122741248114 0.526730255569905 2.529376021914609
H -0.151125521875370 1.558739183185089 1.299853268314036
H 1.594196442999996 -0.492641183859937 2.904826695871514
H 2.150401855597597 0.755085704343426 1.727917545145047
H 1.734332537133278 2.525238183643703 3.396748120959155
H 0.378097045460871 1.590352203766443 4.042221526441415
H 2.371272642261411 -0.019697895340035 4.869322869775423
H 3.327907495763644 1.439330621991344 4.561861294258570
H 0.764736619829812 0.001350991514486 8.780896361636177
H -0.235452827234159 1.346537333067281 8.110110623060853
H 1.376382967503119 1.693832111203056 8.816690128087048
23
maple-route1-mmgb-reference-mlip-reweighting-v1 phase=solution replicate=repeat-1 sample=44
C -0.271544791663101 -0.746481274473289 0.866931479475390
C -0.064181115698022 0.434479684018836 1.856564858123018
C 1.369950551491207 0.522280461712740 2.463299802964320
C 1.449060647368076 1.563072051883633 3.665137496319193
C 2.410300673724058 1.043128129293926 4.839057006144324
C 1.880129587228993 1.637059194095562 6.187915654187569
O 2.085667680175019 2.792377786521535 6.519899687294739
O 1.336897654021327 0.641544642196335 6.993749785309849
C 0.796546177593469 0.992646337298037 8.315157846854811
H -1.311096910744314 -0.671302637371216 0.520992615989278
H 0.291397100019762 -0.692663819821977 -0.136425268510843
H -0.078237424800362 -1.595648617411415 1.469719864431234
H -0.868455051461591 0.432748455351259 2.579337364385890
H -0.209368062689457 1.352658173245285 1.298573891843943
H 1.754159468869238 -0.420043300900346 2.802880773402023
H 1.950500876171010 0.857235562392737 1.649289073980224
H 1.728903266220711 2.617053587962117 3.336708977909971
H 0.407969258178198 1.623093780359687 4.046575133730737
H 2.446400848620920 -0.047512543962502 4.912114834977778
H 3.409450826900951 1.472019566659337 4.632704071922808
H 0.557753687656982 0.014188379792153 8.723564797592772
H -0.113167946767890 1.630582433266762 8.183757323943876
H 1.522491364290958 1.510571154968981 8.925471893271947
23
maple-route1-mmgb-reference-mlip-reweighting-v1 phase=solution replicate=repeat-1 sample=45
C -0.251764484446254 -0.808094133757398 0.814238132169697
C -0.125356450408091 0.341160368069854 1.865022571343617
C 1.313316821454071 0.506811200243497 2.458845096877122
C 1.419037139183972 1.468358281729181 3.688159608308419
C 2.375629240290587 1.089180405437245 4.865883688184221
C 1.939661738407721 1.656080649743558 6.207982542730401
O 2.184381141744558 2.795986376917238 6.622555814787987
O 1.270955244189581 0.723967559377558 6.926008396722690
C 0.858221321414021 1.121772298088544 8.243811726773004
H -1.251458528986773 -0.770053635866026 0.334764972438082
H 0.355326717787896 -0.579757526701511 -0.127665486786345
H 0.001536439959217 -1.805903671128969 1.345713080139736
H -0.827038884087296 0.112292159494097 2.713423285393955
H -0.531375369838122 1.288817432376760 1.475928417623907
H 1.517226261520068 -0.443875329980833 2.847394881530514
H 2.045888291040976 0.710095651255271 1.656433887696224
H 1.813775432220477 2.426505523641135 3.283631722078574
H 0.408587023930259 1.666913403824568 4.082485218874741
H 2.260226981141475 -0.021241486579612 5.021080857436494
H 3.401489018776099 1.376570869352200 4.616041720324696
H 0.279219540186810 0.288792643309563 8.694107968709215
H 0.267957618089473 2.021333164666253 8.141224245817620
H 1.713236876942018 1.285568036940173 8.902848631531457
23
maple-route1-mmgb-reference-mlip-reweighting-v1 phase=solution replicate=repeat-1 sample=46
C -0.188086460415153 -0.778262516316613 0.815781273271628
C -0.137191870056033 0.250687008932375 1.932837598181545
C 1.268616058141559 0.398942020229430 2.582140497337156
C 1.312658201964917 1.440631285084393 3.694051814851961
C 2.343090618202634 1.128663381693743 4.759307114828589
C 1.992118523113418 1.650509930158781 6.170966868436375
O 2.337924181600480 2.759015763931152 6.578786436336411
O 1.189149396169538 0.816307664205382 6.915606860568253
C 0.844847953739451 1.198211409943519 8.246661489412199
H -1.130105467913972 -0.804079255008325 0.205632724920292
H 0.425795548170135 -0.400354341096042 0.042881350670138
H 0.153875184067145 -1.817299658485997 1.224104565321166
H -0.879375339408617 0.054706321294402 2.736769056072836
H -0.480946344468716 1.226961930840236 1.546435102509722
H 1.640670290227071 -0.618476154858143 2.852839845451962
H 1.949355796682681 0.778449601983135 1.764680930872260
H 1.470055553675507 2.405895925400741 3.263997327252181
H 0.375762879456155 1.471571934766030 4.220822884793993
H 2.252356220236306 0.040171303087591 4.897780204373447
H 3.361325611417368 1.438015521881568 4.433630961416629
H 0.094314382029585 0.553205570289811 8.754389416894959
H 0.459999022918313 2.190151729680620 8.248172715567510
H 1.736846480198741 1.169560180409541 8.953195347523778
23
maple-route1-mmgb-reference-mlip-reweighting-v1 phase=solution replicate=repeat-1 sample=47
C -0.091666442023441 -0.772456296216482 0.793111454039097
C -0.133370750937556 0.177547921765966 1.955496938343786
C 1.193298492787266 0.367632321653717 2.656910455735463
C 1.141279154240992 1.380803793679906 3.795020026273830
C 2.342729470748173 1.086152731490030 4.783168051152217
C 2.033558757511543 1.690846284665659 6.153878620769532
O 2.532754642930283 2.748240414914920 6.506696643646594
O 1.125774295375048 0.928396141072923 6.859361402449943
C 0.816167090688592 1.249929827163855 8.187184919073012
H -1.072722227137093 -0.900160654990967 0.311383628008335
H 0.461158730186035 -0.380095005726421 -0.026376749968000
H 0.236587381094013 -1.704770982710718 1.159142838293603
H -0.799120715818547 -0.195770502953614 2.712409506066286
H -0.597104985633676 1.134773026859051 1.684730852386535
H 1.415295766042267 -0.687688545714735 3.009837985396108
H 1.982800001749945 0.622363931842109 1.944639422898160
H 1.091054681059246 2.395893059448737 3.441315470699710
H 0.253770462257290 1.199996426826820 4.378988046251522
H 2.585202833534122 0.046060129917549 4.846495722328526
H 3.176454790379489 1.710635629352783 4.455569843888506
H 0.052176622395004 0.656090529032848 8.697975600940135
H 0.450499118237916 2.324298543223328 8.248290200131663
H 1.706316262779151 1.146335666484675 8.852235482746394
23
maple-route1-mmgb-reference-mlip-reweighting-v1 phase=solution replicate=repeat-1 sample=48
C -0.046121433529610 -0.802310544958393 0.709785357616095
C -0.224235883765652 0.106855481475914 1.964492236303185
C 1.131347486163701 0.262466708588796 2.711193395649173
C 1.035215780625469 1.212140337425438 3.944505971206528
C 2.317327607565328 1.120871773030008 4.791355554886075
C 2.172044579132957 1.744432357459618 6.153514084779471
O 2.625231871693238 2.783954407104766 6.592954097854417
O 1.139929090644066 1.064215157413076 6.736889505147447
C 0.815113171749482 1.360215734253380 8.131285188218405
H -0.964290358506276 -1.088777425080521 0.249946894647657
H 0.479794309460252 -0.382088569123296 -0.153615016090277
H 0.315400324652278 -1.711449613968334 1.019349405936004
H -1.040274172015834 -0.173756700856246 2.621989520100238
H -0.556080552311026 1.096872592195021 1.637025801727887
H 1.503144695602014 -0.741694516457582 2.919683442341765
H 1.872049259693784 0.683108500458306 2.041905929283973
H 0.889420106357540 2.255868052591660 3.563909327315842
H 0.142209756679257 0.973447426433847 4.570630120724569
H 2.470906007867807 0.046291366011543 4.949488087596353
H 3.204041884237125 1.468001199778045 4.319839350704084
H 0.074021509569906 0.703600560354315 8.591184588357354
H 0.374171568753157 2.410098694331371 8.243199729949431
H 1.688141098636015 1.203851040443101 8.747987617426835
23
maple-route1-mmgb-reference-mlip-reweighting-v1 phase=solution replicate=repeat-1 sample=49
C -0.035584845316902 -0.801738649086311 0.651630122185775
C -0.235416219172712 0.032088336787333 1.891002151249726
C 1.064279030241117 0.184257934968776 2.706105973402391
C 0.980940684834947 1.034342696036704 3.998772340673758
C 2.318687901106116 1.222377081744061 4.752504698954304
C 2.208235857327862 1.730214844861216 6.187860508467419
O 2.690200697740623 2.793605617392352 6.571506139215483
O 1.167423495147070 1.102574805896836 6.836423177518480
C 0.803511148283908 1.568983687958773 8.146073492812093
H -0.947183786996725 -1.068220371651633 0.141931050829537
H 0.535910132299451 -0.290283443911325 -0.132346500718838
H 0.307388382483031 -1.853573249543486 0.875463443041577
H -1.060756786549892 -0.408345668316343 2.500198643845527
H -0.667781508115071 0.988454197810600 1.569687229041661
H 1.288483355218662 -0.800838572406667 3.022753051090235
H 1.968684842176279 0.485194242320614 2.159751695565626
H 0.601215186480740 2.025859601147361 3.672632792536070
H 0.203998653269098 0.573509220112890 4.675697484158828
H 2.698377873109366 0.163041975071410 4.860433595773694
H 3.146049224565592 1.701186710389901 4.192586314713219
H -0.046108216122755 0.979884152493878 8.508508670352912
H 0.460862217425714 2.589133299408041 8.092317056978155
H 1.648211697967147 1.289645897382099 8.801512941000400
23
maple-route1-mmgb-reference-mlip-reweighting-v1 phase=solution replicate=repeat-1 sample=50
C -0.022981083234789 -0.807848703585028 0.568700106553879
C -0.188833282718438 -0.019224488545633 1.881413321194336
C 1.034839026232884 0.100534110371616 2.714845372654851
C 0.927276755919169 0.914304094793755 4.023293596339341
C 2.276361493411370 1.162718801995908 4.722623085372727
C 2.166473404968987 1.719080885311665 6.176621383314965
O 2.705535793963406 2.810711972443327 6.470381609040970
O 1.223011911876816 1.120907379219527 6.994774856986919
C 0.805082397770759 1.789539248444026 8.206960063530653
H -0.914008262476034 -0.887085585839982 -0.121146860499668
H 0.731731456288199 -0.275009318227100 -0.010821622442937
H 0.182924461807063 -1.936277649881183 0.707459875410138
H -1.012119529239408 -0.518827796192590 2.434992655829103
H -0.562968603676312 0.994590713614111 1.617629501700086
H 1.480940519013669 -0.897064672302946 2.906279988354814
H 1.835607239237487 0.608120931142883 2.170482193230710
H 0.430343784634722 1.847062012436249 3.778641723591313
H 0.264143629119508 0.390003572414249 4.711956999944229
H 2.933785380618186 0.268489685347182 4.698694362942924
H 2.893449457407204 1.920231202874128 4.163150065515087
H -0.078889293920433 1.244676847913825 8.543312658104110
H 0.481074208018029 2.777150723097105 7.974539147504716
H 1.600218181055291 1.592419055167596 8.947118885795547
23
maple-route1-mmgb-reference-mlip-reweighting-v1 phase=solution replicate=repeat-1 sample=51
C -0.012111850025700 -0.802874440077770 0.534919323688037
C -0.190684867389676 -0.051630707220856 1.895298207265655
C 1.107830526448433 0.040195046393075 2.681275055739998
C 0.855124920120559 0.827354245819237 4.047011317322642
C 2.173143159840686 1.011500143537586 4.847156655192028
C 2.174615988982503 1.758270809224734 6.162582040501942
O 2.633348947429675 2.890685822140433 6.373488438384568
O 1.298778476467771 1.148922819062304 7.018507260060059
C 0.884554110760807 1.961239593980059 8.186469648823472
H -0.875594943125465 -0.800802006794286 -0.194225028383785
H 0.889034191541627 -0.345279203255343 0.015387194188969
H 0.083659687166024 -1.856253575673958 0.666656666107142
H -0.902766726242853 -0.681026491832175 2.435040344948752
H -0.605192023975243 0.978786499247952 1.737988472595105
H 1.655697868779823 -0.940946733841138 2.801183107682708
H 1.840100226413565 0.615886852486218 2.120769337558904
H 0.280911127920882 1.734426529325689 3.961439422896180
H 0.265901511762236 0.179146126864139 4.638776537913019
H 2.469964201306523 0.016629689940368 5.130210223408484
H 2.969494249181921 1.419369395984790 4.239346718662167
H 0.066312127506083 1.501470377496264 8.735294673866791
H 0.433634695456122 2.897517172551286 7.810202376664144
H 1.704965227322887 2.058094127376144 8.863345975794614
23
maple-route1-mmgb-reference-mlip-reweighting-v1 phase=solution replicate=repeat-1 sample=52
C 0.008900687941283 -0.765996322886186 0.520178698511170
C -0.208495182272128 -0.119007402101633 1.887252137958418
C 1.087466586457294 0.103680654333883 2.726081341276348
C 0.915921443461129 0.717123712204100 4.111850094483065
C 2.230719694064295 0.751010429849079 4.968355684734831
C 2.089757673033347 1.806057852120489 6.086672449434060
O 2.549971306618157 2.931679059171870 6.133836121019401
O 1.300432987695950 1.255313381508854 7.092141486910236
C 0.954512941261305 2.034801811669832 8.228567851662449
H -0.926068662641079 -0.632704785621542 0.002419319733099
H 0.838685445457318 -0.257814805344155 -0.068425457506463
H 0.073854740526820 -1.819759662869751 0.522239877915315
H -0.967875231704155 -0.743840632707303 2.376275865440678
H -0.581651764214777 0.884915537203856 1.621894953773204
H 1.530664172954900 -0.854654737311842 2.911649563751081
H 1.879895980350968 0.628524313185010 2.142508362886314
H 0.747815949320019 1.805298058888012 3.966842751245343
H 0.024678865417203 0.367461706642626 4.648571704094355
H 2.429700033874058 -0.208308253423835 5.428214291852083
H 3.042383727926304 1.074453765490768 4.373991415299439
H 0.318395294549638 1.531018690434828 8.944946388005210
H 0.296451987938331 2.869475221874107 7.863942067404408
H 1.822363589606687 2.362288610189046 8.785485244294291
23
maple-route1-mmgb-reference-mlip-reweighting-v1 phase=solution replicate=repeat-1 sample=53
C 0.008196908354844 -0.706950679215510 0.542157926274636
C -0.237871942076699 -0.084419474544834 1.974775335856251
C 1.128685567679698 0.019918028645594 2.748974675572557
C 0.995181126313713 0.724606230553971 4.069167414581717
C 2.206049527382568 0.668455713234669 5.023696927376657
C 2.097862111994600 1.738107689455137 6.103060804142048
O 2.397952484518044 2.885001842368156 5.830190601768964
O 1.284578657242996 1.338123894783003 7.177011358023387
C 1.051327411756969 2.145097439944116 8.271271567361543
H -0.941264263050417 -0.862075316991535 0.040304550450035
H 0.701406404816671 -0.149313231803969 -0.027605803983306
H 0.381525998350348 -1.762214847904654 0.632700389200964
H -0.926078685883507 -0.753866796808963 2.516703755023521
H -0.569152348738249 0.949096695992260 1.822771920700461
H 1.496135180658645 -0.970988480058337 2.943825202378334
H 1.882132732315824 0.481659144239689 2.082361524290788
H 0.703443306558339 1.796957254426000 3.993051994441086
H 0.122149622920558 0.277372689101606 4.652272890773624
H 2.173114348650191 -0.283712407037155 5.584344501570053
H 3.160436633909076 0.821618243788703 4.515932115164338
H 0.630738911545656 1.633668623009908 9.161716968362811
H 0.318496106985060 2.909374591138914 8.013009216219592
H 2.018062560272634 2.614093308588668 8.645113130950516
23
maple-route1-mmgb-reference-mlip-reweighting-v1 phase=solution replicate=repeat-1 sample=54
C -0.045335333486626 -0.648776513496776 0.594827769188064
C -0.133921709086203 -0.052253733379306 1.997660335424025
C 1.178918963790787 -0.116730882230987 2.788743180179697
C 0.936113181515449 0.694825659078359 4.086218737950051
C 2.120530433743873 0.554618957099361 5.031244229530457
C 2.040606731028566 1.682313760892821 6.060974860953610
O 2.209065904095173 2.880371726137661 5.771320969217532
O 1.375585612256155 1.341426708412977 7.188681921607349
C 1.211358571475437 2.346079160843008 8.232327527411048
H -1.014288046786513 -1.004540945361171 0.232867318184554
H 0.504801706146624 0.000546251195014 -0.029643289783205
H 0.602958884135341 -1.571521022972320 0.626072825633599
H -0.731797668129635 -0.783240946805477 2.539739898603501
H -0.460747393386002 0.986117808948766 1.938894149938289
H 1.586186776504092 -1.171795904227861 2.933640894743268
H 1.877514422708128 0.381006117120745 2.158064078792286
H 0.798294778536623 1.766868087483929 3.897818430560927
H 0.017431277179910 0.451535971240972 4.619754446412125
H 2.116798782209366 -0.405873491353593 5.615242560017746
H 3.108974573142794 0.709182043389013 4.475681886476655
H 0.800073981493823 1.955101793924617 9.197468524548876
H 0.581360795478841 3.186343565042876 7.895811881220900
H 2.230571839915532 2.761681606167706 8.519964260743286
23
maple-route1-mmgb-reference-mlip-reweighting-v1 phase=solution replicate=repeat-1 sample=55
C -0.070256778680898 -0.674737080277879 0.555056614756600
C -0.160462500549002 -0.101605917583278 1.960701706631095
C 1.153713328236994 -0.182441692622712 2.812067971672592
C 0.925721701599985 0.579121238851366 4.101096520236593
C 2.086226272838262 0.562455997600798 5.123990371204794
C 1.881425947119927 1.747401174832046 6.045449695958045
O 2.165245284191823 2.907764753207722 5.685563767313066
O 1.516108550812265 1.349349149191636 7.287603180392218
C 1.365658034893642 2.462831011067542 8.196784097880474
H -1.114629608514444 -0.867281268244197 0.204685097907215
H 0.473334589798583 0.158395860320584 -0.022305569143127
H 0.537512919775856 -1.544084288935962 0.360759500445889
H -0.857501558569408 -0.727592682275499 2.496895252436685
H -0.390349700891654 0.936556857974715 1.815382637593681
H 1.391271738266596 -1.247804421813859 3.102153604792024
H 2.003775681979721 0.213435269526618 2.235120053856656
H 0.664405000338009 1.588631902185909 3.879178314753673
H 0.042464223822058 0.218209620270166 4.573737797892702
H 2.159782033554384 -0.372624769527912 5.743951865809213
H 3.058287125860502 0.829216100829019 4.673685415182932
H 0.895025077577037 2.152412539074439 9.145644144795384
H 0.781472870251975 3.304693359382016 7.704621793087268
H 2.344578231895167 2.855146606672729 8.457765625656908
23
maple-route1-mmgb-reference-mlip-reweighting-v1 phase=solution replicate=repeat-1 sample=56
C -0.067415423564644 -0.707137004333853 0.440482301301907
C -0.244511223895576 -0.143693827817873 1.915508745009160
C 1.060276322851975 -0.275338336985101 2.802004513825793
C 0.882145358313461 0.409925395366951 4.137199111107019
C 2.064468406506660 0.535543182107638 5.084460509478940
C 1.920872896956302 1.818944362055966 6.045212364534589
O 2.155706235950073 2.924924947080495 5.625817954911171
O 1.629692616770668 1.523730718689979 7.354150590996445
C 1.465337578000196 2.573551618145135 8.362446601702111
H -1.093618213073441 -0.661439102935004 -0.002017112929270
H 0.750073210621055 -0.163270134463537 -0.171867354950098
H 0.268179726318815 -1.745776887198363 0.338538903812675
H -0.980918727151464 -0.748796267764129 2.421401179355950
H -0.490019345240930 0.925127720305593 1.786673499773152
H 1.292323118281742 -1.294951300288026 3.008128916088731
H 1.943660300390405 0.185939682171018 2.244683050958070
H 0.537119588773242 1.405764865492899 3.916176341717140
H 0.040219763442660 -0.050156367519805 4.652635107253614
H 2.059011938069115 -0.330656877407359 5.724835939166574
H 2.996320583491924 0.649882910508303 4.586377178600332
H 1.148764462265642 2.039628547398572 9.267338534147951
H 0.700156992967784 3.315256324019945 8.042589235063351
H 2.367762950186697 3.103612592823888 8.557906750204527
23
maple-route1-mmgb-reference-mlip-reweighting-v1 phase=solution replicate=repeat-1 sample=57
C -0.021820451977061 -0.728403692632996 0.426416710110229
C -0.278527194278772 -0.228621858681519 1.833363840145185
C 0.962664605765082 -0.330398085897337 2.765474891982354
C 0.701222035067971 0.364337000981037 4.242048259918426
C 1.994584001742694 0.586705406245834 5.127753749832670
C 2.012694625642075 1.870462551109720 6.076518660114548
O 2.174492090931222 2.978184501917327 5.592296190995465
O 1.711306285273317 1.540261339900745 7.368882935868987
C 1.592085648147978 2.613321663236328 8.340512602006219
H -0.900766236235950 -0.501633813720023 -0.167646121601023
H 0.934885811020161 -0.513134562862279 0.010995146235245
H -0.004909247122029 -1.877519994709471 0.478061278471868
H -1.104816531561399 -0.835643951593752 2.286174614470998
H -0.493624437145603 0.862179150134115 1.691656173312831
H 1.259351314265244 -1.347799919275144 2.881873264819081
H 1.784909098329925 0.213632126143730 2.270207201778331
H 0.225963446981653 1.359263759748993 4.055703064419209
H -0.095183955694159 -0.181230706015654 4.815189786290869
H 2.147409871823233 -0.244848048416317 5.777410516893330
H 2.884404222637278 0.692321743270018 4.516921582942589
H 1.502927323449565 2.119860150786228 9.293736664669815
H 0.760071564713681 3.223942577455601 8.156226336699840
H 2.460761330695002 3.321311412048932 8.310670925927230
23
maple-route1-mmgb-reference-mlip-reweighting-v1 phase=solution replicate=repeat-1 sample=58
C 0.023652755215810 -0.828574924818962 0.471934743579739
C -0.298491729869850 -0.219145720707701 1.875198596638600
C 0.885287601382738 -0.250944586081662 2.947564249202245
C 0.605082539544876 0.426664819271498 4.300760978463483
C 1.940623919934503 0.562878147920217 5.062480728495100
C 1.866389687258333 1.830742843609034 6.000097360887251
O 2.176552604457151 2.983116878067957 5.611963191751029
O 1.824259517252494 1.505833462550093 7.290812989690619
C 1.754495594451007 2.654536486976041 8.211976672083864
H -0.634011143082940 -0.559342287949439 -0.334421847850816
H 1.036136730490244 -0.645515954157040 0.277970229694986
H 0.078732756151122 -1.914897610840448 0.462068390788847
H -1.197670357454941 -0.736604322479884 2.333567924718071
H -0.497494320011920 0.843059258679984 1.690018336249153
H 1.097049748708471 -1.319060245429371 3.199298953346491
H 1.735081570163688 0.174636455430056 2.512128848836292
H 0.065729548592669 1.418503017976205 4.165056114027968
H -0.057818428159687 -0.249397086192124 4.886197458982642
H 2.143884933357294 -0.339700818891076 5.663441590198861
H 2.822026112685767 0.721820363076637 4.412110338311736
H 1.710080777718038 2.333775379012867 9.246484812606852
H 0.908686658364281 3.287898399770708 8.048485039566893
H 2.549119798380551 3.402219167214112 8.040947479417149
23
maple-route1-mmgb-reference-mlip-reweighting-v1 phase=solution replicate=repeat-1 sample=59
C 0.085918687830645 -0.907208036154065 0.708994138799654
C -0.294164495526567 -0.152437863759028 1.962471606087952
C 0.793223974902850 -0.304707779212277 2.974802933924512
C 0.576345576603666 0.479567214022372 4.232937291527865
C 1.836240726454130 0.628959382026777 5.077270363043548
C 1.904925993676704 1.823422528384194 5.962754698868391
O 2.082914941682075 2.934132020082168 5.445019187423981
O 1.857325426354150 1.537612107090844 7.257649033058210
C 1.922079959545480 2.610276795899221 8.188652879816511
H -0.625325940439382 -0.626493129571220 -0.068481796776009
H 1.110863417345858 -0.666276316317982 0.376349083098181
H 0.143211458028773 -1.923418784202797 0.735249274030669
H -1.181137364094551 -0.632356281573817 2.386921474746496
H -0.509604107176993 0.918392721417587 1.774516190144912
H 0.995991137987480 -1.392612364563364 3.156370206865498
H 1.635666148215429 0.159367497649170 2.438023869889986
H 0.334068414462366 1.480526900477515 3.857987369083303
H -0.235645960486332 0.073036516544060 4.864096939513647
H 2.016126311532374 -0.284811214650328 5.701973410421243
H 2.727175254768888 0.712405062909076 4.438687567004193
H 1.818535825906387 2.239991389970858 9.224574910915839
H 1.148205111248550 3.414680130593588 8.042362406989223
H 2.771277983795212 3.213284318714490 8.035039977868525
23
maple-route1-mmgb-reference-mlip-reweighting-v1 phase=solution replicate=repeat-1 sample=60
C 0.030558217158395 -0.977076659631284 0.750595842779636
C -0.327451347482078 -0.194368732098042 1.974250955833899
C 0.782402263518734 -0.334221097835348 3.031070312172364
C 0.584880373309495 0.619437709826870 4.214447070819941
C 1.840043357467681 0.539488438501894 5.079414144339180
C 1.923337057087230 1.872769549001502 5.886926494686659
O 1.987237201926600 2.965228530266215 5.399633757790657
O 1.868059431552333 1.592972369664743 7.228261505047687
C 2.084834903652715 2.603184630947727 8.226883896901162
H -0.810697816647532 -0.935879050253721 0.052780973295633
H 0.952142082446040 -0.643425610786428 0.220218276561850
H 0.322262714444962 -2.016848262303875 0.943299806907682
H -1.307427698797222 -0.516273008482538 2.343525762590803
H -0.520665943231336 0.898124580582357 1.730187743293106
H 0.718897184970991 -1.356696543464840 3.393700234230754
H 1.791245325733968 -0.201161031996432 2.458564913759986
H 0.489547355901584 1.613366032241791 3.840860750385006
H -0.247809175064056 0.313427466811505 4.855324316858996
H 1.756748176490897 -0.323178260313461 5.743450781021576
H 2.767735435146688 0.344909214725930 4.521437733751830
H 1.952584250198749 2.163301971830614 9.231706376937240
H 1.468869694690529 3.512358918137923 8.112301703875866
H 3.037796124814747 3.045299233725167 8.043071684875967
23
maple-route1-mmgb-reference-mlip-reweighting-v1 phase=solution replicate=repeat-1 sample=61
C -0.107332957097327 -1.087071408894097 0.648054520287974
C -0.355956093839426 -0.264698267167111 1.943924620720602
C 0.749189707633262 -0.427741562342787 3.071262983885316
C 0.603338576503518 0.700497777183491 4.127910371599652
C 1.818198026986908 0.633209059664233 5.154024967981282
C 1.906449660493527 1.900703672275950 5.954720363073656
O 1.994787369857422 3.000746139796824 5.442370724752124
O 1.902054095779064 1.575359673901221 7.292575274083257
C 2.230090741359288 2.649336716104846 8.182534568779207
H -1.024897755661929 -1.239034695276645 0.025130507332146
H 0.646606423571025 -0.718510244993141 -0.023756429111191
H 0.413455915067861 -2.096499915871326 0.948051229925622
H -1.445363848768408 -0.359708115793916 2.261803417611098
H -0.379059449255595 0.806954003815426 1.647304308234077
H 0.625056349117758 -1.398006886087197 3.589910408503735
H 1.745990214432583 -0.420041177334399 2.598601946416935
H 0.724896122217794 1.643196777604032 3.602581420698060
H -0.341437457960367 0.606757671574267 4.659253525424417
H 1.828729854418891 -0.282432137754286 5.744132419767881
H 2.743157537434400 0.575661862370392 4.579087191916680
H 2.132996014585237 2.298251825003832 9.214839468777980
H 1.655592689632645 3.517929260434984 8.007623687548616
H 3.276696405485738 2.996520043975122 7.897925267484613
23
maple-route1-mmgb-reference-mlip-reweighting-v1 phase=solution replicate=repeat-1 sample=62
C -0.212335222762199 -1.223625412117620 0.662048677558737
C -0.346589365360144 -0.333582570111264 1.911116882956789
C 0.638303344811531 -0.474029355835426 2.979692472604631
C 0.661836796166024 0.710533876600550 3.965675195393874
C 1.775514340797498 0.666239166392510 5.086061066062867
C 1.821265390651074 1.901874567914113 6.010488009064994
O 2.078319071445106 3.029630787944582 5.594060073680054
O 1.965716263728401 1.641183212386065 7.334209723836417
C 2.365101638450303 2.763950329826014 8.229003772103528
H -1.206325581928608 -1.220967037604312 0.143444787685514
H 0.495010614217275 -0.858493478583853 -0.103489696077238
H 0.205627947416765 -2.225357348421370 0.925085451603481
H -1.346013966886241 -0.625826762444411 2.290074816998096
H -0.585179592495802 0.683180151034501 1.649848508283819
H 0.491475266000132 -1.430966565275229 3.533113284307772
H 1.569307900418850 -0.511648945853384 2.520531308770970
H 0.832131451341004 1.655892089680623 3.386159362041968
H -0.278406136985341 0.676200593873618 4.532157530177349
H 1.647232537285215 -0.243039689379253 5.659112413925930
H 2.750968202044849 0.494550710594241 4.614098064922009
H 2.329806597933719 2.341841158540960 9.235953040715804
H 1.667733472190686 3.600181604197750 8.170562223714223
H 3.365513932391353 3.177261300064349 7.955294823410882
23
maple-route1-mmgb-reference-mlip-reweighting-v1 phase=solution replicate=repeat-1 sample=63
C -0.318465739952088 -1.375917014677419 0.681373321490196
C -0.470552953575190 -0.405931999632454 1.898442175472984
C 0.685881166042027 -0.465553063829080 2.910171014966689
C 0.722564467006396 0.742057712447566 3.927328769435638
C 1.705730191073227 0.745741604507914 5.132415479627708
C 1.811476787953149 1.988065897515206 6.043318033522223
O 2.130428139406100 3.087836998633400 5.542487667807516
O 2.032640841387734 1.638233693924773 7.379287537775817
C 2.400966767846518 2.718237336957201 8.265642026533309
H -1.055670810632485 -1.236156608335216 -0.115171230713494
H 0.648221428293675 -1.054129769192472 0.189380538855734
H -0.111977453503281 -2.345491435825637 0.981840381041081
H -1.464315484442246 -0.478480194457867 2.267148517094542
H -0.590132387382316 0.581995412816883 1.461839936940879
H 0.641671614256590 -1.383241864690953 3.482082908932928
H 1.651025152819972 -0.491293525813666 2.401137284229081
H 1.000848816906976 1.657631865934368 3.364465989433780
H -0.278791847196925 0.801205421569919 4.390801868347109
H 1.533327001433826 -0.159472141573352 5.714011967002336
H 2.681159568388473 0.541804782562183 4.680407705373555
H 2.544575190622947 2.256718128617639 9.249269567404887
H 1.544577118873982 3.452754353133505 8.388524799392561
H 3.259606411305997 3.257128318878295 7.972173632729596
23
maple-route1-mmgb-reference-mlip-reweighting-v1 phase=solution replicate=repeat-1 sample=64
C -0.372285211068699 -1.475136656577201 0.758674758332380
C -0.437653972432857 -0.421142303099500 1.925100234118841
C 0.739973457450745 -0.360876199331275 2.932098036095308
C 0.659433159285902 0.879692227827065 3.935776274501162
C 1.699477064821103 0.705041031745170 5.129118103895928
C 1.902420325137891 1.990789028392826 5.966644674122157
O 2.113603981440297 3.100470163579116 5.527059119491254
O 2.066392510152627 1.657388291596045 7.280361337643936
C 2.373143720101844 2.638632491447016 8.273964937867012
H -0.995473666607320 -1.209349962838957 -0.053735261302293
H 0.608685878857186 -1.529236397095477 0.317120287309038
H -0.561775625712406 -2.443330821369585 1.218758072522643
H -1.376478413424115 -0.585128274958297 2.399018470080407
H -0.790628648578298 0.538111552132882 1.511938000133748
H 0.758486637590118 -1.231362270971295 3.543243798857145
H 1.786815682936808 -0.366472502369149 2.453313210859896
H 0.979143190955736 1.757678634223880 3.402424097228602
H -0.362312408879430 1.002586020933740 4.350111485267796
H 1.371434604638504 -0.101651184606477 5.795065078639428
H 2.641830119113963 0.278851073073425 4.765911341453460
H 2.581721361407395 2.089381105603509 9.219110893005437
H 1.506493591364578 3.307179709743242 8.500268476206626
H 3.261978240752463 3.261825923373180 8.078181757507220
23
maple-route1-mmgb-reference-mlip-reweighting-v1 phase=solution replicate=repeat-1 sample=65
C -0.330444723771883 -1.510753368362809 0.980913097354378
C -0.454901309319844 -0.366052205959442 2.006415044415188
C 0.702759601034659 -0.282476110977903 2.951596440377066
C 0.646293480919247 0.935154301557869 3.903865721696912
C 1.676133323219523 0.740528663214695 5.072891237129288
C 1.974325220102163 1.946605179631538 5.917378780660616
O 2.098103201191212 3.066586405147748 5.471863947336613
O 2.090023645050580 1.561340513306830 7.246234508212156
C 2.345927965968519 2.605970592706140 8.215162955047269
H -0.984974950701696 -1.232639035089976 0.188592929156883
H 0.593903198223048 -1.660705462250016 0.508810890412801
H -0.673575887255090 -2.466487005358038 1.493845953816711
H -1.477665318477300 -0.259007935804549 2.432613093569650
H -0.575356009481053 0.560705926595919 1.458766689385422
H 0.859733524813026 -1.241978075457083 3.495917046160613
H 1.596163754397062 -0.157779655178620 2.339746487304268
H 0.843452618980200 1.864858814040977 3.384127254671838
H -0.331248015738673 0.988661735883047 4.346285177224727
H 1.452447423262875 -0.106723229715417 5.725994937990571
H 2.625796831900853 0.434246472452844 4.648410788507777
H 2.532915329374843 2.256395124851982 9.253674217520230
H 1.550728538599438 3.322285550234006 8.207823459185471
H 3.315223412962418 3.185211074914998 7.915003106752812
23
maple-route1-mmgb-reference-mlip-reweighting-v1 phase=solution replicate=repeat-1 sample=66
C -0.364714242527097 -1.566549794004108 1.198310776147837
C -0.480865707878516 -0.224657585313297 1.956835126640364
C 0.670289018365687 -0.190846861275804 2.997623042713805
C 0.666502603807797 0.910064504274462 3.953133782075764
C 1.730859123699132 0.683869787719861 4.983997901723827
C 1.902063167275294 1.912091239833714 5.871902631381700
O 2.122625614642636 3.034063509680834 5.472218037153347
O 2.129455367250833 1.560643195829595 7.162748321822833
C 2.356600613811395 2.598859542623075 8.155453274809629
H -1.055084065792372 -1.621475623200370 0.306441419077812
H 0.610797480636074 -1.650538921069907 0.657143403774549
H -0.493994027071557 -2.389481110516823 1.894583440747677
H -1.446760535643740 -0.124546513585731 2.511961404365890
H -0.688436861808989 0.650122197924690 1.364318479183386
H 0.559258391831558 -1.178006273176008 3.547120947002572
H 1.605145136803357 -0.252031222866789 2.486273639767759
H 0.853968029966379 1.891499793601827 3.469194164531648
H -0.278711112348580 1.014720117199767 4.488573366201408
H 1.617932476776198 -0.195652084483302 5.613641858681929
H 2.677519128249182 0.562921660582989 4.418041388071238
H 2.334273443322145 2.270423126799734 9.193026425788350
H 1.590481126383738 3.378550289000209 7.971245298418099
H 3.376108286442838 3.013630403038633 7.991989325087555
23
maple-route1-mmgb-reference-mlip-reweighting-v1 phase=solution replicate=repeat-1 sample=67
C -0.531745400952133 -1.545115904778812 1.244843486717527
C -0.485605657712292 -0.245367181885015 1.948869516461912
C 0.607047949393453 -0.260099923341898 3.041773542395639
C 0.636305859818888 0.903025828476339 3.997363611709657
C 1.885809550904176 0.757479806044006 4.932989328911680
C 1.970765915734475 1.930344810001363 5.879130812700875
O 2.172832833544468 3.038798567476225 5.430813897415395
O 2.094668779797241 1.560508976144413 7.190379566309504
C 2.386870750069861 2.561260965259859 8.103604937621535
H -1.387753046320494 -1.660910766757301 0.531406032154792
H 0.353840830886384 -1.520519260063242 0.516146085102668
H -0.463216837620520 -2.371350274158041 1.936780112655525
H -1.399196470324227 0.127257159337198 2.325624619127992
H -0.324824570409700 0.560239236942325 1.229392985789410
H 0.568123458664759 -1.214908373918562 3.512425437595183
H 1.559987989442308 -0.262997568525392 2.458702143285104
H 0.652942796618755 1.910632014614782 3.513206745612436
H -0.280479196946969 0.993001544253726 4.646251123794196
H 1.742955587637076 -0.066907226082485 5.659263150573209
H 2.844345152015432 0.634082809038518 4.407236860359240
H 2.337900124483618 2.212523771118482 9.146329964747244
H 1.589364453507144 3.339317328846513 7.910009301530217
H 3.374531254944397 2.866570425251787 7.958604243366586
23
maple-route1-mmgb-reference-mlip-reweighting-v1 phase=solution replicate=repeat-1 sample=68
C -0.750084499115596 -1.556062165516865 1.127437290081190
C -0.483786006571785 -0.267356836846001 1.987834252314975
C 0.609002846870124 -0.366883736498452 3.040891326215686
C 0.644249813773875 0.822799916903544 4.030557204964793
C 1.945916851005072 0.757819709128609 4.866743800996887
C 2.118923997894595 1.973970076640705 5.846280744982115
O 2.248769530057388 3.149149786603490 5.502001226848449
O 2.049200875620190 1.593402583804797 7.157473067987741
C 2.409196584294663 2.590948516118905 8.167574129226505
H -1.715451708717641 -1.500397024580786 0.624958700173838
H -0.028694542983034 -1.770062617756864 0.320410056579243
H -0.844139779829494 -2.413465496600775 1.860832495885767
H -1.361522240183854 -0.002908143611575 2.518213914185230
H -0.404801879360889 0.628636588475377 1.373713917789712
H 0.361957539885403 -1.243667127495261 3.569789410444151
H 1.592026538973198 -0.585647807067825 2.564839481646757
H 0.665705962072398 1.808863098326189 3.534041276086551
H -0.259116138679463 0.911331693443619 4.659085530631807
H 2.080305626731946 -0.149708008588164 5.480825595305098
H 2.754997721911427 0.920825610820568 4.167027011223294
H 2.540280854216745 2.114351281733423 9.154717377269108
H 1.618445556279022 3.303526473800629 8.258156368246709
H 3.402527839515036 2.981686463906791 8.013088522886880
23
maple-route1-mmgb-reference-mlip-reweighting-v1 phase=solution replicate=repeat-1 sample=69
C -0.914013723626333 -1.484504126877145 1.093011522172219
C -0.610018674177459 -0.311619694179172 2.058518096671755
C 0.575284414123530 -0.527517407007794 3.071964297549781
C 0.769815015906500 0.708585374398218 3.985507777507122
C 2.050380242085948 0.866699264806047 4.837375119967710
C 2.094411969533976 2.049735161845503 5.836107857688198
O 2.336482783713851 3.218840897355120 5.507780631532667
O 2.104872791159059 1.577389553571571 7.136915659483299
C 2.363848207405347 2.586532970244908 8.191435750909955
H -1.798478687228370 -1.261627187400484 0.483494267338288
H -0.095046191895929 -1.694313864936134 0.448951660653588
H -1.182998862695617 -2.350358818302066 1.747635228590676
H -1.552851448856461 0.174237186321176 2.475764255019048
H -0.290292173472746 0.508126279525716 1.394222054683333
H 0.423482540349616 -1.486384125312777 3.664771828121525
H 1.478124100398889 -0.666546996479009 2.528045741467942
H 0.559158183495314 1.632898579006959 3.495337372588551
H -0.019326351393268 0.667502190410216 4.692792149032866
H 2.150583065658094 0.008302755793874 5.468715233555189
H 2.930128612500717 1.035140573630233 4.197061269303347
H 2.540586390950462 2.090828760866954 9.151407332048896
H 1.545146883534254 3.216162432103618 8.395652160311240
H 3.364518237773046 3.078332581782080 8.117143690776242
23
maple-route1-mmgb-reference-mlip-reweighting-v1 phase=solution replicate=repeat-1 sample=70
C -1.037246713849012 -1.427255727944016 1.189280730214578
C -0.602541041605409 -0.305909914603724 2.118031777451521
C 0.573570189794271 -0.550539346139921 3.100015663563043
C 0.797054792904720 0.692754985960973 4.013475475556405
C 2.161536708122934 0.875820636381075 4.755571624999312
C 2.100352297357775 2.050905545161262 5.801153681850134
O 2.356355749634901 3.211867242527018 5.498749198835183
O 2.188897693998323 1.608293201389273 7.088154832635726
C 2.270393446809769 2.525136522470909 8.147091267619457
H -1.782048168536757 -1.053276818847508 0.454011009569969
H -0.120661341134227 -1.732768839290575 0.663158600989877
H -1.478381669104470 -2.201906077010051 1.757573995039624
H -1.549296517586969 -0.207592710625196 2.756491624194906
H -0.595506717701483 0.693629849629751 1.637659092332829
H 0.330411029718918 -1.503610456568199 3.667333638946061
H 1.519523759189778 -0.718921175751418 2.581872829494896
H 0.695248338368213 1.572727252413068 3.386257990072866
H -0.033415275275487 0.816692253609425 4.681578351665106
H 2.316928419951084 -0.028667073287643 5.355930660629895
H 2.990291799877128 1.086915312085437 4.064496023731337
H 2.271351432734052 1.980395951940123 9.074944317301414
H 1.371684823705887 3.184035636747278 8.265794885718483
H 3.249870243451356 3.008830780177550 8.220845417603963
23
maple-route1-mmgb-reference-mlip-reweighting-v1 phase=solution replicate=repeat-1 sample=71
C -1.070918494404476 -1.426802620954882 1.298477477668850
C -0.677482600882293 -0.269130141830124 2.323699052344160
C 0.600430772012011 -0.441977183392841 3.127874883518593
C 0.813344632689754 0.804793950462242 4.027868860467746
C 2.160714979578679 0.808937181039814 4.709733387432827
C 2.316885034174300 1.980893305636374 5.744527484451218
O 2.301712549556882 3.184283542333142 5.414840352887095
O 2.206005764064249 1.530293830561616 7.048860612631075
C 2.190183896848837 2.491473770507195 8.072029612491322
H -1.806220489153248 -1.051463585584438 0.586506427044711
H -0.082669869887376 -1.590300572855034 0.784328954490694
H -1.473952965168589 -2.323305114522253 1.757836940147837
H -1.523143545747913 0.131086829315960 2.881220306713476
H -0.443608355764121 0.630618175525585 1.713136204090149
H 0.476769598081722 -1.309025601030058 3.719788459165550
H 1.487041780383510 -0.610008828770163 2.411706600407959
H 0.662747162711172 1.756728807948136 3.461798045810948
H -0.020822248303473 0.842108384830911 4.778139633914109
H 2.330660566151465 -0.173011918626530 5.234307901024017
H 2.922780847046549 0.966376263348082 3.949157721442802
H 2.023306698898521 2.065078798718973 9.082857066101150
H 1.279329674085605 3.158406388886870 7.908886727184080
H 3.115149156215008 3.024025799192523 8.102668536750935
23
maple-route1-mmgb-reference-mlip-reweighting-v1 phase=solution replicate=repeat-1 sample=72
C -1.004427738316441 -1.393928527640322 1.449118491876439
C -0.777231154025632 -0.168856397619567 2.341379152221365
C 0.554576933994558 -0.297406541835861 3.160795641945662
C 0.864907339225546 0.865935611337971 4.097261776584745
C 2.265050787615845 0.786567439991478 4.731933323135419
C 2.388089144393532 1.894459836827942 5.671621617612504
O 2.281856723167505 3.042850752976329 5.339089827758903
O 2.213991147501701 1.478984355173041 6.941013294258739
C 2.091845467955248 2.493713705065530 8.001045901999259
H -2.008312327444089 -1.317475985544183 1.036830955412547
H -0.170755309749094 -1.569797380323471 0.787331548701554
H -1.104611806066544 -2.236823765265415 2.203339668834497
H -1.594472193914188 -0.148025901896129 3.013095025142813
H -0.857058172425879 0.807597408908903 1.845021081149246
H 0.544269383362482 -1.188833450031085 3.751288083951201
H 1.348362854861256 -0.361367934871214 2.388674042001340
H 0.713229079005794 1.808579933340898 3.520215499484783
H 0.058736643934686 0.911732891005369 4.886079847373507
H 2.405197013812511 -0.179501522222224 5.245752568081051
H 3.068863159651788 0.928397063998268 4.004322134981964
H 1.912969273911368 2.139638095306892 9.052562347990252
H 1.240428293144772 3.090052003156398 7.767712974885105
H 2.988813827539629 3.137518820132365 7.998925187509657
23
maple-route1-mmgb-reference-mlip-reweighting-v1 phase=solution replicate=repeat-1 sample=73
C -1.002782898058784 -1.373315453710009 1.584832008918997
C -0.852859554145969 -0.140474437567132 2.465631686297287
C 0.546706750201017 -0.214781720411812 3.089585685082331
C 0.870369646273190 0.859852992387946 4.095928213102525
C 2.294720221667014 0.720088252270825 4.667935088922140
C 2.426665423577807 1.890247686574406 5.644062216121951
O 2.363205849031366 3.058473146140783 5.306756311511213
O 2.205498687999579 1.468164440810384 6.943211451601906
C 2.015138805701555 2.444833392452902 7.964130547899821
H -2.087160815762611 -1.439431168150140 1.298793740182636
H -0.310387533188945 -1.307770781135529 0.760590066638895
H -0.755028540964765 -2.276961695941452 2.157288393157260
H -1.658939177134999 -0.131784094349515 3.249425116841263
H -0.947610885431305 0.748068215092313 1.861579973824490
H 0.679371777482412 -1.179351794165782 3.682374852829913
H 1.203302827369147 -0.144849546852742 2.261613696645389
H 0.722070347165821 1.797981348043041 3.558487685758474
H 0.136669296367028 0.843828323507537 4.893320774464776
H 2.430891373379794 -0.257269923727426 5.105095322820152
H 3.057260353420443 0.843094500852969 3.860565109942694
H 1.814248006450440 2.053230655029255 8.953100299516775
H 1.168113601671048 3.016909148909646 7.682469314753797
H 2.926844260790435 3.106180651912730 7.947164311525098
23
maple-route1-mmgb-reference-mlip-reweighting-v1 phase=solution replicate=repeat-1 sample=74
C -1.210906445946374 -1.370821066477081 1.599957744601624
C -0.836269682605334 -0.197138618506751 2.592444890231898
C 0.642896294322409 -0.229381359879274 2.989023204866582
C 0.819092876503689 0.840021381263046 4.094638559671285
C 2.236764757708361 0.805536950851047 4.648134081309992
C 2.446148849172213 1.899623795739134 5.652505833527171
O 2.560511708525921 3.077567020582393 5.319334712479007
O 2.204131919697947 1.467813317560723 6.941832041198410
C 2.001909130097230 2.422369633265657 7.929206556153464
H -2.285655453773191 -1.373272631690323 1.350154845375500
H -0.571542491828058 -1.104275788122541 0.729255516442340
H -0.913096465072528 -2.353239902722118 1.888490114730673
H -1.457724897845378 -0.251183713934851 3.560355699422572
H -0.996569091887184 0.802656001047841 2.087869409524842
H 0.869456727912475 -1.185456078460709 3.513113245543948
H 1.199330224610615 -0.058063937103219 2.057675740574125
H 0.584282403986555 1.784186688181030 3.649989096507942
H 0.134673183921974 0.649353776435094 4.897385197214812
H 2.396969311620706 -0.195935835928362 5.044772015829974
H 2.916223037031002 0.919243428514368 3.780907573250830
H 1.852121634620087 1.879779072918423 8.846761439998890
H 1.034159198347892 2.988671250371993 7.770742552626521
H 2.877903203447392 3.069918921782135 7.975850957543789
23
maple-route1-mmgb-reference-mlip-reweighting-v1 phase=solution replicate=repeat-1 sample=75
C -1.402767780249245 -1.315348137936047 1.546410007206294
C -0.911092871620847 -0.346189917910796 2.590201921595964
C 0.613261736635507 -0.237193764111408 2.968980072793558
C 0.838713945397876 0.802693069802821 4.112681799945818
C 2.318904108973979 0.877955840324995 4.608428945158002
C 2.432931819243109 1.931477303795952 5.618074033731083
O 2.754938157237725 3.103608479214216 5.388453893954704
O 2.204186272947516 1.444823686585417 6.898841218818047
C 2.012643713928824 2.460791848482535 7.995985467238621
H -2.465306757901341 -1.198169185852995 1.540897026652292
H -0.923101338090343 -1.117379635796669 0.558056452165659
H -1.196487407957960 -2.360585004747156 1.831492803068004
H -1.328039738025101 -0.748596293599282 3.542014113970824
H -1.337316114786368 0.707101261958203 2.383997292923290
H 1.028205521584073 -1.142322772568743 3.297767269386509
H 1.050476965463937 0.152737288057284 1.982214799048032
H 0.597524787547924 1.754805545388407 3.627855022051292
H 0.179333131919106 0.586510131991474 4.961530554677550
H 2.483527364840460 -0.138386358722207 5.046083001336113
H 2.985866482702737 0.987010259258603 3.759920518740081
H 1.886653567546143 1.838731090649573 8.910956741771487
H 1.058443860676453 3.088314758078091 7.985167542644966
H 2.887987000144904 3.072933082454898 8.098739610768529
23
maple-route1-mmgb-reference-mlip-reweighting-v1 phase=solution replicate=repeat-1 sample=76
C -1.471797094534155 -1.310604387040167 1.515165409623919
C -1.096129322504714 -0.448571357319288 2.748475867808598
C 0.493833638171389 -0.254619505460153 2.882273228883229
C 0.876893859212172 0.752384651214320 4.044450222362067
C 2.360630792259522 0.898960167689185 4.564118917506400
C 2.535400965943093 1.978353464655545 5.652111446399855
O 2.898964476323564 3.156709202652848 5.435444932057997
O 2.135851434158888 1.497126659057563 6.918438023800676
C 2.115393533342746 2.458475972977494 7.989064587312341
H -2.561020126233977 -1.329438100037355 1.426614998610921
H -0.991271942379371 -1.000368870849430 0.583491727952765
H -1.185007135414457 -2.395720098509387 1.679803026789988
H -1.512362438453210 -0.774730959438372 3.673154903941656
H -1.473056114518327 0.536808284656107 2.472597859947768
H 0.994300116020027 -1.196350306177884 3.143756904656501
H 0.810082328619487 0.099338233420638 1.898846839891063
H 0.463289662397495 1.746325831477124 3.702227215230546
H 0.320036543559040 0.297825310806895 4.904876533508639
H 2.609208528096268 -0.122477851980521 4.876140932016932
H 2.953511672871358 1.134936305377000 3.693693342714183
H 1.923779526279350 1.830882190279266 8.900083513181476
H 1.304054191670956 3.167904070225738 7.977548272365047
H 3.101738493723624 3.004227408464730 8.065992376727088
23
maple-route1-mmgb-reference-mlip-reweighting-v1 phase=solution replicate=repeat-1 sample=77
C -1.482701487670153 -1.310868895002735 1.512725328131022
C -1.118263310604035 -0.468454015363924 2.798304697724752
C 0.427425143593364 -0.225880956436420 2.925481351810476
C 0.791458030197542 0.746320561369212 4.130184511650167
C 2.327439039430007 0.925561385550752 4.479224286747050
C 2.566628465904035 1.965426916155054 5.610688340797125
O 2.965202820449822 3.087662244548492 5.462433281088918
O 2.101959099179292 1.571382845931477 6.865557836398205
C 2.250397219061821 2.440643233014753 7.966305667007446
H -2.594435226447813 -1.552560857338142 1.447616487846607
H -1.150692960033500 -0.860787615004696 0.568146363811532
H -1.012437189073063 -2.297622242585754 1.563714351088052
H -1.336835238929681 -1.073775506371680 3.671189532760648
H -1.620775248390911 0.429072339680937 2.811096047511022
H 0.883143673797140 -1.249503950825973 3.195540730542960
H 0.842161224812361 0.122874396795576 2.021748024413531
H 0.433661941295610 1.709525668127346 3.717944390622834
H 0.215209497226485 0.405911850402616 5.020333476062634
H 2.610281444657627 -0.060581683125242 4.731433524896633
H 2.806262905276189 1.233273749898517 3.536176606190722
H 1.814696616839728 1.971879232195429 8.832918175503989
H 1.670511438128464 3.339232484247790 7.836639442821005
H 3.318254424399303 2.810060722333795 8.144937001980226
23
maple-route1-mmgb-reference-mlip-reweighting-v1 phase=solution replicate=repeat-1 sample=78
C -1.411998476508644 -1.273503335804940 1.594931207219570
C -1.025927511718315 -0.530071599341884 2.819033874973634
C 0.451646426419557 -0.198535532139568 3.052392502002018
C 0.652889203088048 0.835928797910550 4.234959511258477
C 2.208240145428984 0.999396443658364 4.479896040193029
C 2.539847758356037 1.948427259091159 5.533941693942481
O 3.004783761607906 3.046959895439366 5.335801902273860
O 2.050789927064596 1.527471664745654 6.790779787027087
C 2.345463267236483 2.353601161714456 7.940877659259931
H -2.449463973570384 -1.641165111569055 1.664885114553228
H -1.363030590800935 -0.535993965925174 0.740948644394052
H -0.814607697445666 -2.122884350188857 1.338034608295140
H -1.372660464555876 -1.090906400750757 3.701433946662492
H -1.506809598023670 0.431938981223620 2.727221831954374
H 1.010408925199101 -1.155241583675494 3.173207978756969
H 0.854914731270554 0.365314188071656 2.168752143041952
H 0.178830169012934 1.738774238327151 3.936253129454435
H 0.158608919265494 0.379564245064657 5.102482442796439
H 2.384178550490462 -0.006256268580662 4.883936585317072
H 2.724952852706563 1.175580448744679 3.525563337908140
H 1.754020667805148 2.177051964638165 8.827698830898999
H 2.140729540809592 3.393731048335762 7.611902301612775
H 3.383112108781450 2.428662134639459 8.122933143142740
23
maple-route1-mmgb-reference-mlip-reweighting-v1 phase=solution replicate=repeat-1 sample=79
C -1.317617530709510 -1.237281542754628 1.612708350533156
C -1.094637394953358 -0.489608659687729 2.960404323906495
C 0.395879233055925 -0.127781377251151 3.105165684283651
C 0.649338053810805 0.851750606649578 4.217354285329314
C 2.119067868689839 0.910914212471527 4.486126172890082
C 2.480375039282231 1.949507299372297 5.489404791974596
O 3.027917609301014 3.035239886194747 5.281410855725408
O 2.076085787632128 1.578500749245593 6.727560518268456
C 2.427454135129268 2.263508955861310 7.910368920723840
H -2.226141079446068 -1.776091071288941 1.578265385797228
H -1.311069496458477 -0.557479554344207 0.740601750867679
H -0.565849577125103 -2.020814780844262 1.415991799522162
H -1.305776594992940 -1.201021071007112 3.775749497486848
H -1.741464945068032 0.476979606737499 3.060544978028044
H 0.899067985113062 -1.046790222729994 3.289582839821440
H 0.910480784465650 0.354444581263734 2.176294600259163
H 0.244494935856117 1.838288538253656 3.972495898829692
H 0.107704859916001 0.395113533239053 5.017183427657237
H 2.422535772459499 -0.156525406530863 4.780200457400118
H 2.498765820705798 1.282915682088960 3.529057167465814
H 1.803823284753288 1.999444424241874 8.788164370450707
H 2.311465706558574 3.328160615670355 7.695719611187730
H 3.462256322440112 2.162018635193475 8.086024069814780
23
maple-route1-mmgb-reference-mlip-reweighting-v1 phase=solution replicate=repeat-1 sample=80
C -1.307400624934566 -1.234701097777511 1.613198624449968
C -1.194073693523204 -0.529115594619272 2.968533984404869
C 0.261824351546714 -0.103739901552921 3.096309604622189
C 0.647134512803605 0.877835469640403 4.223823477443318
C 2.178814011235662 0.940414215335469 4.449197119748884
C 2.560976268905337 1.939711227374627 5.502067119102065
O 3.002082654837153 3.072610049999871 5.257311006653572
O 2.098990765658901 1.530833042028885 6.763016061055133
C 2.518026707151174 2.246890510123357 7.910026382853542
H -2.284930925330417 -1.695876780102171 1.510977752724896
H -1.209714193729730 -0.611588652621706 0.763591657253409
H -0.625645967382650 -2.088464511373804 1.523576294238087
H -1.447454025669496 -1.201395748442767 3.812936267896390
H -1.813835758689932 0.401574716667261 2.973768524906539
H 0.873906624213392 -1.029667158680597 3.108978048922965
H 0.607495075667689 0.431450452378144 2.245363402381016
H 0.257443942692559 1.910807228262646 3.992043730025695
H 0.054788639229373 0.503006152439209 5.069570162459707
H 2.436651002199298 -0.047337150088514 4.855167749779464
H 2.659582355390246 1.200142930703716 3.478700918243907
H 2.046365238335303 1.808645975144356 8.795984060776936
H 2.277375004150276 3.299845884065451 7.815660949641630
H 3.660800955860131 2.162527067984157 7.985324242370446
23
maple-route1-mmgb-reference-mlip-reweighting-v1 phase=solution replicate=repeat-1 sample=81
C -1.492484017841540 -1.304485514384308 1.614917934093739
C -1.191424871917487 -0.533177917934191 2.879069999335799
C 0.278325555201407 -0.046730385858320 3.040801181643391
C 0.606947163995280 0.901543450885146 4.267948164815708
C 2.188772517326334 0.978465032720285 4.413949803620232
C 2.610255433995774 1.924315368054340 5.497406360303115
O 2.942228749174922 3.068849457213073 5.324847905524587
O 2.230127736402178 1.462059384041553 6.779115231580041
C 2.606847399703184 2.311077239660251 7.917578029318564
H -2.571936400232473 -1.602199698365398 1.533232409328952
H -1.306907254832934 -0.720229042464303 0.738111199382382
H -0.951547415790698 -2.222037901466615 1.577786130478918
H -1.425994397223502 -1.121697319004831 3.786327701783029
H -1.752930530270651 0.318675437430926 2.874724843840339
H 0.871986259266794 -1.015679646477281 3.093933403773556
H 0.702153936208517 0.389580788195827 2.208059734759541
H 0.184074242738035 1.926870212190702 4.103114396763319
H 0.022672878583161 0.507333906336696 5.153814452596252
H 2.390357933954052 0.067704252048726 4.906980914245968
H 2.701395378808293 1.161287595928533 3.445409133552995
H 2.315657802377270 1.698830737986884 8.757411881281575
H 2.132642227180409 3.324121230127749 7.985332872775604
H 3.743433777669399 2.372701089968887 8.016837478283092
23
maple-route1-mmgb-reference-mlip-reweighting-v1 phase=solution replicate=repeat-1 sample=82
C -1.651838766556428 -1.347392073396951 1.675129666685355
C -1.209731514370757 -0.420928742256519 2.881472580974809
C 0.303901904602676 -0.079002028731114 2.949604999048287
C 0.642724009753635 0.819771424941807 4.166533142036096
C 2.127289256364300 0.962305061612470 4.453493735458793
C 2.548200144705184 1.955823953445480 5.559906306400505
O 2.898035578998004 3.111470205330908 5.325570196579276
O 2.451855685018274 1.394289308990687 6.849497478470879
C 2.658337320609299 2.330720240984635 7.892271497749981
H -2.725521039058492 -1.480336877616632 1.557720374834901
H -1.362497974287715 -0.837885403647412 0.721984964978781
H -1.208040385794542 -2.348557856171140 1.754397082511498
H -1.388102653755008 -0.910704536639442 3.812525130860703
H -1.736888973484123 0.486361512588720 2.871803894144626
H 0.855906904136702 -0.993737002402041 2.913411141502636
H 0.770203575537024 0.439572787160764 2.047275011129457
H 0.220117110332021 1.800289969924493 4.008708688338134
H 0.069067897230189 0.437021144594844 5.037207208500149
H 2.520074977125128 -0.009385070456814 4.722647608517528
H 2.427936971121267 1.469808002480517 3.543628384393148
H 2.464228175880499 1.687922004664611 8.775267143071039
H 1.922649543183393 3.200106586035569 7.920289594676801
H 3.671573475058246 2.648450615360980 7.986830733371671
23
maple-route1-mmgb-reference-mlip-reweighting-v1 phase=solution replicate=repeat-1 sample=83
C -1.705224908348823 -1.287250496437145 1.783126867773029
C -1.257826217477249 -0.319389988922223 2.840348931284673
C 0.234067006190566 -0.113527914740774 2.937278255729578
C 0.684711198536602 0.774564131393117 4.091908157729067
C 2.206494403915602 0.891330673406764 4.428285564019431
C 2.458743248135930 1.947693699450487 5.535332375289763
O 2.776869569799780 3.138335095248583 5.340723058995414
O 2.619089984886183 1.393711424600050 6.813209678293099
C 2.744682490794239 2.299871456491106 7.942012302627165
H -2.771579623325997 -1.319604902429728 1.821197795225026
H -1.462079020866431 -0.932848020568178 0.744465210384704
H -1.325295045071180 -2.312348489863641 2.054369723175599
H -1.558589660299514 -0.649922703774110 3.821864494157730
H -1.732576998994969 0.704130325377857 2.611989038510190
H 0.783391872854306 -1.003014444583474 2.837858103317617
H 0.618654090754304 0.438114205236945 2.009666772343842
H 0.100558182361718 1.687381844243310 4.156959009037874
H 0.309321544941143 0.232719537940945 4.942335586661438
H 2.473233000560892 -0.089790290255824 4.897386777656392
H 2.700726750937352 1.192637240490651 3.519511918831297
H 2.772676600936912 1.698775265164861 8.880825370159441
H 1.874597767034362 2.943746769550645 8.006034284894410
H 3.629562504785188 2.924726477519913 7.961723369963271
23
maple-route1-mmgb-reference-mlip-reweighting-v1 phase=solution replicate=repeat-1 sample=84
C -1.799337644924438 -1.267495130459968 1.825186220045940
C -1.310991128786119 -0.172271784317789 2.821130839796424
C 0.277197145097870 -0.075277979660064 2.918157020218582
C 0.710006071127696 0.732222629710158 4.210510417017876
C 2.264997620303321 0.865558105397922 4.490463065460760
C 2.556670014099919 1.909544849593045 5.491480352185397
O 2.560279031207337 3.118219388565087 5.267824997811729
O 2.660782966123926 1.390838614122074 6.780362138772164
C 2.864280168126139 2.211936965022256 7.927415789345964
H -2.921269054805326 -1.302318338351333 1.751029370314996
H -1.441728242196868 -1.042253001636232 0.826623837430607
H -1.431413333422876 -2.229463711678398 2.246114542825671
H -1.593647079550057 -0.394076000457846 3.899862774496875
H -1.770493518112520 0.833368755288494 2.507608352325461
H 0.730051806040701 -1.112338154851792 2.973981369412468
H 0.773998441917951 0.241452133286371 2.059058864449682
H 0.347360240182806 1.733601866292267 3.935440989805886
H 0.138664437709830 0.571245531851156 5.117087740967739
H 2.618448807441350 -0.085620339602366 4.944203841526034
H 2.717229497307598 1.123997402477552 3.502976890219131
H 3.185626313840507 1.695133864465475 8.834448543875741
H 1.940619805112182 2.662547419045798 8.108963771774413
H 3.561166132827558 3.062542954295296 7.740174595501887
23
maple-route1-mmgb-reference-mlip-reweighting-v1 phase=solution replicate=repeat-1 sample=85
C -1.795228989100194 -1.217397286496619 1.883362095147244
C -1.257277577611449 -0.067383998195098 2.823452532781207
C 0.252740467543328 -0.079690151642881 3.074736838994430
C 0.713994296163873 0.846455836574666 4.207829724197094
C 2.220893460909404 0.793537341654576 4.445619987742548
C 2.573721760382671 1.871177520005447 5.454946755603881
O 2.377057300911263 3.054036692782336 5.254118713536107
O 2.737165536348885 1.342763788503225 6.751705011026391
C 2.976285020895805 2.179198853200712 7.847685026869967
H -2.926594130578724 -1.094114490321438 1.796209226159158
H -1.416463226585286 -1.068794616961733 0.884814287478404
H -1.552466066207870 -2.161313842937557 2.335522266708352
H -1.715110676668637 0.007443418088716 3.843782977953150
H -1.465430825754598 0.809295899479036 2.256100470606949
H 0.642196007094534 -1.092275464254708 3.365236329633569
H 0.794176309838472 0.071719482248344 2.201383603304936
H 0.259617133747007 1.850569609498800 4.069196631738684
H 0.236509159759644 0.614906084170749 5.200397195941253
H 2.475957272846558 -0.196667314905663 4.795952955190788
H 2.732656021749105 0.994197201720984 3.458851049726871
H 3.446435686021230 1.716361357197060 8.696989244048694
H 1.983272608052787 2.607041830865466 8.067090308614487
H 3.584643682720057 3.031332052599691 7.510311163255531
23
maple-route1-mmgb-reference-mlip-reweighting-v1 phase=solution replicate=repeat-1 sample=86
C -1.742475592138007 -1.111874402041422 1.968456303954674
C -1.266287185060586 0.060205090608032 2.793489957348002
C 0.142985033786632 -0.219828496827545 3.225306406177055
C 0.663510787591742 0.847474379060422 4.143701451508996
C 2.156503469975836 0.783663530082076 4.456440095026871
C 2.469757955432130 1.835905518801625 5.463680770819420
O 2.348054788849988 3.030887955305783 5.303963187942320
O 2.904024080819980 1.297321469757456 6.647097637760150
C 3.063305178454346 2.190682253054994 7.755844264608477
H -2.793578695305375 -0.970881479312101 1.838825781545965
H -1.266328699753289 -1.136582336874866 0.976517384914335
H -1.544715087844031 -1.978301617406088 2.580075066086949
H -1.803386882451800 0.047054458583251 3.704222129804924
H -1.439063131631410 0.974480446483483 2.294857269302314
H 0.414486807597983 -1.156064296530063 3.600197212113679
H 0.781169699668273 -0.112808559275317 2.278465299766408
H 0.275484226473727 1.798497267082162 3.790827400874072
H 0.147830076156889 0.813200491041780 5.131771498034716
H 2.484626919425811 -0.245415652202335 4.645696457521480
H 2.687278324218217 1.121268702740956 3.591786872295351
H 3.390728898339715 1.648214760255241 8.647187345437411
H 2.071462371222612 2.769051032707991 7.913081394169293
H 3.837187165346405 2.888559451055930 7.539867820277317
23
maple-route1-mmgb-reference-mlip-reweighting-v1 phase=solution replicate=repeat-1 sample=87
C -1.888090207620715 -1.119778530919469 1.920269801479065
C -1.316994945852197 0.058471151575662 2.768005679554632
C 0.104880969296507 -0.268701024746399 3.293142979333724
C 0.623370343873083 0.881983646645069 4.145977157194192
C 2.112711911595574 0.832371469112239 4.446492685810085
C 2.489439041122702 1.850206687779848 5.472414608450588
O 2.363388796093350 3.089904279369290 5.325862999215193
O 3.007981419223960 1.250630309772600 6.606456361658598
C 3.196818863286102 2.163696722429481 7.775706019181719
H -2.798655118667444 -0.877543593661627 1.491415822755342
H -1.152971159333006 -1.215124305038134 1.094597466045135
H -1.904509378338143 -2.051195798658229 2.524537108779969
H -1.934252027109314 0.319875604624193 3.598048007988119
H -1.312287722476454 1.003818761679887 2.156779784738140
H 0.131735174757388 -1.147181526274387 3.953724492219588
H 0.869496283027727 -0.531817172096136 2.471717240837512
H 0.313183374184137 1.794675154987343 3.661932084545781
H 0.087291487071943 0.983470496282734 5.059265634421494
H 2.353648540759875 -0.201718189362091 4.729507507444798
H 2.738032732916490 0.978883056538820 3.606338930915837
H 3.461246878999490 1.534429762962566 8.671326016511662
H 2.329466676067329 2.798336818346379 7.980132931492027
H 4.125745210493291 2.744754173143218 7.674765069903917
23
maple-route1-mmgb-reference-mlip-reweighting-v1 phase=solution replicate=repeat-1 sample=88
C -2.032887275425849 -1.176120308833284 1.847099105139190
C -1.357716074803111 -0.045076320489523 2.661693264315217
C 0.004699664038858 -0.252571124508355 3.335344085354314
C 0.594454636493637 0.960086105576426 4.187984107641372
C 2.132060557502491 0.886428015090860 4.444239086322117
C 2.620439019433411 1.889079062278770 5.494977145267038
O 2.413112418122339 3.113938139005030 5.363303410400779
O 2.977732242037432 1.288644861626899 6.667028094599400
C 3.363016096532483 2.080074675680932 7.755692113260332
H -2.924444143200508 -0.718680767889767 1.353292893721125
H -1.383787615593183 -1.506510700973847 1.041683692957133
H -2.346340207744886 -1.995747705013251 2.523981462945971
H -2.072266757714340 0.409081860447301 3.430986446264312
H -1.135813407989753 0.853094887863539 2.017903564354958
H -0.128988861292291 -1.133496623102121 4.100150972699246
H 0.730877385877451 -0.600194750248497 2.626426668080639
H 0.436906664569189 1.853872578027750 3.572750270921845
H 0.039878948781812 1.224261722083397 5.052149977310164
H 2.369296157516378 -0.138551014469370 4.738186521858887
H 2.772040324939868 0.952458645333388 3.543701831894192
H 3.699167446045277 1.329117092263261 8.500345931692376
H 2.579414564648231 2.665302228970698 8.151941152256931
H 4.331752680848247 2.630283215247951 7.593846574932597
23
maple-route1-mmgb-reference-mlip-reweighting-v1 phase=solution replicate=repeat-1 sample=89
C -2.011104559082967 -1.178941323986428 1.921086176002917
C -1.414195434066578 0.039780148684704 2.588986113989051
C -0.073397532041212 -0.280047653737184 3.375731747175421
C 0.553090476770853 0.944077448048782 4.076607762223266
C 2.044559477557707 0.903854213453188 4.413985956794473
C 2.534170726845990 1.913162483627823 5.539991664899052
O 2.548544798150250 3.129224304988227 5.409822853201987
O 3.000551678050600 1.253619245805353 6.665666798731660
C 3.509347595143653 2.029260773074112 7.740371277174825
H -2.971668859459219 -0.885360945452189 1.358307801482567
H -1.349310474806330 -1.734506904649578 1.251546476998428
H -2.324509677660904 -1.788829606922333 2.767676781170374
H -2.195768723302042 0.466378229537296 3.300560351034083
H -1.160218301432429 0.889064856478100 1.982774054145604
H -0.196490059393243 -1.094852672066307 4.124293306863066
H 0.632659055600960 -0.616128396729374 2.623395839535803
H 0.309827981454252 1.885057095176830 3.574596449455672
H -0.009566660676028 1.068511792048407 5.038876135095743
H 2.314327965700546 -0.134957721104868 4.662005541271329
H 2.650801911469593 1.102087336428336 3.493769796733534
H 3.886088447799429 1.358163066806873 8.483011827903024
H 2.682808652675792 2.606254090481978 8.222696000887421
H 4.357422207585568 2.669819773321939 7.487539688631584
23
maple-route1-mmgb-reference-mlip-reweighting-v1 phase=solution replicate=repeat-1 sample=90
C -2.006830321889059 -1.182370805102010 2.086296055502920
C -1.415041830202578 0.132236950017078 2.593924559164815
C -0.053384540706592 -0.217353688709990 3.341327149839391
C 0.499546635827366 1.000239163164304 4.061895837418833
C 1.977815838203217 0.935075049914946 4.455029361032391
C 2.382324729537979 1.893756294819787 5.575983147405696
O 2.656475139339971 3.036458288938578 5.377257576278602
O 2.992599866437965 1.186484422651890 6.572930568449999
C 3.596826572372671 1.980730746556266 7.708162773777696
H -2.846558787045459 -0.970538700595063 1.440855493908229
H -1.239724185354857 -1.666283507336846 1.438235479366548
H -2.332182212194718 -1.905873836063746 2.868695237895117
H -2.072867896023761 0.683521492427121 3.197890578998424
H -1.044206294803846 0.821940253715387 1.868225958734269
H -0.240491731061918 -0.933667354116293 4.064806246562769
H 0.702007605777292 -0.617407495261146 2.571519772466146
H 0.339075554661904 1.955615022511822 3.559513929742228
H -0.191628228964088 1.098326354495090 4.980458680899665
H 2.261048009029040 -0.110858409028015 4.741410544814722
H 2.552227187226137 1.236135546714121 3.569557412472138
H 4.058291725969579 1.436045355134211 8.526154881194724
H 2.737486576998342 2.571047343343607 8.195275898479283
H 4.287978984515417 2.699262262243805 7.363222579044111
23
maple-route1-mmgb-reference-mlip-reweighting-v1 phase=solution replicate=repeat-1 sample=91
C -2.053794408219940 -1.185867744582183 2.158542928779488
C -1.352050620421772 0.083264067612336 2.569713693296934
C -0.013911441138598 -0.080296935951982 3.307750353438889
C 0.433846087637491 1.169740169907528 4.142563630032070
C 1.941180109472571 0.869461308963848 4.519606899386553
C 2.456581493012534 1.852006443604140 5.547846125124823
O 2.612804409778727 3.043922717761560 5.321567411836528
O 2.954008074717995 1.159373773547483 6.600322007882868
C 3.657726186660264 1.861801445778318 7.615105818278455
H -2.904270136585462 -0.872045928983363 1.625182774283723
H -1.364351515450108 -1.720081934050092 1.465893356128972
H -2.369754976779884 -1.880130231457748 2.969544557771439
H -1.943194144912450 0.547396489281821 3.271186095738416
H -1.125940706790257 0.833508909408570 1.818564042285886
H -0.133324120577109 -0.917236683072701 4.016309501477037
H 0.742225500926920 -0.290708092495402 2.523211106045560
H 0.518724713093799 2.088482591345875 3.493748231532079
H -0.260631469152443 1.412938839833062 4.939468545208314
H 2.006577971356760 -0.105533876102068 5.010765580927106
H 2.565471662351532 0.873025621388151 3.613807036412544
H 4.196901245744072 1.280273108084840 8.428690826532318
H 2.934676722391259 2.487356936197141 8.116049539058649
H 4.351769440859588 2.542304141924323 7.085054794807466
23
maple-route1-mmgb-reference-mlip-reweighting-v1 phase=solution replicate=repeat-1 sample=92
C -2.043639526504083 -1.201780869880836 2.187019919922404
C -1.452253656445200 0.171526618891264 2.578306041444676
C -0.036218736742011 -0.041230686839913 3.248194886249954
C 0.490041364695501 1.138754872045918 4.057019621239777
C 1.897942898362091 0.821357003098059 4.553862687813837
C 2.531802479930552 1.821590159731683 5.535192464316172
O 2.582865535408639 3.038589542141013 5.328029140999682
O 2.958058260382414 1.218883709107669 6.649060212858560
C 3.712666192006381 1.836668008291380 7.608035890654017
H -3.065199544369679 -1.093315386291824 1.751032515965868
H -1.351052893005903 -1.754353399683728 1.553905024420600
H -2.140489076261533 -1.777679768640874 3.100159484303588
H -2.097458081490260 0.749124731736124 3.287048265203422
H -1.240288047264225 0.855460386344666 1.757429598580346
H -0.062568411448565 -0.909670528208731 4.012576224774616
H 0.626218048151580 -0.209523570220074 2.459504671577944
H 0.510784816903418 2.098102151088658 3.495543034872012
H -0.136486773282447 1.206590415581502 4.905559248367085
H 1.836447390519492 -0.097450863492584 5.101674945114134
H 2.515796142126678 0.688563624757864 3.651576907286347
H 4.057521728436293 1.112859798443989 8.379324603872956
H 3.167795730188392 2.586492905572498 8.138753269738483
H 4.627421805121364 2.238971529199550 7.025772514761368
23
maple-route1-mmgb-reference-mlip-reweighting-v1 phase=solution replicate=repeat-1 sample=93
C -2.069809527513943 -1.172225389406143 2.173121396215631
C -1.542267702747114 0.180819362400119 2.596054703543468
C -0.090318961671162 -0.048275843360401 3.171481868502604
C 0.511747008351798 1.111186717661091 3.974688336349065
C 1.912439554099965 0.782745682393325 4.563076452843646
C 2.468878379472520 1.806296634643689 5.593770818291217
O 2.627121590866348 3.009196717459137 5.341806254727661
O 2.988189050796468 1.147123269741701 6.703057872571005
C 3.810769421760503 1.957745094254451 7.629992031329413
H -3.112079765772113 -0.986025482575551 1.755977090917527
H -1.385535399385026 -1.681629654514271 1.495170461918166
H -2.175048100557960 -1.769749413584342 3.060707915274200
H -2.138095930172049 0.777029556780670 3.388204868342604
H -1.439566060378315 0.849449165172422 1.726137929301327
H -0.109066862133011 -0.829200643378172 3.934670197545654
H 0.573344133746299 -0.266348734452863 2.316097415982508
H 0.609540726964707 1.959629833101632 3.352259314622134
H -0.149415756835595 1.280352093300547 4.868211895907812
H 1.926022898244815 -0.239703777910100 4.989082333561755
H 2.507932236577789 0.916043910288389 3.657870328937974
H 3.959590919159365 1.428401585188750 8.572473583388469
H 3.377609735929095 2.928595133541504 8.000761629988203
H 4.810042409129911 2.088464718643609 7.198794269602724
23
maple-route1-mmgb-reference-mlip-reweighting-v1 phase=solution replicate=repeat-1 sample=94
C -2.224437998550679 -1.148575605462933 2.089240513939981
C -1.514510907909465 0.118141547612735 2.632781886014596
C -0.103086093884935 -0.082490839257640 3.160713332860809
C 0.505616572638315 1.177034523134346 3.971903468124934
C 1.994215151677023 0.794830016906804 4.564563028235860
C 2.429304287047988 1.792982016859391 5.642560013449007
O 2.693694752384967 2.925693366482083 5.361658450222054
O 3.020109906765367 1.133792632356609 6.708884986935281
C 3.812793713904182 2.053348303980281 7.606596310132318
H -3.178189720198630 -0.750736365319268 1.787198861536687
H -1.618147498216759 -1.618058027084933 1.280771152833109
H -2.395440828088597 -1.895159314336020 2.896906533290637
H -2.002535486676159 0.548721113144634 3.515203570019967
H -1.561878889109221 0.946091008123506 1.860579824186932
H -0.063210095592561 -0.829927026301924 3.886307552066544
H 0.623624898911703 -0.233219116421547 2.285494622348389
H 0.643359315883800 1.962814441341028 3.232816490728004
H -0.158535432255716 1.451272844116191 4.829020920522240
H 1.854498614779478 -0.157023543193786 5.131389159739131
H 2.740850269632207 0.753948703756038 3.761402007083499
H 3.869929665972359 1.584052416020767 8.580092712913416
H 3.331385616544092 3.008873982117138 7.940116286061376
H 4.802690112709019 2.197825384041220 7.305474951519678
23
maple-route1-mmgb-reference-mlip-reweighting-v1 phase=solution replicate=repeat-1 sample=95
C -2.295748445051999 -1.063161246648853 2.046773367054903
C -1.531098088725699 0.176574466001415 2.746077491172140
C -0.048694060292575 -0.160211863119458 3.187475393778254
C 0.586765538204010 1.068671886175348 3.972069817970911
C 1.935157246921610 0.739852132846424 4.626304095427234
C 2.551259972961922 1.814615834823730 5.581445088885947
O 2.698705785737460 2.987065826331766 5.272563617239268
O 2.997386666237297 1.218445918346620 6.724429657853167
C 3.730859452511301 1.992355396041383 7.613786942285844
H -3.286946149132635 -0.787410412590140 1.802418545529172
H -1.643338952226596 -1.318866141660670 1.189382230922502
H -2.282811038382075 -1.966061193589917 2.706438471925444
H -2.020724376040738 0.576288413144563 3.600152451636103
H -1.544621372930104 1.020173344923843 2.014678331505838
H 0.036062502009459 -0.985458579336352 3.912099362852675
H 0.612308954043639 -0.319040925740391 2.358190033541613
H 0.763887420804587 1.895217838871516 3.204971142328445
H -0.042006667664804 1.300600923985664 4.789157485882384
H 1.818864286436292 -0.197479201968257 5.171805064769066
H 2.610076156001419 0.640664582244576 3.760201926884065
H 4.002738265259050 1.309383143773625 8.417247800825757
H 3.148003590445295 2.713219518373831 8.077881470491112
H 4.651342667794384 2.387886643106619 7.171141451617715
23
maple-route1-mmgb-reference-mlip-reweighting-v1 phase=solution replicate=repeat-1 sample=96
C -2.189584775172435 -0.883933829566857 2.056118678518846
C -1.513108815978142 0.196947524123574 2.810368932469985
C -0.110514696075907 -0.164521933969688 3.239277537601349
C 0.585012533088691 0.971827993410387 4.019757443562952
C 1.947838247105679 0.630259741969972 4.594697544216581
C 2.565065842459777 1.770333646521900 5.492858245455547
O 2.715828657721911 2.979942047283104 5.150245700245223
O 2.942587847259779 1.253189035158615 6.702198050234069
C 3.706004541394786 1.999096671977613 7.674628265479635
H -3.267617760738926 -0.596988635359224 2.053297296470968
H -1.712966403920012 -0.989997341410503 1.101890990223871
H -2.055865724604405 -1.797702681971244 2.607973144107887
H -2.086168364594320 0.393382808211728 3.738181271453588
H -1.571567844855602 1.085449418826326 2.256059597334335
H -0.127292840950318 -1.038723799942739 3.947453696696099
H 0.526932143309725 -0.371750842131911 2.439717140939283
H 0.727535558736110 1.847464919441155 3.365646289090543
H 0.017343504304852 1.158805769482440 4.913907444949261
H 1.858442251677023 -0.275393892000550 5.185103791246154
H 2.618492638439073 0.469255636067647 3.728076956214639
H 4.301391884616753 1.290475980373557 8.301138020167356
H 3.023013306155349 2.519732367318258 8.298512942430348
H 4.414554352889916 2.724508930124086 7.176839556999997
23
maple-route1-mmgb-reference-mlip-reweighting-v1 phase=solution replicate=repeat-1 sample=97
C -2.207075963781167 -0.800295230087466 1.985629679392662
C -1.510345079791578 0.233051087011711 2.921020371759872
C -0.112877589766002 -0.154555813049082 3.346946349633435
C 0.548239452281105 0.982447356639587 4.155361196312158
C 2.064179920083279 0.674532883918140 4.558004181281948
C 2.493949235668375 1.697134274218481 5.483618460425919
O 2.801007403322399 2.789134237622432 5.037784274403712
O 2.956723955263709 1.205775755852053 6.654209499732447
C 3.608998520215678 2.093129053898739 7.646471475096641
H -3.294449539852993 -0.559877171846816 1.991220138404119
H -1.748674061151470 -0.836636898109595 1.006719387599388
H -2.083412796779362 -1.773328868194302 2.399595468084766
H -2.135335525032879 0.499200263488037 3.820035881439792
H -1.445175223059970 1.186060925602379 2.400871457651033
H -0.156395228194855 -1.083894788408364 3.926533613448559
H 0.573838807248627 -0.301255289397277 2.476884770102367
H 0.607621582913180 1.833141986865290 3.541484272790813
H -0.038743638181800 1.219817083896743 5.105083396217671
H 2.056598024431319 -0.255494459135869 5.137646538544981
H 2.753790432118908 0.644962168066240 3.710846675484654
H 4.329081045181750 1.586839060904831 8.337722301125815
H 2.773235398171274 2.686788063062839 8.193422423745259
H 4.162593332929391 2.902360507359753 7.127694089082540
23
maple-route1-mmgb-reference-mlip-reweighting-v1 phase=solution replicate=repeat-1 sample=98
C -2.230370101947551 -0.744353027859768 1.944637208169655
C -1.574387772410802 0.255768782686136 2.977126333468752
C -0.105923680156612 -0.141910416403812 3.373378511321085
C 0.525449096143593 0.926944901864119 4.270799067593662
C 1.994969811529726 0.562881915014781 4.555116195556111
C 2.599511122701883 1.694272296891892 5.442741447666949
O 2.958071431393882 2.776906698205207 5.023066109202967
O 3.013172163350673 1.215841970790652 6.649145802783839
C 3.466486529587758 2.176360332280971 7.570358551619902
H -3.243924040264373 -0.467130895721752 1.710868256789490
H -1.593657911303881 -0.850976529928680 1.059011681442576
H -2.272025858926902 -1.788140510968310 2.347814880906887
H -2.187908733371812 0.366700624702613 3.872657055776151
H -1.547994331331686 1.333024193073974 2.586787086547015
H -0.218633122311898 -1.044948965069764 3.957595975280936
H 0.617184006965378 -0.393227628591605 2.508801808719849
H 0.588870596742901 1.952314986670080 3.824996521838455
H -0.008566110442186 0.997348925007655 5.257560841398759
H 2.006283345111846 -0.465380498774372 4.977444183477877
H 2.518497747390227 0.586439141707484 3.592957891261207
H 3.992974741296904 1.752751986940621 8.460337892589887
H 2.600067206889700 2.906150255545368 7.791011966658964
H 4.201739761805163 2.851798252380960 7.096477799738853
23
maple-route1-mmgb-reference-mlip-reweighting-v1 phase=solution replicate=repeat-1 sample=99
C -2.194253190879524 -0.677684668383365 1.978146382214026
C -1.657624139683625 0.228351152125036 2.975144109402851
C -0.228686589235577 -0.152497686797334 3.394640043976987
C 0.465788573379755 0.838335136726903 4.347973594292207
C 1.980847947683034 0.557569107290426 4.593808047163613
C 2.895946167057060 1.641578337397149 5.334651898765702
O 2.984913385071421 2.773788842498446 4.923645508015119
O 3.033446935279993 1.264127432135457 6.654637497302644
C 3.404220910873635 2.235823951867925 7.605887302885349
H -3.091639055794836 -0.170002830618408 1.625740101709531
H -1.449169141948818 -0.861699326312899 1.144674261956192
H -2.497993828708332 -1.683775931719526 2.356356216818953
H -2.354881318675805 0.255269716544291 3.786964464411329
H -1.621847173462302 1.270511590768033 2.610019456448750
H -0.182805512614955 -1.220427402120951 3.705607550834407
H 0.394500865698040 -0.072425933485640 2.510649951902568
H 0.381844966020955 1.949337800287695 4.016810093928190
H 0.003176699722637 0.788404999745249 5.305891446948171
H 2.031704655649551 -0.421806102730458 5.081852920207216
H 2.491326604783289 0.398317137627647 3.646029932258368
H 3.440607184292192 1.818184500514966 8.616822202120717
H 2.814177023541599 3.095662381519694 7.521004225693058
H 4.452523419257440 2.582383531709061 7.449338361477622
