23
maple-route1-mmgb-reference-mlip-reweighting-v1 phase=solution replicate=repeat-0 sample=0
C 0.574985295303312 2.663011755684717 0.245915863098535
C 0.493964376930495 2.713780818321046 1.828664501264198
C 1.339629417110901 1.635204738038046 2.579184744064594
C 1.064823233280864 1.467115548593675 4.132591676318881
C 1.508841454672574 0.072484827392811 4.715711226444373
C 1.232867210059974 -0.000219476966764 6.209646530097891
O 0.071940201280084 -0.129037239791209 6.670841143980724
O 2.322917532357523 0.234966380628907 6.952713861600301
C 2.242125364447100 0.267947422210900 8.373967516349657
H -0.085156028536682 3.344166357344015 -0.285739937209029
H 1.583729917578697 2.741090518715717 -0.212911978489567
H 0.211104931005135 1.715503277339099 -0.096799906292550
H -0.539883310753233 2.621921915756920 2.137725003525962
H 0.957141896758889 3.632532110126263 2.141383153215121
H 1.165931375351790 0.722844131497331 2.031461738951037
H 2.380902765008206 1.961236126823525 2.437510092276315
H 1.431364863083990 2.307320402664852 4.721056222797950
H -0.069983268177049 1.591481650439910 4.236896362466252
H 0.970974644611472 -0.703594241248162 4.182909907283827
H 2.576469511934884 -0.157601927245994 4.605034821487492
H 3.102701089074839 0.841473713245269 8.736190947456553
H 2.181415988274424 -0.680604781414134 8.942467142407533
H 1.440786882802406 0.910052099209693 8.831713624896224
23
maple-route1-mmgb-reference-mlip-reweighting-v1 phase=solution replicate=repeat-0 sample=1
C 0.528461740574724 2.742162691377356 0.321411859015805
C 0.580721085079839 2.876805798577840 1.863532235613544
C 1.338409939832337 1.618205706417131 2.528306639392609
C 1.020306491182046 1.437518115304214 4.026015988314954
C 1.476855460012046 0.089563756975805 4.664895279216058
C 1.242286847516424 -0.041505878666768 6.209915457931209
O 0.153974511660301 -0.316904876522313 6.704701760308791
O 2.364946818875532 0.217889751533749 6.962656932255892
C 2.158105982286612 0.311180880477037 8.413284305559586
H 0.130069562141621 3.634852258203797 -0.159499496664252
H 1.537533223252364 2.590807048211448 -0.068552507326630
H -0.072126370414700 1.920845378208941 -0.102337100424360
H -0.469203298224837 2.844528710717250 2.192698883761412
H 1.044704255229196 3.811466321329699 2.126246209545381
H 0.925366872828020 0.801991808849779 1.986666561308229
H 2.422317516099171 1.677043247809311 2.379004659284802
H 1.564887916902814 2.180748292531311 4.545307147938036
H -0.052286037847471 1.690972072271129 4.229964441913635
H 0.878883792084129 -0.677838800328108 4.159036276172829
H 2.565000535968861 -0.044342765465494 4.516657525355267
H 2.931097908184368 0.839852290604204 8.993027696593716
H 1.956528783097037 -0.604529376032947 8.932348744742626
H 1.317887584800670 0.893917431794997 8.690131592155451
23
maple-route1-mmgb-reference-mlip-reweighting-v1 phase=solution replicate=repeat-0 sample=2
C 0.530770391466606 2.835482759377429 0.452737352380590
C 0.708207538416336 2.855418799654780 1.920630443234936
C 1.182482924867916 1.526572607045786 2.515412067393824
C 1.007892495091068 1.448292429866649 4.045577886652015
C 1.540513789203197 0.132117214465878 4.648197859259398
C 1.220901682752711 -0.031999051065844 6.194836407361927
O 0.209412139103334 -0.480867493553530 6.614538725520034
O 2.319334156169876 0.318663544908118 6.954335152429231
C 2.145332967904908 0.323128856539596 8.367694287690865
H 0.351944586945614 3.897348761650792 0.182496561345831
H 1.442397775785464 2.502593867316217 -0.030306892429738
H -0.314595297236906 2.265389914215327 0.042777995896205
H -0.312011783843101 3.075629478182825 2.306289054466004
H 1.408083645130197 3.723078777496079 2.144672034202481
H 0.623515506441369 0.708576062020700 1.988862124533042
H 2.243600897166779 1.483346489105280 2.276433852007782
H 1.487276314763724 2.322081295061390 4.591090536470559
H -0.025239174752890 1.495695261335169 4.285329185617192
H 0.940838323075785 -0.645678491286940 4.118475141457624
H 2.635110106059568 0.115933272289230 4.484731765617108
H 3.017027517880779 0.462562660794289 8.953185920397289
H 1.667334563467662 -0.601912202687769 8.622600453940045
H 1.459058661213644 1.083872096237318 8.598391299373127
23
maple-route1-mmgb-reference-mlip-reweighting-v1 phase=solution replicate=repeat-0 sample=3
C 0.573553408728655 2.961309485848389 0.469191931036122
C 0.789072991060633 2.877295135425844 2.066511102351673
C 1.009990771458657 1.419465042771829 2.574422239993592
C 1.004046529260413 1.426976179915102 4.116607339947747
C 1.598652749721827 0.093923776465961 4.683529668855522
C 1.235140537717921 -0.015688844028169 6.116935026488557
O 0.259548645389766 -0.567077352769020 6.469430060478168
O 2.224547730345127 0.434540408393976 6.901442286702457
C 2.153043708277758 0.311935398418867 8.332400015091890
H 0.422334902088922 3.963160692434826 0.055630259767317
H 1.350118254367203 2.414054959202432 -0.090939732202020
H -0.344582984791845 2.436680792830658 0.231746528259812
H -0.105062611770390 3.354827736202641 2.575648169906557
H 1.703590927696635 3.525860067720185 2.287620610854681
H 0.246357765685059 0.711735350972700 2.175057759932238
H 1.998820258085528 1.128924700966480 2.169302761316731
H 1.520705290115480 2.337177164639058 4.574870938857976
H -0.023308840965481 1.433508879187289 4.467924674952354
H 1.270060703122164 -0.794992631823612 4.105734662179055
H 2.663084882808028 0.334174120370374 4.630553862373878
H 3.113126875418192 0.172452224383389 8.754061285348868
H 1.616116319118728 -0.625974279206405 8.465503155672957
H 1.579556584574621 1.193753273769846 8.753011092690734
23
maple-route1-mmgb-reference-mlip-reweighting-v1 phase=solution replicate=repeat-0 sample=4
C 0.635416958859607 3.006796777256863 0.603985849265270
C 0.853602896285414 2.887418665398187 2.096302093180553
C 0.852034364936250 1.471734785293703 2.581298702417101
C 0.985098781749562 1.430372230862061 4.076059391648316
C 1.663350642007792 0.074743960181623 4.587927249261609
C 1.311771662712459 -0.088901121096593 6.069888831997709
O 0.234552100185437 -0.669795841894563 6.439940290150798
O 2.209517441706336 0.528721424366315 6.896766058630661
C 2.119417386483964 0.295343026903450 8.352811852844418
H 0.601278777510922 4.039183775633757 0.275931375638180
H 1.382554142478214 2.415299926216467 0.038071229585483
H -0.351001738357410 2.597149688954711 0.361593436149405
H 0.063319189405714 3.482612744744938 2.590264084603908
H 1.796562833835148 3.394651566518312 2.236049213375658
H -0.119689909599306 1.035231218527762 2.407217224296699
H 1.613003938247867 0.884595135267724 2.021237528429881
H 1.588323802952098 2.246335100741477 4.411019592609349
H -0.011515316958282 1.513088627695169 4.613987601578613
H 1.329718639916822 -0.783244015399740 4.022224255845307
H 2.710146323532956 0.325384793461513 4.429494043799195
H 3.147944070339521 0.242322777496337 8.852696795788708
H 1.800335537252617 -0.744154039691917 8.445679618821661
H 1.419776960814221 1.053984625180750 8.885313848218635
23
maple-route1-mmgb-reference-mlip-reweighting-v1 phase=solution replicate=repeat-0 sample=5
C 0.689725453262793 3.089122413089218 0.609123466947056
C 0.890718527039017 2.940372321292775 2.102940503281323
C 0.730091076912196 1.525538729150010 2.577654947213833
C 0.977649648991033 1.386497042693264 4.103446024297460
C 1.633894224422758 0.077348804303386 4.598439227488116
C 1.374358488415274 -0.144936051371764 6.071959433060684
O 0.337594962747292 -0.707270444466239 6.469017733730325
O 2.203286761968415 0.470881973130554 6.887357797993144
C 2.014973251013620 0.268363107843166 8.296738193551988
H 0.794040877637539 4.146742181226181 0.308800457160808
H 1.424419168112535 2.505648559263785 0.067837749628039
H -0.318666902081156 2.784792304484192 0.256750711631045
H 0.251059550433133 3.638368411473907 2.605939775340182
H 1.871053662417147 3.318049930803553 2.229991451362024
H -0.256450081774033 1.113584387071401 2.353256355522182
H 1.454119073984166 0.938658052890961 2.024048462958169
H 1.694121401793770 2.143003144432343 4.341606286816489
H 0.078173690161099 1.546210129615234 4.716118507193760
H 1.040815519009085 -0.671149507846284 4.103011741960528
H 2.655389091790103 0.155300704430573 4.261551871356856
H 2.797420022550661 0.906480244102894 8.850945665317578
H 2.220796285331716 -0.776045634098277 8.642145953516279
H 1.044210620772650 0.675070443749590 8.607475981072669
23
maple-route1-mmgb-reference-mlip-reweighting-v1 phase=solution replicate=repeat-0 sample=6
C 0.725979114477766 3.219016368605890 0.522330429010168
C 0.927519379932563 3.009946480242131 2.119550165182905
C 0.728136009654735 1.545176769515358 2.624559415080010
C 1.000771529878029 1.414829153403005 4.148484189389360
C 1.528119131219974 0.020866223318009 4.561927188043253
C 1.307164473999640 -0.254333522098554 6.070963807465243
O 0.348062532587429 -0.826427304368487 6.505426942404520
O 2.264460555657101 0.441531506736506 6.868058819350256
C 2.020216782916274 0.320315481579287 8.292015726481074
H 0.940880533083713 4.251679527126901 0.166345650363662
H 1.361687506604196 2.544442236357932 -0.065851573064460
H -0.287984320734474 2.993969700374984 0.172137822613702
H 0.227831965276890 3.676345420217551 2.556340960376164
H 1.876954067964386 3.518170100127917 2.389224662065331
H -0.290308984637200 1.146874269256565 2.440012029492292
H 1.391669015003883 0.870975544698676 2.093514797361938
H 1.668687080424243 2.251124346608623 4.507263629209292
H 0.066340817875079 1.499328115344153 4.623897368060026
H 1.101515288604116 -0.770060642866541 3.920251471198287
H 2.605768392161231 0.130981911321949 4.399932918162351
H 2.368986550647681 1.197315392576501 8.775381122350472
H 2.497962872273964 -0.529379629895709 8.864081672100543
H 0.965615719574204 0.407420482121389 8.505209602392531
23
maple-route1-mmgb-reference-mlip-reweighting-v1 phase=solution replicate=repeat-0 sample=7
C 0.740907878482644 3.234796786467772 0.625871348430988
C 0.873650983298785 3.066849949830384 2.108024596558197
C 0.817656893481984 1.639990439607412 2.567908234135453
C 0.981995722109284 1.478829060179275 4.157659613542405
C 1.478254716785105 -0.019823167977230 4.583806027754641
C 1.270279888753703 -0.347175695187231 6.064880657530050
O 0.365209937796169 -0.983132442513443 6.482102331328169
O 2.167933305264151 0.393400495768453 6.855953074715053
C 2.100383811352442 0.439352876462625 8.274236812068203
H 1.039294231105536 4.236500352687816 0.295922112687787
H 1.404108471943532 2.505769625507515 0.081384864616726
H -0.247102591077285 3.039135819700940 0.238776644965140
H 0.189629570286148 3.806191365847702 2.572740389943220
H 1.856087436954674 3.517631106334862 2.327273449890940
H -0.097540334837852 1.151145120573215 2.216256070860671
H 1.646252609403823 1.069621493104309 2.102158144009582
H 1.719500060459052 2.238748892110369 4.566111430148826
H 0.003401343230347 1.683300113106928 4.626348205219805
H 1.047498356544355 -0.786923359358618 3.901592150200763
H 2.606371681510646 -0.042729817286014 4.461680864573648
H 2.624832619074356 1.285557996225945 8.621751319058259
H 2.596167380526050 -0.382991431122916 8.752713415950700
H 1.063697483277002 0.523693402180652 8.629525684283685
23
maple-route1-mmgb-reference-mlip-reweighting-v1 phase=solution replicate=repeat-0 sample=8
C 0.756605992801517 3.243996666158088 0.659605322594446
C 0.899536414244514 3.129252440084211 2.206044438689377
C 0.993565167926942 1.653133181660424 2.640788285360727
C 0.970646908124707 1.411812856462269 4.151245072071654
C 1.416614391186915 -0.004565538045253 4.547146907392766
C 1.260552707644706 -0.319286728243080 6.033898156636185
O 0.407210171523051 -1.088648098489350 6.546505193348512
O 2.103579114662076 0.447831941960945 6.761345646193893
C 2.050541279671441 0.470447897686903 8.186341581812092
H 0.814707986022457 4.250929365372473 0.257097003911884
H 1.448829756418596 2.633411064396900 0.073363182462620
H -0.223466659753318 2.846174068542445 0.356395367666980
H 0.009429503113557 3.695320749090429 2.589783842108157
H 1.715938229074345 3.723565994677296 2.581207923800652
H 0.090732373579050 1.206914587448736 2.223980680713430
H 1.849803258784006 1.087607774671530 2.190322720516420
H 1.749922042715513 2.016760613022273 4.554531035137890
H -0.049691995126301 1.700001393186313 4.616779233327177
H 0.748196991932909 -0.628227958407943 3.957943267954343
H 2.477378815388175 -0.184523848232732 4.265922899798023
H 2.857858813710905 1.058047361753273 8.674634920189845
H 2.284399590352191 -0.506570649869408 8.481116984926494
H 1.025586550100433 0.670316454573279 8.551826288135565
23
maple-route1-mmgb-reference-mlip-reweighting-v1 phase=solution replicate=repeat-0 sample=9
C 0.799027494477473 3.243057209900156 0.746327131947047
C 0.864071510383074 3.100895819680810 2.273970430329787
C 1.118084620846548 1.665120464483323 2.716320158381276
C 0.990347990163194 1.386380499267444 4.172497153796005
C 1.295648190124721 -0.049437490261946 4.503726561887277
C 1.290653850150603 -0.316031043705577 5.976182771062390
O 0.449949461499253 -1.054587266093695 6.543481764360842
O 2.081511273448654 0.545389649722329 6.681326265937034
C 1.955395981516162 0.424053164740285 8.124676109993818
H 0.511120013401049 4.242939749993308 0.418907571675798
H 1.683541950853024 3.024788021874241 0.220029202811161
H 0.067331106792732 2.561968767083514 0.296212741499285
H 0.020881071437672 3.600833275452981 2.700952985793292
H 1.731896266820217 3.672685859052315 2.650438816863435
H 0.439440175572579 1.033911112651668 2.106388866703372
H 2.138744058376983 1.399245448701466 2.412554194978132
H 1.679962203769775 2.016226974858962 4.696549923711628
H -0.037348428998882 1.624419591799088 4.465017014570398
H 0.610402127146189 -0.687115979236651 3.943798335096595
H 2.283665109876617 -0.290786077094810 4.212174492591901
H 2.893970843432357 0.671097376671124 8.709350020119464
H 1.864520586663382 -0.670375349621188 8.310261455182689
H 0.997623292610070 0.824583901077188 8.486661657088417
23
maple-route1-mmgb-reference-mlip-reweighting-v1 phase=solution replicate=repeat-0 sample=10
C 0.821234908727827 3.303031486099269 0.842295035260666
C 0.867186905075332 3.094968037979478 2.284810322429715
C 1.248746710125495 1.684272361471145 2.656700125487145
C 0.973616952416383 1.416378145184050 4.180411329624110
C 1.283898296338754 -0.077442267335550 4.483374949482746
C 1.244942598830962 -0.394480781157724 5.969122642273260
O 0.363505540402585 -1.016271417758107 6.440319897308448
O 2.049784935736167 0.433098978710376 6.716455312873377
C 1.995958517505896 0.464475066277187 8.149721531158244
H 0.376949087448557 4.255845951362043 0.584105317034910
H 1.811199585500176 3.340071882133766 0.418472424219542
H 0.307575068084431 2.538592476988746 0.314111245687292
H -0.123719834828888 3.297667634276594 2.625959155643680
H 1.503144980670889 3.833214601752335 2.811832618608333
H 0.659504833183136 1.027530104546717 1.983772403191097
H 2.294703018491531 1.521717287902285 2.365101378579400
H 1.520113440559137 2.142174343509197 4.839577903558529
H -0.036118960938675 1.602054903153604 4.324089847629327
H 0.708764327925743 -0.833483179046640 3.929535571017374
H 2.344630657577978 -0.302531911023418 4.269622257805166
H 2.842356123114364 1.087787452319655 8.526128293177120
H 2.122669683833236 -0.581879261384218 8.631123492776027
H 0.978366626670146 0.825903650395975 8.452205547578847
23
maple-route1-mmgb-reference-mlip-reweighting-v1 phase=solution replicate=repeat-0 sample=11
C 0.861265777180010 3.475982962640831 0.755579602084140
C 0.768637299216759 3.152530569382564 2.316409002772828
C 1.328478755694705 1.711375128623120 2.698326628639014
C 0.989925948958664 1.302605738107329 4.152467343869702
C 1.468261016746076 -0.093894629339997 4.482718071618493
C 1.150440077303652 -0.410693077102480 6.021651814443673
O 0.158441874512528 -1.021625782290926 6.454625555468967
O 2.114479501344862 0.334301340049202 6.726120508148929
C 1.994765063863651 0.434697104089134 8.119541628851922
H 0.451633524778017 4.419268987377340 0.423881021301044
H 1.941636755920907 3.508394953074737 0.449534755765624
H 0.459442735223284 2.696988557996109 0.128807518973570
H -0.310965644772925 3.167166559236052 2.655470591044865
H 1.239746745783077 3.931678825463179 2.898341643911437
H 1.018793256578004 0.989320224945782 1.953134648574881
H 2.419522260599225 1.768272638929593 2.601975693559465
H 1.481728061267506 2.060179494113883 4.806032344137740
H -0.096342132957129 1.431405918034445 4.305769841079485
H 1.014165833194199 -0.923363717614404 3.930517283676491
H 2.587006818386856 -0.171466485734107 4.284801299725177
H 2.532709124943055 1.357725803382501 8.387682431157886
H 2.418354361336179 -0.351440520461480 8.744888204177423
H 0.889019883177526 0.542905972496848 8.354726114862670
23
maple-route1-mmgb-reference-mlip-reweighting-v1 phase=solution replicate=repeat-0 sample=12
C 0.944304076718287 3.546422719520223 0.829531501175252
C 0.672287480997172 3.118492984255794 2.262892855757840
C 1.395477029196967 1.820301229280856 2.725774357423968
C 0.978372220847419 1.240783613693765 4.086274043304718
C 1.517011769835000 -0.126919212534369 4.504338568879873
C 1.235696048310424 -0.433892894995799 5.975997993499407
O 0.135834747657368 -0.853836724760007 6.415419439553355
O 2.099543227531885 0.215680721083114 6.728395710474270
C 1.916206336762547 0.345230976012770 8.180283292238267
H 0.503657456186255 4.555407480450215 0.712233186995953
H 2.024684528876027 3.667034756644409 0.589785571188577
H 0.501476672273367 2.860189710164934 0.066325823807051
H -0.433204041988192 2.991288734096343 2.461187071459206
H 1.027184442268652 3.978664147031343 2.844874405186096
H 1.112564798324175 1.060583110368099 1.961848308334309
H 2.466567942951412 1.977737688924699 2.584156954379308
H 1.209056311818909 1.994695148277738 4.811789327871852
H -0.168582087703457 1.158702488517227 4.109781825269108
H 1.019696033630708 -0.994936611380276 4.087453495480446
H 2.556573430982529 -0.177137958914486 4.280679288277690
H 2.441879019951465 1.263567653347369 8.454728450544213
H 2.340981882524619 -0.357377588596408 8.853965919593252
H 0.864880923340716 0.408193475769166 8.466082960150450
23
maple-route1-mmgb-reference-mlip-reweighting-v1 phase=solution replicate=repeat-0 sample=13
C 1.026852910719147 3.602976570003877 0.936732039160755
C 0.620586046097813 3.055331842747177 2.292629614960712
C 1.398542829602601 1.796228337360659 2.704010240162888
C 0.860557438761779 1.243080091436512 4.030832621780888
C 1.480253589362226 -0.111865414784595 4.427372485457912
C 1.284110717206520 -0.367537136249597 5.937372941330122
O 0.143539053693562 -0.749330900079028 6.332390375528101
O 2.192306709813767 0.207425957412323 6.789520815686938
C 1.867292090718384 0.239908641161495 8.230389234638032
H 0.411516851918366 4.537099014606858 0.723199086144239
H 2.085725171712241 3.810344801383299 0.793500237082934
H 0.704045521482971 2.779947516722677 0.234480505175879
H -0.435233016124498 2.768811831733286 2.246440905610554
H 0.788079745983521 3.913068303106848 3.012906022223715
H 1.369592803504075 1.018252791946683 1.896979446999065
H 2.438259118690864 2.083625022021459 2.750661773147607
H 1.121287082149946 1.980457577441344 4.785739387741808
H -0.230548211204698 1.142856055333593 4.065375256547678
H 1.123759666945843 -1.038208648755386 3.966527148521846
H 2.510924371815726 -0.007634654310556 4.282381843883702
H 2.644457806151073 0.730635906765510 8.790511394885097
H 1.911611939983682 -0.750179282781164 8.695382910150949
H 0.884432934249469 0.526391465869124 8.435793218646424
23
maple-route1-mmgb-reference-mlip-reweighting-v1 phase=solution replicate=repeat-0 sample=14
C 1.098810428437439 3.664484838627545 0.955460258509321
C 0.524869346933086 3.003900958472670 2.302874814460891
C 1.346674534322981 1.741254071509731 2.709038174711464
C 0.831597456594226 1.230294226536149 4.031620563380880
C 1.591241432861894 -0.011843727398484 4.466597001441855
C 1.172702968498011 -0.193517441405777 5.964532106169194
O 0.141226708932088 -0.751581054301962 6.308818129531892
O 2.193150890465859 0.201903311529072 6.802616764068112
C 1.934717522489106 0.086360857909989 8.152760048683060
H 0.517669166053121 4.531139716209771 0.589775235376270
H 2.127810940976955 3.991371667814614 1.181357297756015
H 1.179461925922410 2.857515199891441 0.212808961529551
H -0.511267582925920 2.710295119258195 2.180052735360460
H 0.632701480826901 3.794870284387107 3.062548395474082
H 1.397255470826932 0.972898274404166 1.936528987217443
H 2.407419399612884 2.076891446221775 2.816453847816838
H 0.745465174363072 2.022488009895572 4.812943875086308
H -0.121567114459055 0.828856466752871 3.881846305086532
H 1.280976713210817 -0.920678166577017 3.948357979477136
H 2.698719494744505 0.147681123542956 4.412765110625083
H 2.845714232771189 -0.111232825333441 8.699340751741302
H 1.392218524358851 -0.847685784190773 8.316432328581541
H 1.195210621808328 0.804563652760998 8.496190415612979
23
maple-route1-mmgb-reference-mlip-reweighting-v1 phase=solution replicate=repeat-0 sample=15
C 1.152536550509907 3.683143490486903 0.988396737014233
C 0.503012337542575 2.997651879139003 2.179859357950348
C 1.286269635911009 1.819800672315926 2.658773944876778
C 0.731718628002371 1.205567906103776 3.936781740661560
C 1.628123303371504 0.098150261804039 4.563375279097182
C 1.166873791762515 -0.210820750051852 5.983219424912029
O 0.159330122042400 -0.727279296861182 6.269871030775636
O 2.128760835633595 0.153492687987610 6.845121469022077
C 2.059590739233037 -0.066235926287439 8.246488932634884
H 0.448957621497592 4.438868590119928 0.742055444528019
H 2.026895605052866 4.216881746055819 1.448406647100556
H 1.410163128051279 3.004691058692488 0.200723244727134
H -0.438326545532712 2.593107198164298 1.768842380066055
H 0.361069691202380 3.770316291557299 2.915018934674092
H 1.275723235333579 1.118912888088747 1.842116575763307
H 2.374083426223412 2.059978775116689 2.802147120233602
H 0.785013785059019 1.995131800114937 4.694773240047098
H -0.306092901972007 0.831009229512178 3.911564974187224
H 1.566699609881303 -0.844132892553566 4.002280970057205
H 2.725307936475273 0.402268597872934 4.645867207941961
H 3.047834060252465 -0.444907276833213 8.597666502663708
H 1.339256966025270 -0.839413705258068 8.502117134420960
H 1.575611172171940 0.847815119522647 8.729998923562540
23
maple-route1-mmgb-reference-mlip-reweighting-v1 phase=solution replicate=repeat-0 sample=16
C 1.217427981702652 3.818479068025083 0.945379005954398
C 0.379743198168280 2.997193133900363 2.034925161078781
C 1.267655170696538 1.817656905350348 2.613461683193548
C 0.695458098644623 1.248953148037832 3.899698215620553
C 1.596649501890664 0.167739417945006 4.563774748308710
C 1.188197041678469 -0.195524582796476 6.010945051413258
O 0.122325459931916 -0.789372257386711 6.265778800906111
O 2.229842894100246 0.155990782741699 6.930436481439411
C 2.115121273530873 -0.230636064096166 8.412151408648004
H 0.549841933614969 4.521717746226111 0.442163726538249
H 2.003862678966765 4.375222784303510 1.398481513819350
H 1.578243600918941 3.083737109747117 0.254598635990177
H -0.575925885953806 2.652346032831797 1.580061024656101
H 0.200119183456210 3.740538607313768 2.831679651337771
H 1.386045330177439 1.042314796664107 1.828274084929890
H 2.288261575088232 2.124621762286756 2.810005192201900
H 0.580076690438575 2.003911885546720 4.671173577310041
H -0.305156207221169 0.736044632406427 3.745647222529504
H 1.480874095222749 -0.705784167870968 3.865360701174935
H 2.646693159018396 0.437595081448186 4.632613969181146
H 3.120688424464686 -0.482162659960986 8.848639501548966
H 1.490374498924284 -1.151054143535544 8.594194792702829
H 1.543791269790668 0.556125373063686 8.937843096249619
23
maple-route1-mmgb-reference-mlip-reweighting-v1 phase=solution replicate=repeat-0 sample=17
C 1.234002996520960 3.881123566655251 0.887099695112299
C 0.398395114268094 2.974561980395077 1.901029246189653
C 1.251887132244149 1.887196630461462 2.593137198179707
C 0.634779375995814 1.307610834330657 3.929040731664311
C 1.584417684578370 0.216490888497011 4.638944218874984
C 1.207278567128372 -0.080727697889637 6.117069482731731
O 0.246457632904056 -0.821119719370579 6.409749092174817
O 2.228061191419132 0.028876068260876 6.945598172799069
C 2.012214612151971 -0.363493512133168 8.277461092201479
H 0.533767061861418 4.558841566276985 0.348715133362168
H 2.012117940055465 4.453750701323708 1.310982792317241
H 1.605477941334243 3.138182162441124 0.162157861178949
H -0.417761212916683 2.553755605496807 1.320041600497880
H -0.006703015519169 3.645538155490935 2.693182348843648
H 1.410977396609566 1.063618812155854 1.847452614572925
H 2.242321697427328 2.263992227504791 2.816729858142266
H 0.474694716629481 2.056917058545183 4.711338818583977
H -0.325368295641761 0.799401524604229 3.731207080502537
H 1.520257320214849 -0.634088007312549 3.975646520421547
H 2.603194798623151 0.521649431963068 4.722238270710607
H 2.959787485471235 -0.086822891822291 8.744820909487959
H 1.850086949050956 -1.463963851851530 8.510842504484275
H 1.226779393454613 0.218633898790803 8.662510608326278
23
maple-route1-mmgb-reference-mlip-reweighting-v1 phase=solution replicate=repeat-0 sample=18
C 1.181285544340944 3.833000447385695 0.863005069491502
C 0.462180103209812 2.943908470198761 1.864934188838341
C 1.296010821764206 1.923350970447781 2.641514155349231
C 0.609800245018698 1.373485781481861 3.939281102859121
C 1.541136148792579 0.301347264750200 4.654785979495428
C 1.188954660748031 -0.134292110337029 6.118130212400067
O 0.198456012996621 -0.822463495403829 6.381153805864031
O 2.262390651011738 0.023281577477849 6.941330990681331
C 2.031819969518801 -0.455958719425048 8.263451212051228
H 0.510766278085600 4.595551564977699 0.436215441144998
H 1.941326664095478 4.425713555294665 1.460052322716145
H 1.680779835636936 3.247426883348481 0.060173563571234
H -0.313362510488622 2.460139959049234 1.286968796915700
H -0.021782623191973 3.602057949560438 2.607607767172396
H 1.544340972080137 1.112880195236257 1.965923419975228
H 2.257479453093631 2.395579100448885 2.959927954795718
H 0.576403066746340 2.176474645925869 4.706332590371891
H -0.354405385508112 0.963571075934924 3.743347517229504
H 1.617673980658676 -0.510523001237782 3.988486497325066
H 2.540017680676730 0.697158279198662 4.851860980841989
H 2.733093935236615 0.130290813188758 8.848845141513983
H 2.281122833436206 -1.461508718162596 8.469785670269005
H 1.042238300277117 -0.183819962250762 8.677964069145661
23
maple-route1-mmgb-reference-mlip-reweighting-v1 phase=solution replicate=repeat-0 sample=19
C 1.169845923265371 3.758945285287522 0.874993143201283
C 0.396104596410983 2.907199693595234 1.927442660039791
C 1.338688838918840 1.960351647336332 2.735119218293030
C 0.713762336260038 1.409318104892546 3.977629493352806
C 1.612210792593231 0.357229479312055 4.617679792402365
C 1.163415564744215 -0.232600462056497 6.016185872949632
O 0.109242726285929 -0.767303844746313 6.198279927834825
O 2.143671748984867 0.109293790091067 6.969182850638607
C 2.141120376157172 -0.492484188937259 8.371708737305394
H 0.612145171669491 4.586538100688962 0.371446288624540
H 1.959099753923992 4.317664094289046 1.501512667065267
H 1.707873775713594 3.190858324251569 0.072892157730375
H -0.367776042597435 2.311733096238017 1.366901195360399
H -0.165528280256985 3.524872868796343 2.618977818066855
H 1.652767004692026 1.135671210954961 2.113712536430845
H 2.244703377919683 2.534008809781075 3.050280367031765
H 0.496272867062130 2.203164903657918 4.709756913875010
H -0.166962038202215 0.853068313770113 3.650215815839189
H 1.517052855688903 -0.458174779672923 3.885542920750573
H 2.677954532916402 0.607980676139915 4.763524339511383
H 2.878889331602719 -0.006830858022729 9.040320143193373
H 2.486009781074453 -1.489231663793851 8.332854773923779
H 1.152991944013305 -0.507019225643493 8.953495496209010
23
maple-route1-mmgb-reference-mlip-reweighting-v1 phase=solution replicate=repeat-0 sample=20
C 1.148328413814465 3.662610008517098 0.929031590726057
C 0.420375130871601 2.914978352553471 1.999383767322037
C 1.367316528310852 2.051411249648028 2.779234367532269
C 0.762458001145871 1.356163410337821 4.047861100639652
C 1.714949402955827 0.247179261655572 4.649503809017144
C 1.169922737220182 -0.145659829826112 6.020588305675215
O 0.166370932294552 -0.753665849349019 6.142070056674766
O 2.048480976270361 0.185187453836794 6.965916392405015
C 2.016660590272287 -0.480360241129009 8.201711560913008
H 0.409646124035216 4.254181047829644 0.314798323474949
H 1.923428860487651 4.356627624599088 1.252389028134554
H 1.584527505590577 2.973645902005236 0.158382594383973
H -0.338867021813319 2.280119826590298 1.492215514072958
H -0.160528307252654 3.556178691569978 2.667834733956181
H 1.777681825729701 1.231962154272854 2.122163423731527
H 2.161254375957921 2.710868508297610 3.073003177316760
H 0.731293773498981 2.099244343122141 4.825361845881315
H -0.265115885625202 0.888680396490928 3.905458833274803
H 1.829710223724453 -0.671912270732586 3.965876002480347
H 2.722426532828268 0.611401489307346 4.844045208913292
H 2.830651358528486 -0.167051324840701 8.909857973458786
H 2.263572193459760 -1.544530478951602 7.864962345649253
H 1.034724918015378 -0.469519332949093 8.714744280846441
23
maple-route1-mmgb-reference-mlip-reweighting-v1 phase=solution replicate=repeat-0 sample=21
C 1.071909472034315 3.616818313171433 0.883774430462229
C 0.429494234275615 2.909284831988542 2.091719709359696
C 1.494383737801794 2.055171593383169 2.867421696200252
C 0.798945115588248 1.380028059207309 4.050297135917670
C 1.711462125706559 0.296288402017309 4.568134780520766
C 1.211877804574585 -0.081722788679845 5.988228920873619
O 0.239794657407309 -0.853162578577691 6.147436776592395
O 2.061856092246780 0.227217374315473 6.972818312377367
C 1.833435105133906 -0.491482298346076 8.158573995727153
H 0.335811396520338 4.021064937061566 0.195685475755410
H 1.771293847384243 4.376569488963415 1.097263730507186
H 1.578095232843591 2.906298619582874 0.226773897867030
H -0.504776130852413 2.422709765607278 1.857886249417793
H 0.127159847628220 3.719201790078629 2.794622201361412
H 1.825259297788097 1.162254008308346 2.265851601415500
H 2.346806174925999 2.681727454430630 3.147012506795653
H 0.578900057519482 2.069151796577737 4.897055181595581
H -0.097305024427138 0.811465710003157 3.762437202282998
H 1.735136339323819 -0.578435777474210 3.893763668910189
H 2.750213456816537 0.638001297341853 4.656652035212215
H 2.550777496133874 -0.296650480175224 8.997921105554195
H 1.871954174228371 -1.578391859844641 7.813956121367149
H 0.835572912376540 -0.275323670141327 8.533453539573490
23
maple-route1-mmgb-reference-mlip-reweighting-v1 phase=solution replicate=repeat-0 sample=22
C 0.986409023221591 3.574801563623327 0.815838834874048
C 0.513881788818037 3.032341538826648 2.156097321369336
C 1.516031542248346 2.092571465584297 2.819579506566249
C 0.845310910913298 1.426198350309496 3.984779819684079
C 1.715986047960441 0.352561701584776 4.639403446093350
C 1.229518374333888 -0.174625550089428 5.951775178075144
O 0.262474952715802 -0.943109178111463 5.982386503466122
O 2.040035779310304 0.102718139590283 6.995480456494867
C 1.761756857332330 -0.424747898418725 8.357673125322311
H 0.193178750025495 3.964469231225578 0.251070395726070
H 1.764364479447514 4.327100809613821 0.945024975142801
H 1.421713328511352 2.865880748423611 0.180808852860772
H -0.364615185844657 2.453636445938799 1.918178255213058
H 0.137628821298102 3.804857766033813 2.822571145694024
H 1.833241007778854 1.273025047961061 2.191235477031341
H 2.391123294499534 2.704050885657256 3.166350177384867
H 0.677119630105751 2.180495833975644 4.796016990104355
H -0.063869410470356 0.899916420648810 3.760151981825139
H 1.775632921210764 -0.466041802517053 3.999825059395590
H 2.759458212744985 0.684090963876826 4.718398367737170
H 2.424146472749309 -0.037288705705943 9.132363210640539
H 1.733869596938451 -1.475251169098544 8.410759031214440
H 0.785828954380615 -0.014243762094873 8.699768150631135
23
maple-route1-mmgb-reference-mlip-reweighting-v1 phase=solution replicate=repeat-0 sample=23
C 0.931092966579362 3.614593100889057 0.699906711630627
C 0.531472115236908 3.145815421814100 2.097523153975103
C 1.450533858622241 2.166418245060755 2.757932085256789
C 0.925549717729511 1.454807587048867 4.054694153794248
C 1.867064722816939 0.343099103082640 4.723445545726017
C 1.211329955939179 -0.335650191330902 5.956518423431566
O 0.252564312443858 -1.049785453467840 5.956594451216811
O 2.030242909847418 -0.007576443374592 7.029954697872328
C 1.663605182768567 -0.334562803954013 8.407264083728828
H 0.203194166675787 4.276793556069907 0.271338751553716
H 1.885605288170112 4.150534906472966 0.870568261744527
H 1.166932260401446 2.895233056837058 -0.051514081090562
H -0.433929478067917 2.619068341695326 1.983776421316868
H 0.304931126765328 3.976849325795347 2.733374690636126
H 1.765345120960745 1.364058615572596 2.107706675224748
H 2.320528453077479 2.771912036195490 3.087918283170991
H 0.734969522131339 2.185901405814276 4.831155048565620
H -0.031870415540441 0.920860577141436 3.911583994854219
H 2.236498845936840 -0.433073143431751 4.046882897397432
H 2.811287856999896 0.805028860121326 4.961224819126640
H 2.354117310665365 0.141827168491270 9.067842087337395
H 1.601120231156434 -1.347829768707245 8.670329400510026
H 0.731905121272008 0.193530685272975 8.682247731468985
23
maple-route1-mmgb-reference-mlip-reweighting-v1 phase=solution replicate=repeat-0 sample=24
C 0.941444604195488 3.677495217816553 0.670996303874088
C 0.477752363408088 3.191574382195030 2.089099187989305
C 1.477976175284082 2.128952856361312 2.753958941294108
C 0.977844624212316 1.493966065070233 4.139168802661271
C 1.877733995626359 0.346405421306054 4.678871885071533
C 1.295126021573894 -0.377208576072256 5.981711713784215
O 0.336740275062966 -1.101951492070461 5.990294023314261
O 2.043797907176987 0.008345105885577 7.091116245058441
C 1.461106690954182 -0.332084456445933 8.334642944050366
H 0.379455340239720 4.565356044416332 0.233773339133910
H 2.043974416569003 3.811529955270829 0.693146582736336
H 0.833722278950743 2.879027204149784 -0.130853501198829
H -0.575443188595200 2.852924932912733 2.027748421203019
H 0.435581389442700 4.096730003891955 2.727598408654480
H 1.611209742551942 1.229211704966478 2.122483844409709
H 2.429980519886501 2.563004622171814 2.949419625461003
H 0.782482605443950 2.213977585951980 4.921951015753321
H 0.019934452331052 0.947842923690762 3.982130592135256
H 2.050304902656563 -0.436752366585973 3.875458200041086
H 2.869437305972046 0.763846797218790 4.809926676874301
H 2.155611162952813 -0.006123169696372 9.081398140973688
H 1.352642964979910 -1.439989627920706 8.464211841965994
H 0.567183400869384 0.191065153213083 8.499128647066973
23
maple-route1-mmgb-reference-mlip-reweighting-v1 phase=solution replicate=repeat-0 sample=25
C 1.006902342747271 3.667731988845139 0.802361917208886
C 0.577469826225585 3.160058529932659 2.190784061008455
C 1.452413993438956 2.033464233828220 2.732101879622735
C 0.958337334594018 1.510615183396131 4.102506837272717
C 1.812726468041319 0.322927974641450 4.613370962898586
C 1.368242361079430 -0.270230959126136 5.951600872999578
O 0.452567771417232 -1.076995117480463 5.908863303430621
O 1.975690570757728 0.080223641614044 7.098865173408626
C 1.314242029897279 -0.387782607226468 8.323959322877711
H 0.333160498108962 4.553290269563252 0.556790274336503
H 2.088108279732420 3.745952980830187 0.519275301361477
H 0.552177611052716 2.942375935004137 0.061206677625879
H -0.467783382486320 2.870891685425800 2.107180328826653
H 0.590517014264237 4.014990714404599 2.912704434787575
H 1.455702054193444 1.177968439748992 2.050527138472041
H 2.470524423808284 2.349907299632977 2.892327820664492
H 1.212211251513256 2.314192248468045 4.839846645241042
H -0.123742019667898 1.281017066743922 4.207198110405352
H 1.820511615274383 -0.493401223695174 3.867664372108638
H 2.862278180981522 0.693612452026315 4.654159817786959
H 2.010240305849692 -0.180624461371625 9.166120338117196
H 1.307131084638421 -1.514908954291140 8.299171473149833
H 0.313608724816473 0.042725358286261 8.474038567459283
23
maple-route1-mmgb-reference-mlip-reweighting-v1 phase=solution replicate=repeat-0 sample=26
C 1.002997125195646 3.646627598706963 0.910285126197953
C 0.619149459698445 3.155499941693831 2.303736977984063
C 1.407687668208880 1.940612166258616 2.701141028961065
C 1.068597470607227 1.555396463497037 4.131537280500982
C 1.920905847914676 0.359327313849960 4.649845273800251
C 1.277623747387416 -0.252026266915831 5.888998254347203
O 0.407138362514667 -1.178561012994500 5.811361602700141
O 1.837059609002060 0.197728914250247 7.017369036985802
C 1.372644025526996 -0.371944889053654 8.297321397932853
H 0.368600169798765 4.492043775564462 0.714625563423878
H 2.101327858249476 3.891124990572812 0.895615912473579
H 0.877005581914701 2.951887103162143 0.082510343790486
H -0.471079973826454 3.010585691368433 2.408391962631508
H 0.938360115337409 3.942740934227287 2.979400464959083
H 1.081305953005032 1.126928880809717 2.074472668353875
H 2.550949386917416 2.023722838623146 2.621495011661310
H 1.053799279467263 2.395692750704980 4.883722105704507
H 0.073859730345764 1.139879354272836 4.128268486001345
H 1.959737831541956 -0.395424875788535 3.889285689796048
H 2.960048668816976 0.700566188744493 4.897222265123223
H 1.968422172841158 -0.074795477128829 9.212702388036435
H 1.524565464966048 -1.437620134379822 8.257773254158131
H 0.222488125861085 -0.175922340802177 8.426527621789807
23
maple-route1-mmgb-reference-mlip-reweighting-v1 phase=solution replicate=repeat-0 sample=27
C 0.997301632936600 3.686677412266916 0.921217447763828
C 0.690396754430933 3.270115308594860 2.399530544575338
C 1.344761133985578 1.858677170835298 2.715766254396769
C 1.115567123596648 1.486697346364417 4.195338288485288
C 1.997970155835878 0.352942943546488 4.688003704215937
C 1.273738916422189 -0.354188637001776 5.843917378837932
O 0.438308967222981 -1.208558732773970 5.724874531227232
O 1.631866640478701 0.263880599549045 6.982427154076567
C 1.419416816587368 -0.330921439811849 8.233277080358009
H 0.312559962812306 4.390992834467550 0.533526587461893
H 2.001161298410033 4.022474228754980 0.964155428617235
H 1.068541701092863 2.876298495872184 0.261263778377060
H -0.403789123844726 3.071072006225926 2.439191595522608
H 0.963793037436180 4.012185779933918 3.141197470394077
H 0.978546065205176 1.087539307796527 2.001300568025886
H 2.475204371860981 1.848325274050393 2.668558503037107
H 1.366190961717206 2.333377185672279 4.820011171815912
H 0.080457216387242 1.295365953795870 4.447709647676145
H 2.289235404655664 -0.365989685449474 3.888150853398079
H 2.876833222193872 0.815360138499401 5.150305804522352
H 1.854862223462248 0.148874552789855 9.121004148334439
H 1.786234252298597 -1.365372770381390 8.277279980417356
H 0.304243181029840 -0.403243604857497 8.334912985562053
23
maple-route1-mmgb-reference-mlip-reweighting-v1 phase=solution replicate=repeat-0 sample=28
C 1.009476521280316 3.717307285072882 0.934368421643025
C 0.747102943666701 3.280767495393937 2.360397241414338
C 1.365138339886623 1.947854174597473 2.754764567873498
C 1.162906314310574 1.546756192052738 4.243042809053555
C 1.964671655482040 0.292298684328623 4.592577038824681
C 1.346330059433234 -0.419504166105038 5.862001537748678
O 0.538247933232936 -1.245649933205269 5.689161436192300
O 1.527837656011512 0.289511408984344 7.035714195952379
C 1.308264027158813 -0.378696256234902 8.243042037533177
H 0.264447494249360 4.496906732156427 0.723701839512533
H 1.973247075938911 4.050449298228292 0.889482012096838
H 0.926580329866509 2.925901786602503 0.219685176910791
H -0.330794110833700 3.163966436407057 2.520278790164121
H 1.168388588213818 3.999607954576400 3.096906946588040
H 0.951259824559155 1.169383361438309 2.050776508469133
H 2.419373486545454 1.942950150803200 2.624971515453674
H 1.304996896787132 2.344327441675920 4.959623962101641
H 0.082621682927947 1.317114868783246 4.395277500178018
H 1.862409946530946 -0.413279448867182 3.724721366027092
H 2.984751666828370 0.571666047841229 4.837108922275518
H 1.409201180113374 0.200271573786946 9.123073983772503
H 1.911092708460030 -1.317126075386914 8.455837687446135
H 0.317205423220604 -0.706928884124564 8.222761188708725
23
maple-route1-mmgb-reference-mlip-reweighting-v1 phase=solution replicate=repeat-0 sample=29
C 1.015687816316004 3.778987477034053 0.912085487355198
C 0.714349688427056 3.340823831820358 2.371067710613394
C 1.493369535735469 2.046007391195463 2.779757848625686
C 1.173782639951304 1.599720231104096 4.188606758238803
C 1.891460166788056 0.293905067799660 4.596233922971592
C 1.349247066867930 -0.448077548208757 5.848736208789944
O 0.598622246722149 -1.417189166563857 5.767223827567650
O 1.583020926910582 0.251578588245087 6.991645567741472
C 1.139147339100330 -0.410899847314023 8.251047358354796
H 0.518032444717951 4.768003598745120 0.788880328418114
H 2.084528225530019 3.727488591448726 0.626824746170443
H 0.491352195791578 3.034922109072074 0.264212196708280
H -0.350891130602066 3.210570701539225 2.603042143556813
H 1.169699897209657 4.081068025825198 3.073083565806799
H 1.199077306012227 1.247743713475034 2.110752788221600
H 2.563368545431783 2.093805056037778 2.677730789873251
H 1.405472327272741 2.416395417385302 4.930226708107003
H 0.061950809743142 1.534802358838634 4.300602204675164
H 1.783236670346573 -0.371360139419870 3.741710459800963
H 2.948198540635863 0.565693216297459 4.864010081718383
H 0.946399959343095 0.280097766788208 9.039927220416462
H 1.840697602403890 -1.082923308699229 8.696338267976332
H 0.247553688084582 -0.980249626576943 8.095566053672997
23
maple-route1-mmgb-reference-mlip-reweighting-v1 phase=solution replicate=repeat-0 sample=30
C 1.006770009042803 3.820324383289071 0.920675883941663
C 0.738482574049350 3.433133324935771 2.383003114179649
C 1.568288172453473 2.159463838085105 2.803513194967933
C 1.133080641932364 1.558086239037798 4.193116259958902
C 1.896744118456218 0.266642228246411 4.608122812325315
C 1.282635711707482 -0.445739641986847 5.833505321073878
O 0.666590500557829 -1.552684775307824 5.761558833460201
O 1.616760926740261 0.133322177222517 6.979575568939650
C 1.021416915742426 -0.335200569793022 8.230058662198662
H 0.837778455608472 4.920779904661875 0.839330040080544
H 2.028275488313713 3.435562195898661 0.467636345471141
H 0.206933945554832 3.286644210873875 0.342250387533697
H -0.322977081882859 3.142818035164100 2.541593730413909
H 1.011678272415652 4.237691681643340 3.071081459994933
H 1.438014852382266 1.395108105378813 2.095950796547189
H 2.684325153829346 2.307033363699188 2.795698062285949
H 1.391919662611280 2.313191445217997 4.980043755173319
H 0.051261841918275 1.493691710560331 4.300519067932705
H 1.934705454331279 -0.365978271701067 3.733298429363694
H 2.902881321342433 0.615072525093281 4.955461966920259
H 1.021373656256927 0.568928242290682 8.869350969390936
H 1.661028949663473 -1.000193139442481 8.720437726396371
H 0.001111771477220 -0.826137501200858 8.096048048026404
23
maple-route1-mmgb-reference-mlip-reweighting-v1 phase=solution replicate=repeat-0 sample=31
C 0.975133892075206 3.852333812938312 0.951689072384619
C 0.775565887582503 3.434214691043934 2.413822162678109
C 1.571898211597221 2.198443201430612 2.869991533933177
C 1.094433104702717 1.503496414270893 4.207942926705460
C 1.949890430397688 0.238636706031553 4.600853816995715
C 1.350148888704703 -0.523813200501044 5.818129413325074
O 0.655668753548069 -1.547907399628180 5.652083851130206
O 1.624495504540099 0.146657707846694 7.015359952993171
C 0.939677051105751 -0.271671737887060 8.206307330539367
H 1.012424135831715 4.976832206141141 0.950180407387364
H 1.970510975246480 3.454682320104893 0.633025621841160
H 0.219824201199109 3.425414321234930 0.254294997840198
H -0.261577075687052 3.202074881190975 2.666778594000110
H 1.123800177353315 4.214822549741720 3.048323187160404
H 1.686991196780517 1.396104791941618 2.131060949137865
H 2.611117018374186 2.532498027685519 3.057134059188931
H 0.884238556207314 2.175566797853646 5.012561623034325
H 0.126143768768437 1.096622883545897 3.921053293829529
H 1.994081470377203 -0.409878489863182 3.701703705295798
H 2.910812140274002 0.612473852085487 4.895655796124316
H 1.333174494447417 0.469257677195766 8.946366637801875
H 1.348225151531800 -1.301735605307537 8.497495911413992
H -0.182545865165433 -0.331121188605049 8.111982404044015
23
maple-route1-mmgb-reference-mlip-reweighting-v1 phase=solution replicate=repeat-0 sample=32
C 0.996673721502548 3.846630311433870 1.045718088290583
C 0.765964267309710 3.432387139216356 2.534263517395719
C 1.582696367080863 2.172903227954845 2.930758910931487
C 1.037502788681815 1.352823298579344 4.106095945111499
C 2.009340912107863 0.264170278991323 4.600558878416577
C 1.457479158361767 -0.550286847796242 5.782182000909273
O 0.647021225546163 -1.385604793659514 5.666204753610213
O 1.587890241064093 0.164760240527266 6.939135835636212
C 0.889230239181044 -0.288063052663877 8.119876581598568
H 0.847080183936942 4.921269327537918 0.884096200721930
H 2.001552676357625 3.670543117217984 0.838218015620549
H 0.421578928123459 3.251310398567884 0.331941539993256
H -0.213205302609748 3.056469300950169 2.665350478503053
H 0.907323250206204 4.229600203289387 3.280219096883890
H 1.696196038264121 1.364062295877844 2.129442509254995
H 2.608479023504778 2.416494647712241 3.191214116814894
H 0.916013569093839 2.061877963856690 4.902991292300202
H 0.018972679620927 0.978620362086827 3.858546607759975
H 2.305792567276213 -0.415950061082642 3.782979298387074
H 2.865792721963731 0.830257263449426 4.949903651618212
H 1.461747046174961 0.092610069800941 8.999227185510421
H 0.823610739243253 -1.470559642045032 8.196318256816337
H -0.157501995386072 0.050278938846160 8.214365606628601
23
maple-route1-mmgb-reference-mlip-reweighting-v1 phase=solution replicate=repeat-0 sample=33
C 1.048333255129621 3.836115291178607 1.207697677664356
C 0.713450293674699 3.330499377403908 2.555876036876119
C 1.601784862607340 2.156445447155471 2.914753312917209
C 1.077339272902117 1.275566642282918 4.060314910701122
C 2.096467164977216 0.279163430980913 4.632072505303942
C 1.368685745370182 -0.417837548172258 5.755405624024487
O 0.616075306596985 -1.370950156533156 5.592717509659375
O 1.613252481927887 0.216834223640372 6.953158583209358
C 0.871566854338218 -0.293594905172440 8.060273317267404
H 0.409288187755626 4.642237770035999 1.010322736937688
H 2.039384320457120 4.288278426207489 1.087577565014122
H 0.875075909582817 3.074260653351859 0.474595990431554
H -0.319754424542351 3.024002370429488 2.752216424404222
H 0.946472467095131 4.106623993672283 3.319490796471896
H 1.716485967149463 1.418889887768759 2.136999003595472
H 2.621693833201270 2.481685406797921 3.157383490088897
H 0.711633814627740 1.970395615251247 4.883919780077794
H 0.182622077463684 0.701660619353464 3.725240985140863
H 2.248699178635909 -0.453255258136177 3.833368048851475
H 3.040253492048141 0.831585916351467 4.882026421092404
H 1.208094726803778 -0.042677758545829 9.089353528014124
H 0.661330823108975 -1.330922565638097 8.003559419059163
H -0.208958912882526 0.038684740269452 8.009054387995636
23
maple-route1-mmgb-reference-mlip-reweighting-v1 phase=solution replicate=repeat-0 sample=34
C 1.061128112250982 3.977857243232084 1.264701280789773
C 0.705508896254484 3.238507512016700 2.546957651943918
C 1.729165614929028 2.105143474964357 2.877809545218804
C 1.095055019817520 1.260022363702808 4.031763718186059
C 2.104619924170905 0.265960633112051 4.650100268992343
C 1.358299760485368 -0.404257636407392 5.744332886357673
O 0.583803152081285 -1.350080966903017 5.524079963604530
O 1.564322720654389 0.133129756199254 6.967307344803103
C 0.824856504632073 -0.229808202401410 8.119794588494299
H 0.160807060512317 4.406825581801620 0.871977164106939
H 1.760730241819744 4.872946520068953 1.276301078789771
H 1.353197651619647 3.223695406572188 0.546141517032744
H -0.328728203162980 2.775872931587572 2.566069248351496
H 0.670186850632882 3.872735909910776 3.437339495419207
H 1.897699108405756 1.395522485210637 2.123270940696882
H 2.704702163157978 2.484197513171266 3.181345357555410
H 0.755196654132737 1.970166293198830 4.839713557539323
H 0.197921679159049 0.715830027001411 3.713747810866259
H 2.430837588254704 -0.432983215535238 3.867873189335843
H 2.983749796552501 0.856252726677361 4.985663364315258
H 1.015380354956007 0.346332676536423 9.029445618289829
H 0.862962367227491 -1.235611161484773 8.281207593891903
H -0.242723812084279 -0.056427693922108 7.906678534404766
23
maple-route1-mmgb-reference-mlip-reweighting-v1 phase=solution replicate=repeat-0 sample=35
C 1.057807931080804 4.098189305142491 1.264632725109666
C 0.700824748582307 3.163349751359500 2.432287918322189
C 1.757034866795445 2.122932138224981 2.841908438902407
C 1.180890485063125 1.282247854280886 4.008689644090805
C 2.101488289566950 0.214359152019951 4.665658359252461
C 1.408901263592968 -0.529667061408740 5.797373104582576
O 0.505360572617403 -1.328506615958211 5.585313155086484
O 1.546107129271146 0.146874346947728 6.992856677485245
C 0.764557162838080 -0.208235576064070 8.127543382122395
H 0.180940014362971 4.614146192409111 0.730787989414903
H 1.516909389450649 4.969539191570097 1.743343148050614
H 1.762143760081919 3.617583393444745 0.514677427312870
H -0.182070494818725 2.562158211770679 2.195710576823435
H 0.385785701673391 3.662535963525588 3.336267711618605
H 2.011429375609989 1.383402022317580 2.074880569355171
H 2.660120492983164 2.561375993662023 3.218677426904151
H 0.816153114391338 1.941945763346439 4.752091148840266
H 0.313473770081271 0.728505845411526 3.613680868410201
H 2.577086307985188 -0.435409907541313 3.926058522006056
H 2.879762385218117 0.804340761514061 5.114225483541047
H 0.856127322020074 0.512032716886287 8.875139566502730
H 1.126821600159490 -1.241136699391385 8.436865063621623
H -0.250045372772140 -0.201236072440601 7.885490104787007
23
maple-route1-mmgb-reference-mlip-reweighting-v1 phase=solution replicate=repeat-0 sample=36
C 1.168580658082485 4.196377045085933 1.317844578984906
C 0.655185844277267 3.111176947237269 2.247074003644435
C 1.678728198908580 2.183294572785578 2.832025814296158
C 1.237310617955003 1.262104215718209 4.040287820852335
C 2.154148672497223 0.174469653378968 4.683438553904380
C 1.368941512926984 -0.530045544560315 5.813880259553076
O 0.495800596968072 -1.351555631189555 5.663096754172320
O 1.531805079856290 0.213276184781355 6.993723295127268
C 0.721408523460664 -0.296513828525767 8.115708048947646
H 0.362649009840441 4.748271157173647 0.746155424323741
H 1.517041445210656 4.957672401331939 2.026015289237497
H 1.947607536336925 3.806299530775555 0.602152042828672
H -0.037750955473706 2.518270887144390 1.736149592960717
H 0.105451636533792 3.503198618944490 3.088241775513953
H 2.151156049059816 1.512277787723212 2.056001251744708
H 2.466734925657210 2.747092722447904 3.309918307288027
H 0.884684622430823 1.902260829978890 4.812237626240929
H 0.396918363441366 0.662034682499977 3.669928305702709
H 2.321304630125527 -0.549403250947185 3.892236999560370
H 3.083848452201237 0.637063678517939 5.004770014841665
H 0.813130384395947 0.432600064318448 8.914396499635352
H 1.235190004991669 -1.298184757782882 8.419579621221041
H -0.352206237079560 -0.288558730713955 7.944205983406215
23
maple-route1-mmgb-reference-mlip-reweighting-v1 phase=solution replicate=repeat-0 sample=37
C 1.307475125108291 4.254926062663554 1.423409622163776
C 0.624457135760202 3.005238139255128 2.102355678890913
C 1.748538019718623 2.182910223162129 2.877403501587472
C 1.110054995007073 1.296710809222993 3.999069332517859
C 2.039264526549672 0.227233060907862 4.633486605752320
C 1.316933528149191 -0.436927387890225 5.788792125385200
O 0.583476357609229 -1.389696596825924 5.643588414911952
O 1.485956206917220 0.201977673279098 7.027665632704205
C 0.749865067896508 -0.366305283355435 8.181202509277730
H 0.600510506830629 4.859415386786521 0.923077759732604
H 1.840126761277464 4.932211005232897 2.165041347088248
H 1.930346181637733 3.766303450130326 0.670564323079979
H 0.183729385914414 2.350866490003965 1.343023067259583
H -0.201639158458174 3.240011603471809 2.789754414811427
H 2.261759889234658 1.482128659673180 2.222451188800163
H 2.555262333204904 2.760817480759364 3.413717582949246
H 0.954614792806850 2.033828329500670 4.831658768049663
H 0.148014326087616 0.850738766156266 3.722789541745982
H 2.222437808306259 -0.518847033509964 3.836451706775373
H 2.976687273895158 0.745226846890119 4.945977374408411
H 1.011864120505552 0.349122660061257 9.050255212375838
H 1.159696191275414 -1.297070913354087 8.412119463715353
H -0.388890926359129 -0.216691252804136 8.185231486770730
23
maple-route1-mmgb-reference-mlip-reweighting-v1 phase=solution replicate=repeat-0 sample=38
C 1.439610924036853 4.258992751780474 1.501850917298869
C 0.797670133608086 2.933035413583992 1.996904191693285
C 1.749075577198763 2.157003329759517 2.923517439898475
C 0.888616540836280 1.387983622127102 3.981537009788379
C 1.890161483317829 0.392329182695381 4.695182554889187
C 1.237125402298260 -0.413721619838747 5.782335662623063
O 0.660074638610378 -1.527623316634703 5.604556756363114
O 1.454317801529036 0.185778348163710 7.030646888468610
C 0.848387991193356 -0.366401504272007 8.155012201306180
H 0.549127092533258 4.750099027181472 1.179249766233165
H 1.872388849554764 4.897864741654775 2.302610879150347
H 2.023924874300336 3.982932029860781 0.659049429650778
H 0.265779631506024 2.267736736782171 1.227824567336729
H 0.007474760220404 3.277118925274121 2.713101345231126
H 2.280785676201218 1.420757372246071 2.375290229450892
H 2.484803872587012 2.743657164178029 3.492818432282462
H 0.345589107481938 2.052805646963179 4.719544680394371
H 0.179158524204104 0.748426340788345 3.434455859257950
H 2.328796631395958 -0.255641945496139 3.892938353975853
H 2.659219259624622 1.052552131202539 5.133684210060416
H 1.217663031583277 0.120395192305904 9.087773049097787
H 1.109214687511510 -1.402168904561188 8.270947930392650
H -0.227941344225005 -0.099232172175689 8.228569011000378
23
maple-route1-mmgb-reference-mlip-reweighting-v1 phase=solution replicate=repeat-0 sample=39
C 1.602729768072804 4.313864184380397 1.478794443660139
C 0.832396822840252 3.056364696370801 1.990764319130225
C 1.636907265416146 2.149481196626434 2.937910866237685
C 0.856730628511442 1.271436578697122 3.908616247847414
C 1.813221258038784 0.441938535885051 4.768280278434901
C 1.144087379975572 -0.369796464661779 5.790725974499944
O 0.739858685242429 -1.513860331817039 5.636915327665237
O 1.385996737350751 0.144744181007129 7.012362637023527
C 0.902335082371914 -0.444593935894660 8.166720902402901
H 0.790957489857823 4.940828943057075 0.986691048947165
H 1.906973558489781 4.817223897064330 2.349342954250168
H 2.365436478255304 3.933732859071373 0.782293390213533
H 0.781364679312417 2.380163386127880 1.092304453810665
H -0.205171198435602 3.204576474059743 2.394467498444481
H 2.334160048571174 1.532055903217385 2.359790789667767
H 2.178214914769112 2.760144904270804 3.629206614234098
H 0.277516846204759 1.905357439534023 4.573560401246072
H 0.190815408726354 0.585546493222562 3.361795027790746
H 2.400476092222128 -0.169078163109620 4.084286546396054
H 2.383085598962995 1.198053306744421 5.289417627037026
H 1.217246810714081 -0.073882891764344 9.089209644878396
H 1.134168371785061 -1.599833179778784 8.235422182125196
H -0.115465691325456 -0.278237672300769 8.190512040141062
23
maple-route1-mmgb-reference-mlip-reweighting-v1 phase=solution replicate=repeat-0 sample=40
C 1.734383768019356 4.324631849223065 1.446999147997271
C 0.828722278727059 3.139512313005820 1.896685282950261
C 1.606151276761865 2.269913189380851 2.935287014280876
C 0.841126499674375 1.181213512223465 3.760495241859438
C 1.819996865129646 0.437530713863621 4.714460742440043
C 1.161346553203069 -0.385254193122118 5.833777148132803
O 0.718965338539776 -1.496149690006637 5.650562556394453
O 1.330089191405300 0.175116435802241 7.119865773850600
C 0.872507547799325 -0.591833415504678 8.293029902448884
H 1.273765345204043 5.017045678773902 0.710347403922214
H 1.719229773779241 4.758708754613067 2.424007887201233
H 2.742448850722283 3.903778867689280 1.211882523962607
H 0.505780164418618 2.486700417188620 1.119526980202747
H -0.031271313014414 3.514144721790219 2.447114013989848
H 2.437415959822269 1.784891440855178 2.348143877078881
H 2.007376544498651 2.907268631163658 3.723469685999035
H 0.074498529685519 1.635968651428341 4.330665036652579
H 0.336358557201805 0.479417138979029 3.094346534909552
H 2.291480882446377 -0.265369026312070 4.077795357483160
H 2.487474554941241 1.158760793412772 5.165218308774316
H 1.037257816823445 -0.208693855429509 9.265226801624252
H 1.270889543212612 -1.620203555410009 8.311227978843892
H -0.215673627142109 -0.662063236878330 8.167372394402094
23
maple-route1-mmgb-reference-mlip-reweighting-v1 phase=solution replicate=repeat-0 sample=41
C 1.781017761469170 4.313638022323135 1.408964792740591
C 0.861244167264663 3.184412599457958 1.921764363913322
C 1.609427883541512 2.364307710570559 3.004258526331088
C 0.852069261944477 1.133251326755940 3.651360424853591
C 1.855416205278455 0.471896617862949 4.735082416888182
C 1.198232221255835 -0.441345389432641 5.866220581174092
O 0.658888015224499 -1.495188583658831 5.690017046750197
O 1.267965584596817 0.138555389955862 7.128679313421879
C 0.840285232066296 -0.643462224027890 8.263011108219205
H 1.330031908780062 4.626176504497970 0.496593505398241
H 1.791918273763083 5.197365508553689 2.129645249075402
H 2.777032910785682 3.897326032982902 1.243006900010953
H 0.552907135236093 2.463468504589184 1.173537358010791
H -0.026334863276541 3.552832511341566 2.426327685275518
H 2.467180120113446 1.954838348083253 2.442456646978756
H 1.928722740150511 3.055676178029130 3.846976755365636
H -0.093544274614809 1.463848725632414 4.127229422073855
H 0.502398035919634 0.494932229269812 2.849105899866125
H 2.587258812754121 -0.173841682247640 4.228219450107139
H 2.385965277489906 1.271965970749480 5.288810606515457
H 0.888423691601360 -0.034508184807179 9.230657070607847
H 1.452893650067805 -1.425786843206017 8.426523345809372
H -0.261748980898994 -0.969056862676482 8.086437990393920
23
maple-route1-mmgb-reference-mlip-reweighting-v1 phase=solution replicate=repeat-0 sample=42
C 1.738425080179518 4.299822049061053 1.329017651264961
C 0.897760304513785 3.154418059945037 1.947556577066896
C 1.675591882055782 2.379127350414330 3.154690558329803
C 1.002621058940343 1.113249346542717 3.762286010096008
C 1.807697644679717 0.488902022290567 4.847387599869109
C 1.067639569474176 -0.379026203364125 5.840677901404230
O 0.669097523509609 -1.523750559114615 5.585702033271454
O 1.243095606202588 0.138097521928573 7.083442417144811
C 0.807681459187812 -0.621643096938601 8.170900204343280
H 1.224659627000893 4.396126661430263 0.371690711980574
H 1.874912075237901 5.258529348252018 1.837504485931333
H 2.666345420537914 3.842496879091160 0.965431133720790
H 0.603615435923129 2.345444324862978 1.219762407615387
H -0.076478797125010 3.501044982537423 2.390030431087609
H 2.675777520875777 2.151385410965329 2.794862486698584
H 1.712348340816501 3.100617984674070 3.992613988553500
H -0.032291212131724 1.371032132032104 4.117233920317460
H 0.785275739630931 0.439511635649046 2.931468969028422
H 2.642040001336369 -0.164348102876190 4.437310566221066
H 2.238451216571913 1.312568869262566 5.471246920940093
H 0.824424936826588 0.066534551524453 9.061691059291377
H 1.590241374921848 -1.378859553922893 8.397745245314185
H -0.211839468761489 -1.032314088698286 7.975511539913446
23
maple-route1-mmgb-reference-mlip-reweighting-v1 phase=solution replicate=repeat-0 sample=43
C 1.645289835435047 4.142208448642284 1.276330097088432
C 0.973140819942660 3.003616920061281 1.988034036543380
C 1.731833746211661 2.504257022292056 3.277609082576795
C 1.086606982455613 1.215926958954894 3.800229881269641
C 1.898372166003699 0.540946651590377 4.844787220244847
C 1.011184159871968 -0.294234992078487 5.766710060018311
O 0.689758484789667 -1.483812944354422 5.487828857530289
O 1.167723028375740 0.142571242087743 7.070207421404776
C 0.703091605573844 -0.691558988677325 8.203113678956532
H 1.017385572610426 4.594488752436314 0.440112619175062
H 1.755468004924202 4.859030295086838 2.046801404228939
H 2.634738682882777 3.910015812157568 0.836764497359509
H 0.769844887357267 2.081476766744843 1.389421932258431
H -0.015111313959986 3.319204670258373 2.376238315174538
H 2.727757022188669 2.275295838693796 2.902247354510823
H 1.776396528281148 3.253533439029008 4.021577364758596
H 0.062291803255948 1.410072594172907 4.124032717146508
H 0.941951432360297 0.559474305183061 2.921954644960351
H 2.668040411478210 -0.147887734697256 4.417905419659599
H 2.410455672373137 1.309049226730175 5.449838862884527
H 0.870802666694295 -0.113117131942282 9.081688807803971
H 1.468095468077839 -1.611110721688792 8.378891236307309
H -0.310774820118513 -1.016114857358722 8.105418689934613
23
maple-route1-mmgb-reference-mlip-reweighting-v1 phase=solution replicate=repeat-0 sample=44
C 1.586624899980299 4.066569493105923 1.257547034552904
C 1.012067261214756 2.911552393526824 2.014022078046281
C 1.769037789393600 2.549938349012015 3.211419209667701
C 1.096852945735679 1.291955971147177 3.809784248563034
C 2.002316377711548 0.604871111286678 4.938113582714591
C 1.194801556145148 -0.343389060736760 5.822290226854610
O 0.668661252519804 -1.386346907877569 5.433929936038211
O 1.047296037115333 0.149259350962277 7.119187428165884
C 0.593769787743293 -0.783490448244403 8.111657980585221
H 0.944485380151682 4.542431297354160 0.528419128748368
H 1.811418950288826 4.774445017450502 2.098071780801889
H 2.507589230908949 3.792541680352497 0.772403328483643
H 1.127434242423232 2.043038023906623 1.432659787103945
H -0.038104219070817 2.971505674649699 2.221324227082678
H 2.825382771891260 2.463370628125886 2.920078186153700
H 1.696440762631246 3.347944910741691 3.953123419501172
H 0.193702257722488 1.672788590001762 4.249616863274122
H 0.745364628025464 0.601651920896452 3.029725549841833
H 2.777572447045733 0.000079676203982 4.544303007336914
H 2.507046019989360 1.354301729444832 5.527552857914869
H 0.873146066908671 -0.385633780680149 9.064645191868223
H 1.117471203334330 -1.730576768319314 8.081376182469143
H -0.497549441631356 -0.981538362557850 8.064469953200536
23
maple-route1-mmgb-reference-mlip-reweighting-v1 phase=solution replicate=repeat-0 sample=45
C 1.576260938701304 4.143012967235823 1.145824105703665
C 1.023583026474967 2.855803293049555 1.886150643833827
C 1.755850417394548 2.425610009326873 3.225454560142205
C 1.133419711167736 1.322103805406038 4.082191766864273
C 2.053353536505837 0.677659277765776 5.063547765630507
C 1.233402880101500 -0.324003258294310 5.823719494351856
O 0.716118891859126 -1.316670143046057 5.389023364925953
O 1.049375592049871 0.098421759530761 7.128625981566053
C 0.472193857590323 -0.834379780646725 8.023538115900340
H 0.947923077940904 4.384361732152453 0.341860800754775
H 1.643328881661832 5.016617709787888 1.851466435194790
H 2.558815309200529 3.924580848213677 0.694442822964218
H 0.909316640977354 2.033625012337067 1.219197490275253
H -0.003777678665648 3.067003454912614 2.090600288661637
H 2.844154935503569 2.232639205173188 3.018955784563728
H 1.768716669492415 3.334428668715645 3.929718192877163
H 0.157478053274074 1.607671729830932 4.512019980707795
H 0.969820179098326 0.552760596870743 3.351140825376424
H 2.828769480162095 0.163653586100464 4.560362464941719
H 2.534689741166974 1.431544603524696 5.650168284357148
H 0.538908976642963 -0.461260306393399 9.075034431319430
H 0.822259390636835 -1.751477187047353 7.967896506530173
H -0.625728183013162 -0.974593281795737 7.769282722238576
23
maple-route1-mmgb-reference-mlip-reweighting-v1 phase=solution replicate=repeat-0 sample=46
C 1.543348782955257 4.061882175422745 1.159190501957937
C 0.984752649868304 2.845486516194336 1.888446143660945
C 1.835821756614539 2.503819776828311 3.130197197563793
C 1.164270365686014 1.420469434287800 4.029386420953952
C 2.026813242684864 0.736393113963537 5.101944904135439
C 1.252392776614471 -0.291716556066592 5.874759375233589
O 0.828308263716567 -1.295718977400154 5.328665331241757
O 1.116581387526924 -0.024046948617691 7.257145968905345
C 0.267375401349660 -0.866814202215664 8.025477862180963
H 1.044040081653201 3.944727830912082 0.179425036272542
H 1.396053952594732 5.019793335041519 1.594067887014670
H 2.606569807604699 3.868022822607091 0.916875160716089
H 0.827510924822599 1.963459596939908 1.206662969742613
H -0.074438833300407 3.062941353302939 2.085200318485839
H 2.774201873339472 2.063286139393780 2.707785435946366
H 2.215381217035946 3.389910583518968 3.702229013190705
H 0.388595117521236 1.968062731846296 4.610477268035231
H 0.642678925096927 0.697793843687792 3.387485154545452
H 2.998095782104025 0.331936724254210 4.731474849083811
H 2.303221709215070 1.577500341544081 5.732143119540706
H -0.046930433343232 -0.421300045333235 8.977118404539258
H 0.634834695513180 -1.902703329743602 8.148443667286498
H -0.605591978158583 -1.093573172395155 7.446950818557166
23
maple-route1-mmgb-reference-mlip-reweighting-v1 phase=solution replicate=repeat-0 sample=47
C 1.523163298670703 3.983404812513315 1.085006112953324
C 0.957997695953111 2.837374949696956 1.947390302224959
C 1.927091348947792 2.446954921117320 3.033663612318583
C 1.152508182110578 1.552500784703852 4.021921796812402
C 2.036667026877554 0.924287670132312 5.221919987413219
C 1.304671141994147 -0.277015057016204 5.906297270618559
O 0.915259765558790 -1.333184343369835 5.354425600177139
O 1.091966628524089 -0.123586156547517 7.243906814376660
C 0.121593686627359 -0.896569503918310 7.987829688140000
H 1.148972316272136 3.931725686474257 0.008674248968995
H 1.233204254744926 4.934996224873703 1.534420909122036
H 2.617165800017263 3.993285795095590 1.038009205981020
H 0.606095338329458 1.940395823449485 1.368604235597708
H -0.031066554855394 3.152402717551084 2.333628910596153
H 2.828437536661271 1.990084479811393 2.608802301558848
H 2.316612857357371 3.292869451057627 3.520465796418227
H 0.303736926365361 2.111432034266420 4.417512804616564
H 0.698213000216973 0.711045720480820 3.446598158404292
H 2.873748985671475 0.429999883653418 4.644406635934075
H 2.495184978281932 1.729333482991465 5.853558430661536
H -0.181180499797422 -0.339901097513891 8.857980997967370
H 0.539806748776226 -1.976291860529119 8.262833529726446
H -0.713747642754771 -1.178283092202717 7.404605227702085
23
maple-route1-mmgb-reference-mlip-reweighting-v1 phase=solution replicate=repeat-0 sample=48
C 1.511616612480305 3.960868232157775 0.882977501521588
C 0.960766054348379 2.929793244813760 1.936919419770959
C 1.891808391909060 2.353648341260039 3.083876181192247
C 1.184798221297474 1.502498122034894 4.177562297937465
C 2.034794124115497 0.834706160009552 5.306928185352794
C 1.317584801393772 -0.277899277201940 5.935130552123531
O 1.013455568020358 -1.315540481891291 5.321164253932746
O 1.004630856832027 0.022382913910202 7.257945428949268
C 0.110895746948757 -0.937612131239519 7.893594118780975
H 1.027117041101912 4.031728544654211 -0.081742092538706
H 1.415038426062350 4.947462285279566 1.445825312080536
H 2.590551145062599 3.900293163298890 0.787134752204466
H 0.718515861890892 2.069476363211261 1.352346028411979
H -0.046488823482546 3.207316334797381 2.263927685518650
H 2.720036331941553 1.843475302681751 2.680239789024704
H 2.389385053299182 3.146667233493265 3.572459536816397
H 0.407353715685553 2.121603244427837 4.613834818470579
H 0.656436899302688 0.707364163295362 3.645831199019771
H 3.055375058026606 0.583903699407426 4.973368261857870
H 2.150543616720161 1.613594017228840 6.085831114287165
H -0.123693692611830 -0.572710708692851 8.924463724538001
H 0.581602073164152 -1.909641532998297 7.879553882558942
H -0.846415248915034 -1.120219259897657 7.316958652235448
23
maple-route1-mmgb-reference-mlip-reweighting-v1 phase=solution replicate=repeat-0 sample=49
C 1.558050798433221 3.858414309754940 0.955977716161843
C 1.003717233410842 2.882203333037827 1.954168784410452
C 1.859053054158119 2.390081499997421 3.093719422019859
C 1.157743262857070 1.507464528323562 4.157248463569476
C 2.074462305075305 0.917422947762956 5.212200212006365
C 1.354366807201261 -0.261494722887590 5.955140245772600
O 1.104495420576675 -1.290134158668410 5.411693319975569
O 0.821875237060299 0.058020342134548 7.171410499630583
C 0.105528319330522 -1.001509261260210 7.897799525672485
H 0.784900286741640 4.061316219222181 0.227089077989332
H 1.852377777437119 4.814343698129342 1.416726360173060
H 2.466161130714096 3.507355633405198 0.447052709122960
H 0.544227213115283 2.085119730315826 1.433145005507530
H 0.156755044925297 3.363061371150518 2.412891900851671
H 2.728646511757918 1.903876037270825 2.704223574302475
H 2.347366481917867 3.295966437478262 3.562200839510608
H 0.311794353674401 2.055611940785680 4.604972724353003
H 0.716342612744261 0.694923402601060 3.605891669585868
H 2.984963483471305 0.626478027247193 4.715794242185098
H 2.294951038922235 1.699489827951447 5.934219249090099
H 0.102477523970202 -0.591289079030971 8.928355918937976
H 0.641217332688562 -1.872833919545857 7.766130071075708
H -0.968497234671782 -1.161610155821345 7.523679246876174
23
maple-route1-mmgb-reference-mlip-reweighting-v1 phase=solution replicate=repeat-0 sample=50
C 1.667691366272677 3.756186930274649 1.047471396518986
C 0.875889571790596 2.850447469693023 2.011633327843217
C 1.884525708510455 2.477353610265546 3.133756191772253
C 1.150781884493423 1.516196532831528 4.046735291100407
C 2.010773780181012 0.932327057769025 5.205154052432045
C 1.257260915463916 -0.251130446748321 5.922391075975063
O 1.271140218370920 -1.358195310285526 5.420029250158539
O 0.743364010123619 0.121199207005831 7.141129379791535
C 0.126155152723889 -0.933317760187578 7.908852345731699
H 0.952789469918011 4.250132711608330 0.338700527984535
H 2.387724842961754 4.432428785685282 1.398024922797820
H 2.240862724650853 3.055367740268216 0.416261258255599
H 0.443790789979447 1.982253835697153 1.450753024293726
H -0.003077475689304 3.316200169925265 2.465035314588431
H 2.834935469108963 2.001617227840284 2.713015610790321
H 2.313761002258014 3.394275413017807 3.629117621339288
H 0.296588007286204 2.084603049240326 4.448701583707485
H 0.681970151487617 0.748123185880318 3.409488864223793
H 2.830008658304510 0.450093159382126 4.640857407185349
H 2.344925801376964 1.718737833893634 5.904238384826636
H -0.106907746641424 -0.523022382913226 8.848724648573526
H 0.827933405442337 -1.800256022997862 7.920527549518567
H -0.802167231085820 -1.233999969580316 7.468134798350873
23
maple-route1-mmgb-reference-mlip-reweighting-v1 phase=solution replicate=repeat-0 sample=51
C 1.723225769811902 3.708273049099491 0.935190356403686
C 0.917469083683792 2.969361861886358 2.025956953595577
C 1.786100078191244 2.458716320996375 3.237661568813362
C 1.058740502215515 1.406306345740075 4.076099670941440
C 1.976254222443766 0.928956336481044 5.257947764908717
C 1.227226426122760 -0.257222220140270 5.838473547862328
O 1.400091401040984 -1.441138705104517 5.510315259264647
O 0.762511439290318 0.151947183757795 7.016785402071828
C 0.126746313987557 -0.833612416460524 7.892429914568197
H 1.009641648315423 4.288043081980126 0.301112330573532
H 2.493106088927818 4.384899485723318 1.317951436902189
H 2.317704558397527 3.054784531695860 0.300941784660289
H 0.298790957440143 2.136108598976872 1.549095885879547
H 0.157293609406045 3.659187364772815 2.456402208025843
H 2.739885796727793 1.972562394024670 2.834668366099213
H 2.196568987358838 3.281587115510333 3.796968803646514
H 0.173720541152023 1.904952005222558 4.482358756735846
H 0.695859752056550 0.616498160238419 3.404958484137129
H 3.028708668702189 0.692535013715908 4.893604878933865
H 1.914798261117740 1.758212046570877 5.999276359989288
H -0.486047294537418 -0.401853997689413 8.666728982871780
H 0.853575556747241 -1.620084148556406 8.291956002133983
H -0.629590009665476 -1.412099261853863 7.427703250006614
23
maple-route1-mmgb-reference-mlip-reweighting-v1 phase=solution replicate=repeat-0 sample=52
C 1.761714004803199 3.655369962853836 0.895183268096957
C 0.961007775741565 3.126900526804757 2.055458259954536
C 1.729999045734627 2.449550220481230 3.165112794515355
C 0.997128373516051 1.381181231660880 4.036712978193414
C 1.888860639584287 0.867800824285433 5.164021026576111
C 1.416710098101031 -0.282684738354463 5.997169511806366
O 1.510934482166539 -1.448952913334229 5.588237041502985
O 0.641253706605799 0.141681731512576 7.006918654988834
C 0.094828669618059 -0.802411479241944 7.893509097558631
H 1.093053802246304 4.091367440110335 0.202530467610016
H 2.379368488850279 4.494589753038749 1.344643950484918
H 2.515219187442581 3.005456716670312 0.458034251176103
H 0.354773565547287 2.339664508291650 1.604709105470592
H 0.267085483153189 3.892780770871446 2.487557979678537
H 2.655475323143883 2.064969151817011 2.783482542304747
H 2.025081735911843 3.296862483407883 3.773871882792702
H 0.009318959178809 1.706422419477846 4.360513961760518
H 0.918522733369022 0.540503290473569 3.362315748796056
H 2.831035135077314 0.630249213572441 4.658841083284944
H 1.971212240239115 1.731026551182542 5.859452457371907
H -0.767145762341625 -0.417361540191498 8.533322163058015
H 0.811682896367858 -1.340245923433580 8.476479813147566
H -0.545240648891646 -1.604286002181527 7.411215866255215
23
maple-route1-mmgb-reference-mlip-reweighting-v1 phase=solution replicate=repeat-0 sample=53
C 1.795336122645909 3.664897466029164 0.893584619029493
C 0.849730221725884 3.149008377665287 2.054442069152834
C 1.706525334990887 2.428276478573713 3.117286170694344
C 1.042866876908696 1.371172564961242 3.948491006680240
C 2.012624548917956 0.891937026194963 5.059051031841648
C 1.435440958411627 -0.262645144140360 6.028879084614276
O 1.621736341627030 -1.426128520207435 5.757978309593365
O 0.523788873581710 0.126893230320883 7.015526910116709
C -0.008738793401258 -0.851423847650915 7.910992484568896
H 1.287047936463027 3.932656971568298 -0.033610517513604
H 2.412020320067005 4.501470963037800 1.265613945754787
H 2.588533473743078 2.897862054467282 0.752771790466546
H 0.224588150709436 2.408066823198864 1.604157930203010
H 0.224381718066094 3.930999667697505 2.487107131994466
H 2.581547081711968 1.990092049028729 2.689660008662433
H 2.048299262544783 3.259549938240034 3.785557906849021
H 0.175308498283230 1.877085194513432 4.389261597567647
H 0.749881023020074 0.558901674344624 3.279119244839380
H 2.887935662825370 0.572415479166921 4.546278582728644
H 2.224842192276628 1.798815422347602 5.621487762869613
H -0.838205436682093 -0.442889736846907 8.508900495379754
H 0.779398269767301 -1.232339676325945 8.526222309222755
H -0.516530212571407 -1.702832887641744 7.384163568028283
23
maple-route1-mmgb-reference-mlip-reweighting-v1 phase=solution replicate=repeat-0 sample=54
C 1.723654679622122 3.740775569075747 0.874605173815131
C 0.880944815064866 3.022231282325152 1.961806922415374
C 1.753701491630459 2.458355447949404 3.136690478092729
C 1.031835731237871 1.344910812995725 4.026080279856740
C 1.971777726297600 0.826850952177271 5.217140664052696
C 1.333790684586946 -0.315986030988176 5.937276299650297
O 1.796870167243631 -1.418001597711297 5.921799975755377
O 0.532606307039306 0.223464620000866 6.913620784518405
C -0.078164266964098 -0.814908511473256 7.800209350578160
H 0.990259211271031 4.083427178768584 0.066054628136664
H 2.328012114186428 4.531124190721095 1.257960832160373
H 2.415078969106473 2.978225574250347 0.494833684819198
H 0.180605943713605 2.275541509167034 1.520580263240132
H 0.349105558910931 3.860094081751297 2.362736059404908
H 2.569389695553191 1.824447296566654 2.619002146775959
H 2.273190918949349 3.288484872569948 3.692062421937315
H 0.140507078115382 1.828039188134010 4.449584884303509
H 0.692853441928192 0.558423632788250 3.333189578550054
H 2.957245734043221 0.534207347248343 4.839685922594590
H 2.130638525176366 1.651218059656863 5.892108042156271
H -0.763943941041464 -0.366162674135523 8.485527673491863
H 0.826025899066212 -1.254152444796033 8.333746058786726
H -0.588886595330511 -1.567350881183196 7.175008095414625
23
maple-route1-mmgb-reference-mlip-reweighting-v1 phase=solution replicate=repeat-0 sample=55
C 1.621476622526201 3.794460430890174 0.889218116464203
C 0.928491206066367 2.872664136585805 1.951907653116781
C 1.831646960247142 2.383935225613717 3.109412016643270
C 1.062637776401930 1.371729954861952 4.038909950690591
C 1.936922570019216 0.946086529022588 5.206077843563967
C 1.447378681874769 -0.287942928135583 5.998496525651461
O 1.884776975155421 -1.439775786528439 6.001601392387412
O 0.472384906468663 0.154548061383760 6.828104625779346
C -0.186068204326146 -0.753329129548793 7.775176890119332
H 0.763533276773635 4.253512173457374 0.377466022965458
H 2.339426570654820 4.529832312261735 1.281871338010109
H 2.157177759009247 3.178391068441205 0.177845178924259
H 0.534494396258881 1.978279079565699 1.399586526725892
H 0.083075274292575 3.466025674140883 2.329053970532205
H 2.782827452119238 1.929696624068779 2.645987326761687
H 2.124745805963029 3.285150032349346 3.687894009799102
H 0.164405606870191 1.868453656958313 4.415091369321258
H 0.753240198106917 0.503453601146074 3.438889675587555
H 2.944048225771876 0.816197023895223 4.767678532460790
H 1.999667952124430 1.838258724784531 5.861883897445571
H -0.645229417857311 -0.111143511648176 8.568564961362625
H 0.644517772815485 -1.261426567524958 8.278807099096602
H -0.884229075738578 -1.392442059006126 7.195087026002457
23
maple-route1-mmgb-reference-mlip-reweighting-v1 phase=solution replicate=repeat-0 sample=56
C 1.527458922807340 3.821930833262677 0.964954028271410
C 0.901407734464228 2.706808031946263 1.852872761049779
C 1.849770813599257 2.302064402805597 3.025368884903146
C 1.210065453195945 1.362288775949825 4.023905692628909
C 2.043483552321970 0.944905841059002 5.240487057789348
C 1.488869642040888 -0.167439084070693 6.134319491431874
O 1.904608376533312 -1.315036012516285 5.940815034058584
O 0.349033563623050 0.152268614995824 6.869425113720071
C -0.240888699328320 -0.767043844753550 7.738467668826546
H 0.752591883088890 4.402191035647474 0.543543227598863
H 2.117708394938487 4.471481136192068 1.656856957740776
H 2.240510775831043 3.506230145342149 0.202312344950670
H 0.812390550494617 1.828484071896633 1.236445279719524
H -0.102807373800529 3.054654471678544 2.193107726961870
H 2.742047307890899 1.937359126985720 2.606871093805125
H 1.999767758634348 3.216040891386794 3.628955697943284
H 0.252238525269952 1.797709772513961 4.355018026283741
H 0.970975033179561 0.473793016413223 3.413672095942770
H 3.061064993856969 0.748297722068860 4.865366717604696
H 2.125755198264663 1.880589204064807 5.852047494875570
H -0.781012125240423 -0.193339467310030 8.568354390870661
H 0.474917905016077 -1.284247799520449 8.326717990228858
H -0.884536642683203 -1.424688294742297 7.139753124424572
23
maple-route1-mmgb-reference-mlip-reweighting-v1 phase=solution replicate=repeat-0 sample=57
C 1.431668403620740 3.846942182712076 1.016447551963659
C 0.967672105597358 2.615150721119104 1.782768192936215
C 1.836962167004673 2.236805086629201 3.010752986834629
C 1.258231455067416 1.210802343180731 4.015448617741450
C 2.134938002517328 1.061155240683179 5.348906263259940
C 1.457103648287400 -0.088277391230362 6.079198338242354
O 1.797060652425905 -1.259057748644717 5.971580911577817
O 0.400372727496298 0.272321697388272 6.913797508501038
C -0.226322392770572 -0.822775182981910 7.634528840609384
H 0.705414730526354 4.247593662795975 0.310989467889618
H 1.643184487182108 4.607909899650851 1.787859002244061
H 2.412797480811319 3.714795306547863 0.515034335319368
H 0.885900403376647 1.756709168839520 1.158115639164729
H -0.002469006029137 2.908532105206149 2.173251555001512
H 2.698870556013360 1.846327817116385 2.567830901455203
H 2.024849955854352 3.149242761273675 3.557574893298583
H 0.199713449918044 1.427052969743064 4.257131102726149
H 1.252605512097224 0.254506509000206 3.475254197210992
H 3.203105524022289 0.897640467356428 5.175012151284449
H 1.993337655986864 2.002445698286173 5.895944074050353
H -1.102114046862072 -0.556546385258984 8.243477278698505
H 0.340267168229442 -1.341708284599559 8.484903713331992
H -0.526773388260473 -1.584121517179142 6.910454441323465
23
maple-route1-mmgb-reference-mlip-reweighting-v1 phase=solution replicate=repeat-0 sample=58
C 1.323101464854801 3.846101235040853 1.079882299092841
C 0.971312826032674 2.542900399959874 1.835688375762186
C 1.960822574105647 2.280473427739220 3.044475427876299
C 1.364423078291940 1.096406429364047 3.931811466057946
C 1.933202617183362 1.120905799404514 5.362897066146111
C 1.548387394589946 -0.095926060113197 6.187263045843209
O 1.795789235490648 -1.240930598797542 5.911144627400536
O 0.467736148608607 0.286041958932924 6.928832449108326
C -0.296326512945981 -0.757054478453248 7.565674584884704
H 0.991174410672927 3.792795280075855 -0.017965851903878
H 1.076777696900075 4.830289002146720 1.495438216631074
H 2.414427305764886 3.819618695563885 0.997505831363662
H 1.072432659701201 1.673482788730255 1.148031810664642
H -0.044044736191838 2.594612786027191 2.191945245789119
H 2.942403396129484 2.060111175393433 2.550416174492731
H 1.972409751615625 3.192877033975341 3.611694624762735
H 0.286262381670569 1.270642477715593 4.068012718641207
H 1.469625826693907 0.111951491896485 3.472644978190110
H 2.996293341757136 0.938464343021397 5.236631410285860
H 1.736647946358891 2.088294168459258 5.788739266844107
H -1.230109081915213 -0.461157343715864 7.943051040071396
H 0.101829856588801 -1.200056725367961 8.505596100303878
H -0.453540341619234 -1.582403471099507 6.818788848033465
23
maple-route1-mmgb-reference-mlip-reweighting-v1 phase=solution replicate=repeat-0 sample=59
C 1.251776979985327 3.779273448431026 1.107382139515323
C 1.057677171105007 2.465687442235929 1.844184200421018
C 1.892706447869066 2.296612480432174 3.128903213738637
C 1.486874794339186 1.081329031623400 3.876340122928952
C 2.001894068707479 1.151704802542613 5.308241317253427
C 1.516523524336256 -0.071491199749228 6.150997987416989
O 1.874053096483147 -1.192651755419863 5.855215510277771
O 0.430976259645639 0.256582075801824 6.975500207267657
C -0.411519963003274 -0.710407892712579 7.591217770035893
H 1.003785018003138 3.563536966987022 0.039451804569607
H 0.574831408107137 4.582935799431676 1.443469263321068
H 2.264149339264050 4.203460022907539 1.102129222637977
H 1.148119937599758 1.598430862444635 1.126631955516378
H -0.016717716882781 2.510706404985220 2.154241057994412
H 2.960575467677886 2.142549629465211 2.751060987397018
H 1.732333895971979 3.184081627875499 3.753432742146916
H 0.395922081698117 0.966685587331369 3.881353942742864
H 1.920311891784015 0.206695961395213 3.376170271273291
H 3.092929158721343 1.130889433352919 5.334772654324874
H 1.603972007819516 2.088013688618211 5.720477924185746
H -1.247487016105022 -0.249865859798568 8.109391097133795
H 0.062952420779542 -1.209074166658105 8.359822247300764
H -0.721530840345291 -1.413519289597512 6.809678318562891
23
maple-route1-mmgb-reference-mlip-reweighting-v1 phase=solution replicate=repeat-0 sample=60
C 1.200000450468243 3.782704646553429 1.086384970409226
C 1.061832837056196 2.395528101223821 1.770882948958800
C 1.776395793023625 2.380472937189865 3.139393986343510
C 1.636510041274859 1.061835687689034 3.915960945918264
C 2.109906252524659 1.086740906220380 5.404646097049511
C 1.382648246268399 -0.054663660977773 6.061855638526110
O 1.836740228160696 -1.199864866522138 5.991474790299396
O 0.418787917072775 0.325674350212232 6.907020122829516
C -0.348858863352801 -0.727169980762653 7.515194421984600
H 0.871920933370825 3.748003545578523 0.086314331959036
H 0.536012253202254 4.446678659148569 1.657341153249011
H 2.206651904265315 4.231207463943044 1.056378765459987
H 1.527751501257531 1.682490905828750 1.068417406097132
H -0.046517528907664 2.093428353261519 1.843273440105106
H 2.829560470915513 2.548988166436825 2.942990600760836
H 1.314785888224223 3.169763405437673 3.794646021854443
H 0.573461999274705 0.782425611718004 3.854607562430612
H 2.198059528741464 0.280874964157556 3.352066607066602
H 3.195461040102976 1.041433691572264 5.636568153404852
H 1.580811116376068 1.987603448517114 5.818063315045345
H -0.922838346367456 -0.282355335440955 8.376557800720139
H 0.343994762098176 -1.412060013860008 7.959597173533033
H -0.914637269939581 -1.207079825658010 6.776593081173558
23
maple-route1-mmgb-reference-mlip-reweighting-v1 phase=solution replicate=repeat-0 sample=61
C 1.120212640030891 3.745105037528811 1.045192027033369
C 1.163626104420618 2.357380280630080 1.747896181900095
C 1.649167023213308 2.523098549364786 3.189708821671035
C 1.730135268985664 1.079192497374940 3.866970473057420
C 2.110498804037186 1.117564236407912 5.334266422254257
C 1.454729253204442 -0.069106711291504 6.136545141401136
O 1.843446403303253 -1.271771290442475 6.089710185543123
O 0.380532432420950 0.330820996701631 6.841547485762002
C -0.405081371734815 -0.725554468973423 7.547129317288479
H 0.646042596813987 3.791364607154277 0.079722011360472
H 0.657774726465243 4.419539489477816 1.755485398358622
H 2.144314078511089 4.089075184035471 0.888547485162204
H 1.895098309190564 1.820820155519120 1.162982928382327
H 0.242611127312008 1.767857777672153 1.661175047746358
H 2.551928876092257 3.096870701674709 3.264458130680843
H 0.815938025495975 2.984380533209652 3.722630812198287
H 0.798581613246358 0.518224901954869 3.685175197586963
H 2.535192277224995 0.496750841030234 3.379952648089456
H 3.209409099115048 0.918501595198060 5.386698655687936
H 1.830871605722958 2.088608440327317 5.780609377317361
H -0.858592806095398 -0.300832100459386 8.464203356487118
H 0.360898223274448 -1.516382076282972 7.890534069312444
H -1.113628670261108 -1.216963154425073 6.901171117385854
23
maple-route1-mmgb-reference-mlip-reweighting-v1 phase=solution replicate=repeat-0 sample=62
C 1.058774566546312 3.725324630117377 0.993612962831259
C 1.342279220709909 2.423819355624789 1.736984264556526
C 1.449343258925896 2.492477586643786 3.264321883442345
C 1.816750784850305 1.082743249639290 3.820239716629883
C 2.126362676312679 1.070365225432910 5.358081914639624
C 1.489322607532979 -0.116660411010028 6.145732589132460
O 1.933109202842015 -1.232599414381619 6.071987008804020
O 0.346980821500355 0.267037612317070 6.827982231198625
C -0.465085622029595 -0.627971576574721 7.600579925546662
H 0.530785667230202 3.488651290031745 0.030470024993398
H 0.455469204525231 4.374419232299351 1.615498530456853
H 1.993301421485291 4.190142514129870 0.640628882635722
H 2.112082614109315 1.894480534522012 1.183222598287300
H 0.496183575727726 1.843991585378380 1.524002736501924
H 2.357655855300865 3.081066123991042 3.502702468511543
H 0.607096940185212 2.904400227124107 3.737044293157991
H 0.920796960325759 0.483651652269476 3.662687179629143
H 2.613763621907230 0.590782953878972 3.267223760920115
H 3.211274627573315 1.020526215660060 5.528296512848781
H 1.724991968082273 1.955738532378224 5.800232851716172
H -1.213933413322777 -0.065200261440060 8.161688203589852
H 0.129432919292708 -1.269864278849471 8.309316597355158
H -1.046514600754563 -1.410322007010744 6.922776059580798
23
maple-route1-mmgb-reference-mlip-reweighting-v1 phase=solution replicate=repeat-0 sample=63
C 0.989290307489322 3.747509037513640 1.005818948162116
C 1.412837336544925 2.380521339467701 1.688256021697633
C 1.434103568564519 2.395760061997908 3.254570188488657
C 1.813056256834545 1.084956520220000 3.906847447708063
C 2.088753856898528 1.061554195616194 5.439566342975492
C 1.435061563063904 -0.136864689054416 6.055847810530086
O 1.933394953893826 -1.223268847617026 6.120698489580359
O 0.341401048769487 0.328065222456700 6.785340781957258
C -0.368387769480073 -0.590370807682158 7.550942423155096
H 0.739869138341411 3.601188725433575 -0.076729756548681
H 0.147129450314000 4.272497783913666 1.538730361312022
H 1.896492949339621 4.393636904347127 0.912218289113418
H 2.360779453041026 2.099213944391601 1.223059642825231
H 0.774352558597006 1.582299807288128 1.291057652683318
H 2.212089417127978 3.117908516110559 3.609551205525577
H 0.465732101915142 2.788564821877515 3.658363938992752
H 1.020138298007122 0.367771112101179 3.717690904232445
H 2.696292012814664 0.657694178707322 3.459916370438582
H 3.130684201622718 1.134384189416495 5.634185774152904
H 1.601528484620161 1.926991855581378 5.866862468676675
H -1.423120899695010 -0.229989246186527 7.746782139786315
H 0.076523032916383 -0.917544879348880 8.471384701157307
H -0.547386483974491 -1.553495259401473 6.954106341127964
23
maple-route1-mmgb-reference-mlip-reweighting-v1 phase=solution replicate=repeat-0 sample=64
C 0.963418502114713 3.672224581101006 1.135749348736012
C 1.451002201975279 2.353761434094694 1.711624902775434
C 1.490218747492471 2.409725784275085 3.190619724132595
C 1.852259156436114 1.046771370048529 3.812935294736564
C 2.090376120994419 1.157543063977880 5.344914417641151
C 1.474371500907252 -0.022539276495620 6.131853656353580
O 1.866925186755982 -1.193704744977135 6.200522336596814
O 0.262691893690103 0.322294014664086 6.699569260937669
C -0.342290195468849 -0.676272921804382 7.557980890142940
H 1.098955456611878 3.749825542533957 0.067646835171767
H -0.130511875242854 3.770269724122246 1.393649187627193
H 1.517303881390343 4.534508559228144 1.547387938690084
H 2.432137708302194 2.129752200906278 1.290320248268479
H 0.836159214848070 1.476568268177634 1.339216182445686
H 2.023069720796247 3.291541823139608 3.607678785823444
H 0.369469384152913 2.599104147660060 3.419999121647787
H 1.137321376619260 0.240121348578546 3.633020228740598
H 2.815568769008360 0.643105485705655 3.473600694202452
H 3.176645141953682 1.201225377043552 5.396258266788600
H 1.703536577902228 2.127922046373640 5.767386578283270
H -1.408669150899378 -0.441429602401655 7.757950762962988
H 0.169407331003222 -0.841090591814225 8.494294727865018
H -0.375954876175576 -1.591792501138461 7.116287438303624
23
maple-route1-mmgb-reference-mlip-reweighting-v1 phase=solution replicate=repeat-0 sample=65
C 0.895856649007246 3.676157878114995 1.173478101781962
C 1.461243193845565 2.387381603215053 1.679789148889740
C 1.459544592833858 2.333999914765824 3.215917232029324
C 1.915964379144629 0.986865565922876 3.785903267376611
C 2.083175706083263 1.111295322470983 5.393121141135420
C 1.452374097251571 0.025657477984069 6.148703650280329
O 2.025601588435389 -1.053400964368391 6.176893171003407
O 0.188734009803154 0.270803294632212 6.668179891998754
C -0.424294214947541 -0.695909591444328 7.547348115044471
H 1.202470824401704 3.990439031678999 0.178101178592574
H -0.156887295263037 3.498211382121283 1.124187110640166
H 1.058904518689313 4.526109704816663 1.816839297497427
H 2.497228404865438 2.277812889022322 1.337376822652782
H 0.986916214815805 1.539446434960199 1.178967325760672
H 2.223887282851375 3.046780203666048 3.528239108602700
H 0.553120089472491 2.745427421951978 3.660070162444210
H 1.139554600735521 0.222849751279111 3.621441569093837
H 2.834693364643539 0.554207082978252 3.355058701299818
H 3.216636441554221 1.150341886795856 5.556472637004547
H 1.648392430040786 2.049427749121501 5.809256829755696
H -1.313890688689071 -0.305125707032192 7.909200263479051
H 0.313629655831417 -0.842387995298565 8.347785541778130
H -0.578748871020943 -1.601888041712194 7.063430135131494
23
maple-route1-mmgb-reference-mlip-reweighting-v1 phase=solution replicate=repeat-0 sample=66
C 0.768108565047875 3.735224913089419 1.146080214554799
C 1.501593001383160 2.411415314433358 1.656219841927546
C 1.526956441651824 2.290740296437035 3.229260308926821
C 1.912183272792587 1.011483955109158 3.891548624706949
C 2.004747276045189 1.188683857607186 5.406456669280217
C 1.478815122410172 -0.080236417098738 6.057246021151097
O 2.093269406365946 -1.096981942183212 6.309716053704553
O 0.271259657011529 0.266616796831148 6.636962920719753
C -0.452796496061354 -0.697274957770682 7.453748772141062
H 1.102212965393387 4.039567099998590 0.142139245135179
H -0.269871509345645 3.645864413120797 1.033578993743390
H 0.967136789564586 4.618338400512547 1.725613621266353
H 2.499045496201434 2.267652974581881 1.235134718352905
H 0.997836011477608 1.584203450974188 1.249168650979388
H 2.086143384856771 3.089936464538893 3.685278557769803
H 0.548993072565953 2.487678290671594 3.545982633593596
H 1.129534944842301 0.267601024505019 3.651716028711623
H 2.827166780902577 0.580091935057655 3.504735204274058
H 3.041455460802934 1.442651385774490 5.649898847257585
H 1.352272997608815 1.993038287101799 5.765200714719447
H -1.260127264241587 -0.187217934748025 7.885010785768843
H 0.272176422054835 -0.999801687110795 8.185847511468499
H -0.815675814990311 -1.629442144224321 6.858233157944361
23
maple-route1-mmgb-reference-mlip-reweighting-v1 phase=solution replicate=repeat-0 sample=67
C 0.766330976212835 3.620057160334214 1.181091375500689
C 1.486670364221597 2.453381569781123 1.681852485121095
C 1.476760182809903 2.467184897244280 3.157714157417171
C 1.919705434866150 1.100855786558315 3.818372102617996
C 2.035683989867991 1.124931315174912 5.343732303587738
C 1.506146432299007 -0.094579580507124 6.169411290305026
O 2.108123719684847 -1.103494669606950 6.419257142380491
O 0.239696105350284 0.242758108638400 6.644070729767240
C -0.456694454349976 -0.774527873964692 7.375225990505988
H 0.909715314220788 3.683867029258515 0.102512363146902
H -0.323454662590312 3.708267417613585 1.336212864592968
H 1.262318788865735 4.525050757735092 1.540573546983372
H 2.511519073233496 2.441022960044030 1.315131862044336
H 1.036587250386968 1.545300677679614 1.290865331523201
H 2.121716473505930 3.281940425815794 3.505945531696923
H 0.516648804852201 2.795538333239436 3.573001387658746
H 1.332599217765403 0.220341380331949 3.479796420439938
H 2.921350571865013 0.873272541363119 3.433692792601318
H 3.050594970441294 1.258085050611850 5.612103830577651
H 1.443927492261543 1.948544321112342 5.759411261236163
H -1.375542761179283 -0.250862464324415 7.815134919929514
H 0.198048022578244 -1.161899862107075 8.149214748116986
H -0.809549806654440 -1.634819969204899 6.698989646644025
23
maple-route1-mmgb-reference-mlip-reweighting-v1 phase=solution replicate=repeat-0 sample=68
C 0.737423552389192 3.656964688201279 1.036086723909080
C 1.466005789355620 2.464561474996133 1.705968738370229
C 1.487787534457669 2.481323095374257 3.265098258832077
C 1.983191099151729 1.114588629299772 3.832909759492962
C 2.180582469151257 1.155445304773252 5.377805780189595
C 1.458194832706801 -0.053246497589417 6.121990464181668
O 2.103771282345027 -1.041356723120373 6.446251081676909
O 0.200582024571335 0.187714647626958 6.648914914026873
C -0.478348299086532 -0.883062124941514 7.331844614022565
H 0.348971220939668 3.531744605953869 0.000207090856216
H -0.235144577580441 3.885945299538748 1.608355819326454
H 1.319066204688964 4.606678736958365 1.083358236677677
H 2.493301387696423 2.361168137470107 1.340055511807005
H 0.930956607992482 1.503326173682755 1.377262756035000
H 2.088713595843149 3.322022339433226 3.692345131145035
H 0.501000841429953 2.705838913358627 3.773217499241519
H 1.166494593074515 0.403309072594975 3.629761560550647
H 2.820961347439462 0.705752589310123 3.230262704467343
H 3.240521391252312 1.088021328884652 5.639850270420136
H 1.790927646665325 2.040154462747786 5.838240399624091
H -1.549373680049219 -0.492412168413979 7.579043723730067
H 0.025817528073144 -1.291669134300923 8.283375368596305
H -0.674618520565923 -1.716292496434600 6.702345068283800
23
maple-route1-mmgb-reference-mlip-reweighting-v1 phase=solution replicate=repeat-0 sample=69
C 0.705194760312447 3.683587046232327 1.024979303052415
C 1.346449645245866 2.451646381485291 1.720947333503755
C 1.541105475868316 2.469762768804916 3.272238481562338
C 1.918840891193825 1.138558638553694 3.965268053105974
C 2.118229116388256 1.161846080342064 5.501559825814076
C 1.516144340799131 -0.023515811554882 6.208438267571790
O 2.135709199377556 -1.121542161672218 6.404197730594314
O 0.235365516165639 0.209338611195382 6.533841690748404
C -0.421850539299561 -0.865501373864453 7.201193657751727
H 0.250205213502514 3.393008776872536 0.043770900550607
H -0.187927572780354 4.043813886773683 1.557273683926822
H 1.388162860630834 4.577745878316060 0.875574729620465
H 2.368640435818531 2.323479960833663 1.295901328377647
H 0.770380112172295 1.517072398736551 1.449801771476775
H 2.263722057550893 3.246695051589721 3.574033355325719
H 0.648667902408478 2.825397929933964 3.782740794608647
H 1.253802501223098 0.322891900040509 3.692691890964439
H 2.871684700410094 0.874379731304837 3.501230251353240
H 3.187802885536470 1.184503657293340 5.797773544423997
H 1.641732778799935 2.031714201449790 5.939833227905126
H -1.481081932938865 -0.693938374784972 7.326633978696011
H 0.015347581075303 -1.233376206533284 8.186287205397491
H -0.461259992020088 -1.765360909311321 6.580152861600881
23
maple-route1-mmgb-reference-mlip-reweighting-v1 phase=solution replicate=repeat-0 sample=70
C 0.723285977169885 3.634298080453612 1.173999919231957
C 1.246537209771680 2.367276859883510 1.768349419950618
C 1.542926790467247 2.528827714811690 3.252373110918713
C 1.887112253623060 1.183354210570797 3.979863671993437
C 2.124206847575501 1.251683965252602 5.497052269081957
C 1.625354261715741 -0.003036692791970 6.284807258751722
O 2.182626186456727 -1.099909607171554 6.346879445077419
O 0.305645659928093 0.132202866036547 6.467287533246864
C -0.506590909861320 -0.885914942420958 7.095720920294547
H 0.497261723184721 3.372832437891748 0.112992486585258
H -0.188882114737098 3.962406410946082 1.607389472188907
H 1.488240707381299 4.414265017920141 1.234702407619157
H 2.210263521212541 2.094567404666202 1.269460848805451
H 0.520709479038626 1.610524008042530 1.662209295754191
H 2.244961156144807 3.312899482185148 3.429865459872089
H 0.664377704265231 2.905308088408314 3.687504480193780
H 1.077419183418050 0.463103938284216 3.882744267116452
H 2.731282084164273 0.694944651342046 3.509188649414189
H 3.136137304745981 1.519880851499225 5.830331488846819
H 1.454071613441904 2.088644187827623 5.820455539013444
H -1.507908007820637 -0.663141662570663 7.084356046840238
H -0.211802319325611 -1.091520446190718 8.074972217209700
H -0.473233127119073 -1.868274610777148 6.517568276020604
23
maple-route1-mmgb-reference-mlip-reweighting-v1 phase=solution replicate=repeat-0 sample=71
C 0.743257725326364 3.655338322802937 1.214524297780182
C 1.167307680055867 2.244280717652381 1.836768295917961
C 1.566216333015145 2.480996378342484 3.380247029834967
C 1.826961101778747 1.165240767356495 4.016347142126117
C 2.167465095364213 1.292931781724302 5.510452825094890
C 1.596125521179422 0.006300289490199 6.168569112924141
O 2.298031516703455 -0.949788856646202 6.283919189077075
O 0.223936686880706 0.144823884538071 6.457941379894101
C -0.516706438852216 -0.947098264992161 6.974983068930422
H 0.760390225645226 3.672955189682058 0.128488385467923
H -0.255827934035730 3.926123692178614 1.606387643712458
H 1.431827796772354 4.365872780637731 1.640481668773875
H 2.021300985398302 1.803463945121643 1.335549390206494
H 0.297951095115781 1.620611360806696 1.837463661630075
H 2.503750636158566 3.007279374735008 3.398343561172743
H 0.843321348866051 3.081889096517278 3.927795335485032
H 0.983155163121575 0.467874468576133 3.936052469023751
H 2.665369609010473 0.670808436245527 3.506737002229139
H 3.250116340760127 1.187428320002888 5.682435719462379
H 1.769932512108851 2.257810077242862 5.909628584271508
H -1.609142278501217 -0.821738507585332 6.966201112609388
H -0.173037397318650 -1.029306056014257 7.966697515195946
H -0.270655324547838 -1.847211963280115 6.434050231805638
23
maple-route1-mmgb-reference-mlip-reweighting-v1 phase=solution replicate=repeat-0 sample=72
C 0.766874497788855 3.667604783480032 1.269045425368544
C 1.064142047508717 2.326293012391465 1.952827512270249
C 1.631359370983736 2.451112166471196 3.337663958473335
C 1.807436213549582 1.087383923433766 3.970129141981796
C 2.128830177714224 1.306547275902496 5.518406231408798
C 1.609094465136785 0.081241889395029 6.239524391112673
O 2.221109828989953 -0.948158276200211 6.335004239309868
O 0.268399660409245 0.171998431562996 6.389104629193099
C -0.392437913442200 -1.032458227240519 6.850083425762591
H 0.875151557677991 3.396633221970748 0.214765789591820
H -0.314599747295653 3.961294787061393 1.512059271630959
H 1.501166974768415 4.407750424203838 1.597394399527434
H 1.860978276729026 1.877299627282332 1.400102366363993
H 0.077388228174745 1.759145660117788 2.023586262581805
H 2.602081366316802 3.032473927775581 3.317617148208224
H 0.860852949112126 3.001112720005239 3.952951444367850
H 0.832688888511173 0.569370965786329 3.986976269395250
H 2.491685921465760 0.373457657112755 3.449196532211340
H 3.202608572386278 1.347974679052302 5.748051022133599
H 1.606626089628505 2.188828444039254 5.867326470781111
H -1.534216840018670 -0.929270843458819 6.961477533321547
H 0.044480087990129 -1.133587391065918 7.908212710936039
H -0.155946707032914 -1.827749526400327 6.195828098103163
23
maple-route1-mmgb-reference-mlip-reweighting-v1 phase=solution replicate=repeat-0 sample=73
C 0.785902188722318 3.753797027077214 1.270322235381629
C 0.961732431251757 2.336234580207920 1.866653090840554
C 1.618359356257814 2.495203469938038 3.270614500336240
C 1.764944546835852 1.156028057401129 4.048754194205715
C 2.119281586240273 1.245436537568878 5.521058816959687
C 1.647080791882122 0.079421539625905 6.323358058116102
O 2.276466707969827 -0.981405743116817 6.427067049538769
O 0.310096846341751 0.126137500119353 6.364193988805658
C -0.407222186276179 -1.091683963187670 6.805072926450306
H 0.553710428234652 3.509303374728424 0.199856104764807
H -0.078151444457042 4.183364972560471 1.775789802101441
H 1.723494070447661 4.364658301919433 1.382677407642912
H 1.672588038187088 1.789570442806537 1.212282566280738
H -0.045360380852654 1.905160730926403 2.005053475228974
H 2.628697543857428 2.986835689367668 3.163663980191961
H 0.944743409022607 3.147420454728220 3.918780750853257
H 0.959099733245663 0.440310516058927 3.904573228216762
H 2.629001560866699 0.636931150117903 3.630305902306421
H 3.180139267583329 1.409868238881461 5.643641760524475
H 1.559133133398344 2.086818025677075 5.853657526499413
H -1.491609669024538 -0.886527143232062 7.013354586367317
H 0.030352276801484 -1.451083228440187 7.791180244733592
H -0.354346992501690 -1.864201556844923 5.955991707777100
23
maple-route1-mmgb-reference-mlip-reweighting-v1 phase=solution replicate=repeat-0 sample=74
C 0.744804725326037 3.856705532042910 1.156258045067460
C 0.933884731965736 2.398407039464165 1.830796674882581
C 1.604663264910000 2.520437850470308 3.283837126585603
C 1.802772271865363 1.193847482539310 4.026116456266855
C 2.179301312471324 1.283691944290801 5.530757125370775
C 1.642271616726915 -0.022787501016661 6.236430480660053
O 2.441648183685126 -0.962243684579348 6.559245508726895
O 0.255115880190113 0.007466833396639 6.456339894842246
C -0.500538430441514 -1.159707621638120 6.789125858855977
H 0.146550543229338 3.795910383949428 0.249252273170125
H 0.309885063934143 4.492633304278190 1.888845459408185
H 1.756892657623046 4.230666363336145 0.918071621930003
H 1.586965120392530 1.764749778435788 1.169759227359839
H -0.030015612932007 1.989283550517243 1.979540023398588
H 2.585682798903244 2.977692377265529 3.200779656846198
H 0.974678539098496 3.078494614328557 3.968626269556517
H 0.840434252670466 0.694688542826112 3.978573999298443
H 2.411647351702515 0.490361055179064 3.464120082071372
H 3.245718830801923 1.436279330502627 5.641533603480882
H 1.628264187317781 2.140112325864897 5.941654152633333
H -1.551272897385924 -0.907464452473880 6.894217724306055
H -0.258533552145781 -1.628538968246265 7.717644439169018
H -0.492123165639663 -1.875264541851362 5.870793533580620
23
maple-route1-mmgb-reference-mlip-reweighting-v1 phase=solution replicate=repeat-0 sample=75
C 0.761930140192504 3.823330399608506 1.121674828497717
C 0.975746052112091 2.569538373641453 1.911375987648285
C 1.603034465726902 2.652708927587509 3.275901398539289
C 1.707967845645125 1.174741798019937 3.920800064697147
C 2.065094422012242 1.205486927811487 5.495003275766731
C 1.636776759906766 -0.045280773459523 6.292334057798934
O 2.378100770153611 -0.948502271955274 6.605384905041269
O 0.289080679154278 -0.050637987449205 6.445331191914737
C -0.336620210375517 -1.230788036586917 6.806763725967264
H -0.031192171595355 3.657408279379672 0.438622125618850
H 0.566090342836567 4.699712340154941 1.772749829724150
H 1.631859110107824 3.981168742315345 0.550586415865769
H 1.638943388237187 1.895440789783538 1.344449214652629
H -0.011592102776028 2.103159344966627 2.115163131745685
H 2.608550941557009 2.987994089606672 3.140394146526850
H 1.071042412353710 3.231426316341075 3.952324306771746
H 0.791060737193861 0.594116280693012 3.677868964425570
H 2.391535241543721 0.541462548633225 3.342463087413665
H 3.167198702290019 1.308757061618658 5.614348682016768
H 1.556789874305338 2.069174763182974 5.991218193671322
H -1.396985268183915 -1.037224182420244 6.923510425367597
H -0.118124077022546 -1.655832953654764 7.763142745651413
H -0.327316568907982 -1.944481030171042 6.049573923861340
23
maple-route1-mmgb-reference-mlip-reweighting-v1 phase=solution replicate=repeat-0 sample=76
C 0.824359824872337 3.861478045892496 1.129237011982040
C 0.939272057254264 2.519561109378750 1.896648686247551
C 1.665775086459394 2.638844516012488 3.301268797308198
C 1.648106492165457 1.259515937228514 4.029942830970106
C 2.039662696534372 1.248384366861519 5.448656538343871
C 1.628902059917378 -0.023381747497135 6.207743815881761
O 2.325172029039491 -0.936287502943767 6.547686064123507
O 0.239103544598051 -0.060203805862373 6.366554705776831
C -0.211247958329996 -1.359687900861355 6.912390354415797
H -0.031656010851514 3.861390901904407 0.440722733650157
H 0.671044264205977 4.722779759610184 1.820679364572606
H 1.688657586508091 4.078578492644065 0.512569577252396
H 1.406399149993937 1.721130610575736 1.330953598696660
H -0.109406294074598 2.156063000270501 2.193723948595796
H 2.699478408987479 2.956844809524402 3.196981179629834
H 1.096755565905518 3.252951551272883 3.983256750495175
H 0.652804947858645 0.821332385086887 3.882503567016026
H 2.256759371257686 0.518253173790428 3.482625279561157
H 3.128447289103515 1.517711059605152 5.509363638633636
H 1.388952307962386 2.017083830644918 5.907590054162482
H -1.269662092710690 -1.453067132910466 7.104731985332585
H 0.151429089995545 -1.559468979207410 7.920136425273250
H 0.002932469514985 -2.158713783831981 6.324875987663474
23
maple-route1-mmgb-reference-mlip-reweighting-v1 phase=solution replicate=repeat-0 sample=77
C 0.957008451681030 3.875380585658934 1.203662582725902
C 0.832379389807597 2.531479555185449 1.879160524115605
C 1.656384063223014 2.553099314190640 3.216572354217800
C 1.571879293965421 1.285064787015073 4.051807889044004
C 1.948008050374415 1.355304738425710 5.549878595558902
C 1.603594049510594 0.015268489430457 6.203869350519470
O 2.470588195773082 -0.841726582392824 6.370457007791166
O 0.231360791175085 -0.226725362264379 6.340844535541609
C -0.246782923501291 -1.391691071487690 7.047405739111868
H 0.321253695315404 3.901082862185763 0.263947414888656
H 0.606493707438137 4.693053208684673 1.824533956007767
H 2.011635385097849 4.117924110717135 0.848337096597954
H 1.328929151853242 1.770786684485609 1.276102138419422
H -0.179598962313373 2.180081089231347 2.034482717590393
H 2.734630113393088 2.732984422580421 3.045565267175553
H 1.230982728038186 3.307993376680606 3.943132005013541
H 0.566144960556350 0.919264911679772 3.975247656640968
H 2.117176208089665 0.458258570145877 3.553450387302005
H 3.017300621178691 1.537051840175928 5.570135309272866
H 1.399149700103829 2.136119500886247 6.058700318557667
H -1.322888968200711 -1.452705704436208 7.134664490295213
H 0.112365628154739 -1.315147356515648 8.038100175376567
H 0.152391176215444 -2.320950622385020 6.563019390179678
23
maple-route1-mmgb-reference-mlip-reweighting-v1 phase=solution replicate=repeat-0 sample=78
C 1.037002530123814 3.857421612685089 1.176228700856983
C 0.881844702237061 2.569125686498046 1.911597371382349
C 1.603441518128237 2.545912571664427 3.226685073027984
C 1.405523221254514 1.204465988527079 3.999986975971428
C 1.728105110454760 1.396024698239015 5.576208486417967
C 1.623389281836628 0.051265140769954 6.239613557124874
O 2.530060431844166 -0.790619111569285 6.247731080183140
O 0.343806900999718 -0.292683463379532 6.389022599988763
C -0.144554212511035 -1.389580993901514 7.111774057678018
H 0.707666101569314 3.756210904526164 0.117991665358908
H 0.410997850999711 4.659144192191570 1.616287697532952
H 2.086627440831599 4.238170834179781 1.160173316396170
H 1.146831770615194 1.636928755328743 1.355762235759945
H -0.137212326692851 2.408111611557628 2.122983514330158
H 2.716980283099315 2.592174036683006 3.071818834421900
H 1.284022714223600 3.397600585720002 3.865805096153545
H 0.389049968169573 0.793424963225868 3.893823893121921
H 1.974961502378951 0.367525998917895 3.592059177027424
H 2.703289701368614 1.811862806455981 5.647233885807076
H 1.023105343754993 2.092076231552071 5.993075489161188
H -1.267599181823913 -1.450792011251266 6.998980570146966
H 0.135895021668640 -1.177653804533606 8.149020185838037
H 0.410336017062061 -2.331358630201234 6.666604579118970
23
maple-route1-mmgb-reference-mlip-reweighting-v1 phase=solution replicate=repeat-0 sample=79
C 1.089055186801964 3.875353643126434 1.086521852554118
C 0.902092226741499 2.543888780042292 1.886793711246629
C 1.551153723142292 2.555906686035589 3.299521474705784
C 1.275541691498887 1.213354037030062 4.026631097643509
C 1.636472158122824 1.358773362370078 5.476785536161151
C 1.626231057689085 0.069295025760770 6.186805887260963
O 2.553812625794485 -0.743345660702791 6.209107480133486
O 0.283950112641980 -0.218230984077525 6.491565562815103
C 0.072091626626876 -1.500876559960810 7.187350321794582
H 1.006974800175621 3.790021985386827 0.030738611249386
H 0.411469245784209 4.704067916364270 1.419245736378717
H 2.086141296121146 4.215894975304985 1.309856525269260
H 1.271796021278019 1.663929997601948 1.357364557247960
H -0.164768032194436 2.259250756889640 1.958839946905182
H 2.646062166196342 2.608483506890180 3.278613145919184
H 1.170238328222694 3.380474223231025 3.862172215628616
H 0.195191479041275 0.917550733229910 4.012253225845063
H 1.787715204023239 0.347286786836820 3.634956019158028
H 2.587913503177110 1.867336488917232 5.517127161762003
H 0.839473626092452 2.025966980208982 5.795029690766098
H -1.016248922525266 -1.865807294502036 7.125909549460724
H 0.403340697373738 -1.383586944519604 8.301293401733012
H 0.721514739145853 -2.239939255324598 6.723537730716554
23
maple-route1-mmgb-reference-mlip-reweighting-v1 phase=solution replicate=repeat-0 sample=80
C 1.187805506818386 3.865053928178016 1.068607100095384
C 0.968371006077481 2.560745147135576 1.766315646792612
C 1.400135918978397 2.589122629322453 3.188342220829701
C 1.156862186094809 1.362692689801589 3.995143882051046
C 1.610580871979558 1.391086237696486 5.486391069638460
C 1.565169706511210 0.028801336424786 6.136756933529480
O 2.504490915944411 -0.667104629715848 6.242425081254045
O 0.332712261321580 -0.319150543750231 6.667779931848960
C 0.235595039054642 -1.628118865882050 7.271670489057281
H 0.955269997770507 3.661621686395917 0.040357470276388
H 0.495641998838122 4.602578896728156 1.440247515350153
H 2.209473043145525 4.196767460046998 1.214263880949046
H 1.483675428135812 1.806412036497657 1.223468131879292
H -0.100670561316361 2.181452849728655 1.636547279321722
H 2.410584376260995 2.807070037485165 3.352711966918287
H 0.793313916639679 3.332970728920230 3.671093599362421
H 0.114503724039833 1.039480445136184 3.942223477441588
H 1.776762545393474 0.546166044607933 3.558142551666120
H 2.680823739528025 1.687245171325632 5.470023189623814
H 0.983676431844773 2.168788636381611 5.919850618383591
H -0.848039336845709 -1.825848043889240 7.430016957411550
H 0.747235936753083 -1.739118656761130 8.266952997308454
H 0.586980532271898 -2.429084609627093 6.671709285009841
23
maple-route1-mmgb-reference-mlip-reweighting-v1 phase=solution replicate=repeat-0 sample=81
C 1.253923943672012 3.912068728684201 0.911418864020901
C 1.049207170299594 2.552208103634684 1.669056728363682
C 1.240338959209361 2.724543082349316 3.180712484861428
C 1.062139008756789 1.363401637056088 3.962345762450084
C 1.486469431329430 1.410302236431122 5.527781273590408
C 1.585779589612461 0.005549146519421 6.226241046152788
O 2.588383427676124 -0.712048189213397 6.205749088225641
O 0.368866770843017 -0.393837898038205 6.793977442128800
C 0.320060973934425 -1.675925710917091 7.347239878451868
H 0.854670986965865 3.773447445534712 -0.129899132826185
H 0.617313920966310 4.574616291494039 1.432975331512504
H 2.313030748639004 4.291009319228974 0.995396650790285
H 1.712534756053667 1.793338932774022 1.222452310553916
H 0.098536667794244 2.094632148532746 1.442923713821922
H 2.213905400913123 3.066119055047627 3.465546240727695
H 0.525952912247550 3.462386736024913 3.619238679492004
H 0.007050121376091 1.098254430349074 3.947065477804236
H 1.630013190782651 0.556575230697527 3.446816914822340
H 2.473486737980920 1.941780662488249 5.596998500674577
H 0.683149738489829 2.058200102086278 5.933819821087537
H -0.592939251226629 -1.782969636660060 7.880065805999068
H 1.082427003424270 -1.928102055872362 7.979999864564186
H 0.275532043341848 -2.528776794758698 6.628459458425451
23
maple-route1-mmgb-reference-mlip-reweighting-v1 phase=solution replicate=repeat-0 sample=82
C 1.254623276730164 3.939249493811915 0.785924461281153
C 1.120914039999662 2.584251066861227 1.653935059741079
C 1.120640640317615 2.735034154530264 3.234521366976622
C 1.015328561089760 1.276540198199194 4.028491394841879
C 1.365784794261340 1.379971155658964 5.560789246682224
C 1.547655205740620 0.014697092384941 6.177205705624159
O 2.627237626469300 -0.662346678133028 6.094908698394018
O 0.462037787570373 -0.368498933142639 6.888063430834839
C 0.387507769886133 -1.714776690906848 7.403394366420395
H 0.911398403030466 3.707012423201939 -0.251254620144721
H 0.616188840156938 4.730845188804171 1.247241343992830
H 2.322951298695175 4.273122425383843 0.852113170606897
H 1.932443272592001 1.882765129528802 1.307684491060685
H 0.267863623780597 2.024976437685039 1.394151941724677
H 2.047065296466989 3.246971599528062 3.637642574241218
H 0.316295126165519 3.409530925867974 3.581706893007444
H 0.004793751689266 0.813448771180722 3.910055363635465
H 1.751627308055467 0.614727481338674 3.590707064956713
H 2.268961765010691 1.994371882187798 5.618777479368004
H 0.471203989669377 1.866479032584296 6.000147609203744
H -0.397154645775572 -1.822302317794246 8.109162006676799
H 1.297614349406131 -2.046596202839619 7.812186940592562
H 0.178872660514952 -2.500487928855271 6.676767177444781
23
maple-route1-mmgb-reference-mlip-reweighting-v1 phase=solution replicate=repeat-0 sample=83
C 1.226605871924645 3.841885779018322 0.938897571755506
C 1.146969090982344 2.576818592946307 1.718394253480634
C 1.058255742569614 2.663313344531375 3.231482564534038
C 1.076534501763683 1.350390429637555 3.950818533974027
C 1.282054062471452 1.408926325110547 5.498267543442518
C 1.489284895711883 0.036916946584275 6.115061382165137
O 2.547838249706422 -0.570383445823681 5.951006826715620
O 0.523240498027130 -0.372596094624776 6.960947002467890
C 0.527999118032906 -1.751901364231101 7.450267198633476
H 1.176844203152472 3.483009314022532 -0.076546354414863
H 0.428652796544792 4.641028350604742 1.160663085958501
H 2.205320861151705 4.241544108334011 1.167457905439564
H 1.989897275694241 1.946764447772697 1.446918684689973
H 0.223424870375417 1.964140743740027 1.479452461931391
H 1.889745996296361 3.301562685645672 3.648091008253231
H 0.117736055086071 3.149338070928269 3.518980702064685
H 0.105401582989723 0.894385039928751 3.737233848744418
H 1.908925401724330 0.789770199956222 3.513927540267843
H 2.216148908370080 1.968276254422788 5.609459819192329
H 0.422432841563933 1.854546204381359 5.983539040878245
H -0.300581182898825 -1.921037387255754 8.150387474638366
H 1.539779611791880 -1.981221743730279 7.880824824186369
H 0.408578999621343 -2.456005280660526 6.687357290355743
23
maple-route1-mmgb-reference-mlip-reweighting-v1 phase=solution replicate=repeat-0 sample=84
C 1.223512652941683 3.820142928185282 1.056557857135309
C 1.115833169844096 2.447965056354366 1.725574210319828
C 1.016333388680169 2.666200369911167 3.258451193457856
C 1.149574142558563 1.351013329418155 3.948301088004007
C 1.158811072757812 1.455365611486285 5.467211625359151
C 1.505991686080737 0.029956997507509 6.074543287741347
O 2.490792109641021 -0.583890458835524 5.806596310518356
O 0.507627759725923 -0.367272826469400 6.958708474041843
C 0.708782432083912 -1.669039771351053 7.512507263400508
H 1.369407546555932 3.759883899868865 -0.018492300484582
H 0.259755603387320 4.300368555340406 1.211387043163225
H 1.932959878275512 4.459597774245462 1.551543483846201
H 2.007665723967538 1.806728914476537 1.577679210570741
H 0.181538763359152 1.833384147300948 1.437767112429476
H 1.870593229657439 3.248554356849433 3.492964191485849
H 0.145745487714646 3.246654800073300 3.619781459821065
H 0.280841999836689 0.791171603190518 3.653783621626414
H 2.111893747656104 0.907329214588112 3.582301294153218
H 1.955818431463496 2.174892692157994 5.726071234670736
H 0.177968221266519 1.733920183622460 5.876062175835774
H -0.188530478290204 -1.952725954467748 8.140497825193897
H 1.700812970907729 -1.631225492535828 8.044240967150909
H 0.830483871857835 -2.390498245904596 6.677330224067676
23
maple-route1-mmgb-reference-mlip-reweighting-v1 phase=solution replicate=repeat-0 sample=85
C 1.164772451468451 3.869904304599934 1.025919733977434
C 1.081807866503426 2.517465785176806 1.703763803133054
C 1.043322905502281 2.653285532179190 3.263161532864924
C 1.182558673712431 1.224797637873122 3.996961255875866
C 1.084315171127235 1.414295299241959 5.529982786284848
C 1.474607832875341 0.041097514240475 6.049653271897133
O 2.444452946652436 -0.542390412514002 5.704588640764566
O 0.546576463815747 -0.404706345820445 6.904735396293477
C 0.849115875686294 -1.628781402515467 7.627561000586722
H 1.431715186147778 3.770990509776290 -0.034630276403219
H 0.212524128704687 4.269987460377091 1.065915058123638
H 1.786409236155481 4.609322927854004 1.540770887275272
H 2.007856645026703 1.901417336341223 1.563582084992196
H 0.218499608932110 1.950309426375595 1.408347631327565
H 1.720097741993980 3.414429355058308 3.578650635935195
H 0.080966416700858 3.076447039663999 3.507811759848942
H 0.396239472173917 0.528101623257644 3.634806975867283
H 2.195005545055632 0.881177304678375 3.749742342454899
H 1.844378732674630 2.146590667625436 5.866864516068250
H 0.092585981367517 1.652976591095923 5.969568707346161
H -0.076764781629225 -1.899550659243501 8.198958249859004
H 1.707282114374455 -1.467178201706868 8.283946831560122
H 1.129456780363020 -2.499647441474845 6.874756794034798
23
maple-route1-mmgb-reference-mlip-reweighting-v1 phase=solution replicate=repeat-0 sample=86
C 1.071716887028166 3.944341881437103 0.990577337264344
C 1.111292105420559 2.596958739228814 1.688134656829517
C 0.949664372424416 2.656683280670697 3.253790967416146
C 1.130563312535169 1.310031300049898 3.882634199244930
C 1.098741655632125 1.350057783710910 5.418947946030965
C 1.484155248795196 0.007819400089591 6.086188828575899
O 2.546680864064544 -0.585103919907250 5.728460838084860
O 0.537807475704949 -0.489885072948451 6.954949663096124
C 0.906078536748761 -1.646034479227263 7.773005939015495
H 1.266406754169755 3.686725354202096 -0.051293763886983
H 0.136664872357852 4.522681715293201 1.073491515838624
H 1.874425788892742 4.588321165419170 1.359424818338138
H 2.090222556850520 2.156802004976647 1.568135865686548
H 0.364973002363654 1.976606478450095 1.301848482607496
H 1.646432341467934 3.430256350853960 3.647785736233267
H -0.007423470663799 3.056403963449231 3.541313861917581
H 0.325923908367558 0.653006527420352 3.470068955685837
H 2.129897293351196 1.001474074642033 3.621939564646036
H 1.789325477422852 2.102346386004982 5.846740352914649
H 0.120938531168303 1.594492091856961 5.852594319730954
H 0.044791166640651 -2.006106460203195 8.375986843765871
H 1.708699921625364 -1.425423831494522 8.517121036164077
H 1.296222303792550 -2.499300907125667 7.154010661356959
23
maple-route1-mmgb-reference-mlip-reweighting-v1 phase=solution replicate=repeat-0 sample=87
C 0.968157370682649 4.090549950344972 0.984309835232850
C 1.176479491912420 2.676377055218574 1.640664481048901
C 0.832970140984619 2.685166387439980 3.178740476224823
C 1.074325540491415 1.342440346722738 3.818460800219087
C 1.088975313171300 1.242800706110587 5.362218721266324
C 1.465078686802261 -0.129371231160473 6.028815796494245
O 2.610976950106591 -0.655207049464403 5.911295046385706
O 0.641850300855257 -0.524027288190808 6.997764361927778
C 0.981794683264380 -1.616670991624063 7.800563873679196
H 0.952736022757354 3.944277826858885 -0.108521108047230
H -0.001855821810358 4.647959496569519 1.298764108017031
H 1.790707524793829 4.736108983218973 1.263023666477347
H 2.168082810083208 2.284506011209429 1.515303811750970
H 0.364913869841885 2.068348882807540 1.206186607966582
H 1.530659423224063 3.432176026061251 3.612284964684158
H -0.158043863581777 3.133586757027380 3.434826891387123
H 0.238167020187079 0.754492838303724 3.463615201551637
H 2.035782137722458 0.949224448312534 3.489312478645643
H 1.829523619547275 1.924129150663269 5.784481872054704
H 0.148096847979688 1.556494913356472 5.783558075017395
H 0.115693007287097 -1.899512533281033 8.437188587801623
H 1.781489703891621 -1.414660513692087 8.574198840494473
H 1.282656080519014 -2.476133033709723 7.287289861971809
23
maple-route1-mmgb-reference-mlip-reweighting-v1 phase=solution replicate=repeat-0 sample=88
C 0.854193000752757 4.199002090293749 1.005168376461497
C 1.121041814964337 2.822933720911495 1.640546504875738
C 0.839276973368508 2.686219547589328 3.166409943439510
C 1.059313146398159 1.163849467310094 3.786260859790873
C 1.126953257131454 1.150928451007292 5.344032887258358
C 1.519149529092670 -0.217436364054921 5.966438198314549
O 2.659414140227131 -0.604480296009749 5.958054200763089
O 0.648888394174576 -0.516567212339223 6.989112381568773
C 1.010823693322354 -1.601094029249274 7.845176637123650
H 0.858700276622327 4.165264232038406 -0.107295092974689
H -0.102598439421527 4.599264381288494 1.391855545516187
H 1.648409174523040 4.876712669598648 1.424538739830478
H 2.209424566050386 2.665601591222905 1.530922516008144
H 0.445314896649723 2.097957046830838 1.102675428981967
H 1.378489125460356 3.457011919141910 3.691121822808994
H -0.215193996941885 3.045690162345431 3.365587304533113
H 0.247371992795243 0.518647431549896 3.486113047304251
H 2.038006637436329 0.716994137450370 3.463146924240224
H 1.878249806855441 1.826507504311791 5.763577272790288
H 0.161577336839574 1.487986012393933 5.703470609074951
H 0.292055709476836 -1.785934037033622 8.625456823644006
H 1.917694897261654 -1.413312394457829 8.380349267557108
H 1.135111521440218 -2.517535587444462 7.318796698297073
23
maple-route1-mmgb-reference-mlip-reweighting-v1 phase=solution replicate=repeat-0 sample=89
C 0.730207175311192 4.279986865928118 1.176139424827148
C 1.102390986078762 2.819252279016660 1.699697766862234
C 0.871593290775109 2.553855039704477 3.207458450567084
C 1.086698429278943 1.121887428361099 3.687653451943573
C 1.104317953993552 1.179181939565541 5.271570964940184
C 1.607694093120877 -0.148658959695558 5.963786469341471
O 2.721984193342274 -0.566853027095047 5.901076546825514
O 0.625913510818073 -0.555310744114040 6.915424467403537
C 1.010274306616337 -1.602279214648595 7.903163872077810
H 0.934316434942216 4.357205559093455 0.100970819099024
H -0.304076167785489 4.364409916109975 1.319116033726061
H 1.225183668838795 5.108363336823097 1.748151897382153
H 2.228266614474372 2.778017301453908 1.539881067683704
H 0.533211328143105 2.122782685558531 1.083186210769488
H 1.422233829734261 3.257638134090576 3.855496484921094
H -0.162680127951525 2.766252930752930 3.438180884717822
H 0.345855281932677 0.409560835183705 3.246339261154824
H 2.117028815200464 0.874584668489328 3.380920695024162
H 1.751392532864560 1.940414047216281 5.726718276892630
H 0.070204907900275 1.435483790555331 5.586234383770091
H 0.404989347820615 -1.602162755900818 8.767521019330893
H 1.988095617617621 -1.418852970279080 8.195143234891951
H 0.915005148017850 -2.606155435379598 7.370978220833809
23
maple-route1-mmgb-reference-mlip-reweighting-v1 phase=solution replicate=repeat-0 sample=90
C 0.603242081408863 4.241251225753447 1.442884384958389
C 1.107605274981842 2.778686114731840 1.705022859759830
C 0.850469223973852 2.561705315349659 3.189055056413422
C 1.233528847510968 1.200878755194455 3.713803624444842
C 1.064504375313536 1.079533326184281 5.236492948302590
C 1.567016120519270 -0.131325595288758 5.949226662346797
O 2.707717715464693 -0.534760179583580 5.852816231736710
O 0.707723611021409 -0.556651687617201 6.863226863508012
C 1.035168487368873 -1.574647646519241 7.788808051073611
H 0.976877627809218 4.529592883670567 0.470822762625682
H -0.481142464090881 4.207247905059869 1.366201483306534
H 0.894972785389718 4.995550037140042 2.124139906866199
H 2.156045680309700 2.764504112322381 1.414684895808634
H 0.525670678195692 2.119782652525132 1.081111858313432
H 1.498540079520152 3.253436740214478 3.799285551506579
H -0.173622525696972 2.789885463627289 3.469751883254939
H 0.502133878478442 0.446066669307518 3.294736357278854
H 2.228602283313176 0.955894764746902 3.387218008297157
H 1.636361015139035 1.870359845212423 5.759875153109744
H 0.001341234061764 1.302166471948481 5.442595991224740
H 0.247578026617449 -1.571399205528325 8.573062481846145
H 2.032514688229513 -1.297021541452362 8.210601809797012
H 0.964376929398096 -2.509673382511890 7.196080443455553
23
maple-route1-mmgb-reference-mlip-reweighting-v1 phase=solution replicate=repeat-0 sample=91
C 0.512490249760087 4.246322473601436 1.448478738185281
C 1.038025210004239 2.853624610191565 1.778509443869693
C 0.847641616372252 2.550714576628550 3.246185453070637
C 1.384331833590364 1.161525034711815 3.759747455800503
C 1.024930005708444 1.111327714163391 5.223923514682598
C 1.504324788588624 -0.176838525304219 5.849098285557027
O 2.744156990353506 -0.526012189457115 5.809019176215328
O 0.690531066574556 -0.524001723384464 6.885850633989418
C 1.093409057476615 -1.631670688196141 7.728574843857845
H 0.960085462146780 4.600451421650480 0.533081948762693
H -0.609278501925290 4.348250952052149 1.392439981096265
H 0.909575679285329 4.985665590344047 2.123373869441850
H 2.023439131498129 2.798413887254416 1.433199150354956
H 0.463382159526480 2.114441737591998 1.182651057564073
H 1.398730825464707 3.278516565713914 3.847564140814729
H -0.232518320481956 2.710058345806278 3.488309523647786
H 0.900520032871343 0.269286951157613 3.336628320731124
H 2.476608607649506 1.037150700126839 3.581557654335090
H 1.579341530314101 1.932345590016710 5.740318450222356
H -0.053911654627335 1.327621487129213 5.315186613226150
H 0.237110562411992 -2.010970483404321 8.386819384934546
H 1.972733943183768 -1.265543066806373 8.372202114936369
H 1.349045439439405 -2.423508868551175 7.091914314420587
23
maple-route1-mmgb-reference-mlip-reweighting-v1 phase=solution replicate=repeat-0 sample=92
C 0.439965671681179 4.290851838563509 1.358774009455674
C 0.988828500044794 2.903953706317254 1.804976646943208
C 0.825562494741029 2.581113495950189 3.309789219839805
C 1.436490332055416 1.258790494622639 3.724299849761199
C 1.045545561137722 1.066505436868273 5.282862387046442
C 1.555424791039554 -0.146331454491003 5.917609518054841
O 2.704994873119566 -0.553157390637573 5.754058403083641
O 0.696288317319272 -0.594460362426219 6.900630265299123
C 1.152546054116045 -1.696690063394273 7.698581513090661
H 0.640848878769392 4.671279223487780 0.344164063901848
H -0.618107071972512 4.428583243754999 1.636432766742316
H 1.018926406867917 5.069195047196962 1.957057778801738
H 2.046928906011313 2.861859680149939 1.471397301983177
H 0.554596699553278 2.058504422503098 1.226111669249688
H 1.203211203346502 3.332387280457091 3.961711672363774
H -0.279127620245354 2.491232449372187 3.450060901737487
H 1.175874909208231 0.408670218578029 3.107989785051775
H 2.557946538774083 1.356032352957431 3.548117786311178
H 1.347372556195128 1.885513864450216 5.915989294460799
H -0.042108276968838 1.094173893937110 5.315671634000835
H 0.339201633121653 -2.224498315964187 8.241385861568087
H 1.874667484105227 -1.344944546740404 8.454239175235243
H 1.608592401069652 -2.523547253746091 7.092094301310089
23
maple-route1-mmgb-reference-mlip-reweighting-v1 phase=solution replicate=repeat-0 sample=93
C 0.419059226287918 4.294141274493136 1.353068915272761
C 1.001713099506543 2.978033696078477 1.784613015479324
C 0.721416688546310 2.678689970392179 3.227622103285890
C 1.399199523040494 1.453415104744189 3.837539692246934
C 0.993040118348909 1.068630762370190 5.271724959605699
C 1.660567740782690 -0.170958454978782 5.951338389888753
O 2.723380890202529 -0.654095075484393 5.773859291830158
O 0.762686001054365 -0.724277659679905 6.850615952757662
C 1.177680843407594 -1.767853015387456 7.715252737584875
H 0.336237347250182 4.388678376948302 0.254133409762474
H -0.581395344461263 4.285004107435157 1.752654717808979
H 0.954010046819418 5.256026552460519 1.618023248014276
H 2.132115994372096 2.970299063617046 1.562422061311344
H 0.641087478895030 2.168987479273433 1.137001497162419
H 1.138328449789428 3.536749559901362 3.778774867895615
H -0.340662389390556 2.599240270610141 3.318745381240999
H 1.282219510769515 0.565894451435882 3.179183527208424
H 2.476299346368174 1.574114573426806 3.792226778632166
H 1.246703101618315 1.899516045049026 5.915496553977746
H -0.080571876090097 1.017202628146446 5.298987376305439
H 0.354984308086267 -2.122666483142805 8.318587170573879
H 1.852201302438207 -1.465878061171480 8.488210034684000
H 1.539321996234937 -2.745191746581966 7.243025171409222
23
maple-route1-mmgb-reference-mlip-reweighting-v1 phase=solution replicate=repeat-0 sample=94
C 0.378147480037400 4.318186347412325 1.246042300234843
C 0.998214123342844 3.030725638470861 1.797953390153711
C 0.661997490834814 2.730912317539675 3.295330119007575
C 1.467628857070072 1.498412989735664 3.949169983418908
C 0.990088955748535 1.073520683125454 5.294007415662478
C 1.647606707597143 -0.222616210895189 5.955894757037322
O 2.806443087020428 -0.600765966659089 5.712445560541033
O 0.701080035455881 -0.827481635134811 6.844914298342437
C 1.209884180674328 -1.835648019785729 7.695281536867343
H 0.371488509266909 4.311817840510825 0.158767495856680
H -0.673996253312528 4.336956246589899 1.590308793586979
H 0.896401087481075 5.215861573287866 1.470268551533581
H 2.086719407596994 3.124575942885248 1.688082872353652
H 0.766708516929706 2.208561796737956 1.116949648222075
H 0.855536589232967 3.680885477227893 3.854679175860988
H -0.375313259292818 2.466571599763116 3.260341694600783
H 1.322450509107909 0.626530007893890 3.267805155006518
H 2.539526251387672 1.568419737553767 3.940815595921594
H 1.135139301943982 1.902875452561137 6.024098337748084
H -0.091497208245033 0.888402473659000 5.290029203044684
H 0.489715623332185 -2.120132370890399 8.450805126094249
H 2.020223010187641 -1.474731203922452 8.298873344924942
H 1.489446126170391 -2.713080541254005 7.187791634403569
23
maple-route1-mmgb-reference-mlip-reweighting-v1 phase=solution replicate=repeat-0 sample=95
C 0.367074281183064 4.287024555676624 1.186270611517703
C 1.076738611324936 3.050180230322311 1.898159896578869
C 0.660225004163269 2.702338576185028 3.415717021019633
C 1.472962776453297 1.508971000691214 3.916860439245393
C 0.939822707021899 1.077647147815821 5.360737289207302
C 1.506061205433082 -0.247392233945265 5.842424610031078
O 2.702525946234422 -0.501004036533308 5.749020579873463
O 0.796314541008856 -0.812721835045285 6.794698005441731
C 1.287789342067587 -1.933467412892864 7.608214253566298
H 0.643053879326987 4.354850074178470 0.155759638893849
H -0.740785635216610 4.309265336318369 1.261595979917113
H 0.794933341200086 5.157775707491536 1.619935792675760
H 2.111666229417120 3.124248541499387 1.800319678829733
H 0.863078143386459 2.195904244928348 1.248675922131794
H 0.885357190365730 3.576300584899637 4.038781487933409
H -0.427370385352815 2.404809395785088 3.389002253642686
H 1.631507447845352 0.764179530328834 3.147914970849162
H 2.505118107200517 1.857429233859378 4.070261725829402
H 1.229874428317972 1.835913739508288 6.169092909366960
H -0.158049875507053 0.881236040387733 5.469711830192969
H 0.508711904974504 -2.114440373452833 8.366376876998041
H 2.177592125326928 -1.637734386637406 8.177197280381710
H 1.450778008369388 -2.739370461048962 6.969198271148631
23
maple-route1-mmgb-reference-mlip-reweighting-v1 phase=solution replicate=repeat-0 sample=96
C 0.362395507066052 4.145909011080835 1.333168249794531
C 1.186684382626523 3.028260605298074 1.957172334560832
C 0.630761956038816 2.750232341198261 3.360104859644216
C 1.400949345076047 1.574799516967316 4.005503005360763
C 0.886996517043076 1.072786594284524 5.374001477116411
C 1.506463508316580 -0.241399222012223 5.808614415157112
O 2.746923895689901 -0.441983003158818 5.692723838598967
O 0.734329411983774 -0.774293935846713 6.820601227524007
C 1.344331636664625 -1.961344811985978 7.467505097988367
H 0.876335493951048 4.420945951710341 0.392420856215115
H -0.667200486568848 3.868641130856313 1.104609070852223
H 0.466138121720865 5.008957967259299 2.044665103057309
H 2.258634685091758 3.217514821711663 1.951748158282316
H 1.051243296397479 2.172414832845435 1.300397298264935
H 0.793517225480726 3.695822115315684 3.857574803840797
H -0.444254879798318 2.494585250520163 3.205763787640982
H 1.289910571669217 0.764731357524040 3.295824053219472
H 2.503737730388591 1.637324730730260 4.024199036812755
H 1.158607713477973 1.794020072167491 6.132441136554626
H -0.184783424167335 0.883640097493787 5.406688732718841
H 0.725992943391276 -2.319505050352059 8.322282279583948
H 2.348824149929839 -1.656368210147052 7.834793785183344
H 1.476036958848573 -2.643764235575415 6.582524301022259
23
maple-route1-mmgb-reference-mlip-reweighting-v1 phase=solution replicate=repeat-0 sample=97
C 0.364424859744452 4.126152334208405 1.342445878617986
C 1.223941796431714 3.052922822429327 2.029508782572292
C 0.649846217151439 2.653003323395570 3.396782924462999
C 1.344063049964507 1.486586074518051 4.028763679884558
C 0.788744046239778 1.156410581046954 5.362388583191616
C 1.611044032941154 -0.040679511779525 5.961363787807165
O 2.693118372786049 -0.402127124171761 5.598868507445349
O 0.804901491792698 -0.837034936338092 6.753172182360766
C 1.334907456755504 -2.005836662127063 7.382812468720924
H 0.905710331397484 4.583306406494613 0.445934926910875
H -0.497982068092549 3.579072931459581 0.909342622279510
H 0.083105326783391 4.892579453194012 2.136562355087623
H 2.278566460525081 3.461526483705830 2.187629102031205
H 1.316665691436380 2.209691595822799 1.325066479003330
H 0.848250747322164 3.570115090925421 3.951874086079665
H -0.388885801692866 2.449675887690529 3.279467600486822
H 1.299466883715303 0.580919280779198 3.365673241419330
H 2.424059179499711 1.602474132157955 4.172704206232112
H 0.942833477692038 2.013374324568461 5.951995752580567
H -0.256650458993074 0.930834348195534 5.356819866649081
H 0.621758072701569 -2.336936261747582 8.169278560063606
H 2.306722999738767 -1.799507772491373 7.860394293118502
H 1.524433108472987 -2.736383263336359 6.530653125042230
23
maple-route1-mmgb-reference-mlip-reweighting-v1 phase=solution replicate=repeat-0 sample=98
C 0.384101749729467 4.140980372365982 1.258889047945542
C 1.257035962343470 3.147445369965934 2.094989730350110
C 0.596583836870839 2.631986719971742 3.417987942497139
C 1.332480693710470 1.460363175313683 3.942722836269454
C 0.864168737320366 1.072041227917403 5.447098334010597
C 1.633255006644923 -0.022856217466672 6.051295373573180
O 2.653916922879624 -0.341798048527299 5.572678268214704
O 0.805844543420588 -0.836958535280652 6.805296373086660
C 1.313963967798595 -2.030148121864573 7.284217287509814
H 0.916137501640082 4.568656957438999 0.375221397088675
H -0.402382263331966 3.464683824799919 0.832632918648842
H -0.009159285206688 4.889226552401075 1.958476031343005
H 2.202095503109760 3.694548866517033 2.333579643405524
H 1.547760496647241 2.314261939428411 1.398464797490013
H 0.538263248206783 3.472748868655986 4.121158726552133
H -0.359084102328726 2.246605069996662 3.149419523357755
H 1.312219519737862 0.615422481239905 3.206204799016384
H 2.402478046956237 1.694896018503842 3.985780707285471
H 0.817672999289961 1.926771406169417 6.129631053411105
H -0.152892438651404 0.682723172206984 5.405439802599959
H 0.552507448672462 -2.561832241986767 7.895488292260367
H 2.182624376461973 -1.955929753363712 8.009196856558416
H 1.699222222595285 -2.682783439765582 6.499769072767832
23
maple-route1-mmgb-reference-mlip-reweighting-v1 phase=solution replicate=repeat-0 sample=99
C 0.371083253571478 4.140583523915672 1.236365548493936
C 1.264454396043461 3.249735101690169 2.149221427518898
C 0.499092624159213 2.667686224942075 3.305688479467782
C 1.308532209320436 1.515013160299655 3.993958734911929
C 0.789168334006130 1.116846826493801 5.370361153646313
C 1.603009684098398 -0.083934137992288 5.977049472183502
O 2.805055088530513 -0.466850129932523 5.690684449301977
O 0.826381461410269 -0.792230466266326 6.883047662131005
C 1.336782658238176 -2.129085725826986 7.232602858868590
H 0.998673549514235 4.422074362414723 0.428775794595138
H -0.419329254842111 3.572443834707097 0.760825192616224
H 0.010548171076210 4.985761626540667 1.782175748988360
H 2.034243911099770 3.915551296633632 2.484488128543560
H 1.749043903516631 2.465763773328975 1.547230620148522
H 0.294197665326467 3.505243746031128 3.971777474256776
H -0.467167217701844 2.249861797744681 2.892937452335756
H 1.334890345200139 0.632570759320372 3.340198525559818
H 2.366297348895787 1.810257802165548 4.123320311898658
H 0.922582516228474 2.000494301272475 6.076059243107078
H -0.326482165776037 0.909786962244593 5.414644165475853
H 0.571369471316537 -2.827486434694249 7.658951965892756
H 2.097790127970876 -2.209564030858912 8.022129261155262
H 1.832703012333538 -2.708427571783314 6.451447921636960
