23
Frame 5  Energy = -425.8893564495 Hartree
C       0.04359064      1.06565494      0.14499287
C      -0.16239758      1.43457451      1.60325808
C       0.92580996      0.82544999      2.48840818
C       0.71227742      1.20146312      3.96127965
C       1.78175783      0.60566225      4.87741465
C       1.59665063      0.96682214      6.33317255
O       0.69315054      1.66301449      6.77343328
O       2.60659324      0.41889294      7.06188838
C       2.58648874      0.70201836      8.46834155
H      -0.73634839      1.51135770     -0.48945268
H       1.01001879      1.40823797     -0.22162321
H      -0.00856745     -0.01110589      0.01806229
H      -1.13610684      1.09507937      1.92918068
H      -0.14199216      2.53864331      1.69799488
H       0.91044642     -0.27364983      2.36650072
H       1.90110320      1.17937793      2.17670908
H       0.75040565      2.29537845      4.04864961
H      -0.27974880      0.89296784      4.27510137
H       1.79039422     -0.48905728      4.76957388
H       2.76525149      0.97684538      4.56580017
H       3.41776310      0.21126871      8.91912786
H       1.65329499      0.33684500      8.89896584
H       2.65227165      1.78032712      8.59611662
23
Frame 10  Energy = -425.8886817827 Hartree
C       0.04716286      1.06733788      0.14694960
C      -0.16468357      1.43328194      1.60250922
C       0.92749921      0.82676921      2.48487713
C       0.70957227      1.20091672      3.96051054
C       1.77839948      0.60624880      4.87872263
C       1.59823601      0.96572498      6.33433715
O       0.69448156      1.65985539      6.77486242
O       2.60412828      0.41986174      7.06083120
C       2.58977338      0.70212254      8.47163973
H      -0.73213033      1.51618555     -0.49477474
H       1.00805689      1.40486804     -0.22362727
H      -0.01804627      0.00063375      0.01605604
H      -1.12443976      1.10117663      1.92756595
H      -0.13390326      2.54935576      1.69362893
H       0.90810527     -0.28024840      2.35542776
H       1.89369578      1.18593131      2.19331924
H       0.74993274      2.29537116      4.04229510
H      -0.27770324      0.89877540      4.26182576
H       1.79320896     -0.49040535      4.76378755
H       2.76228458      0.96945231      4.55795954
H       3.40288418      0.20752096      8.90163087
H       1.65973463      0.33998377      8.91776762
H       2.65274308      1.78156358      8.59787093
23
Frame 15  Energy = -425.8885926999 Hartree
C       0.05062205      1.06907421      0.14879287
C      -0.16677007      1.43212216      1.60169387
C       0.92894070      0.82799576      2.48145127
C       0.70703713      1.20041433      3.95967777
C       1.77493519      0.60677431      4.87990771
C       1.59971386      0.96461991      6.33554415
O       0.69602147      1.65657254      6.77629165
O       2.60153791      0.42095826      7.05976722
C       2.59273224      0.70242610      8.47476746
H      -0.72706589      1.52048493     -0.49962105
H       1.00614464      1.40168323     -0.22593568
H      -0.02766326      0.01123477      0.01399043
H      -1.11446295      1.10728682      1.92637746
H      -0.12583477      2.55843552      1.68924099
H       0.90610686     -0.28556929      2.34487887
H       1.88743444      1.19296480      2.20918125
H       0.74939551      2.29529069      4.03608348
H      -0.27635430      0.90424956      4.24928832
H       1.79626256     -0.49095721      4.75864770
H       2.75907372      0.96178410      4.55028096
H       3.39111832      0.20216251      8.88519487
H       1.66662276      0.34371661      8.93620547
H       2.65336590      1.78233680      8.59982740
23
Frame 20  Energy = -425.8885371806 Hartree
C       0.05379917      1.07095102      0.15045770
C      -0.16841962      1.43125908      1.60079384
C       0.93002389      0.82913879      2.47823372
C       0.70463073      1.20002521      3.95861842
C       1.77138127      0.60723273      4.88098580
C       1.60106468      0.96358924      6.33674046
O       0.69775323      1.65311293      6.77777461
O       2.59878973      0.42216811      7.05877061
C       2.59520374      0.70298419      8.47759327
H      -0.72096210      1.52438001     -0.50355430
H       1.00483369      1.39866620     -0.22830730
H      -0.03722150      0.01969149      0.01186154
H      -1.10722461      1.11248546      1.92603329
H      -0.11806961      2.56493900      1.68484669
H       0.90470756     -0.28925769      2.33491709
H       1.88327986      1.20100655      2.22347319
H       0.74894210      2.29503693      4.03022319
H      -0.27641779      0.90932903      4.23761937
H       1.79952836     -0.49037599      4.75459389
H       2.75510002      0.95357083      4.54297547
H       3.38415073      0.19416023      8.87045458
H       1.67396443      0.34741325      8.95413780
H       2.65410654      1.78263478      8.60218305
23
Frame 25  Energy = -425.8883786608 Hartree
C       0.05667411      1.07297679      0.15192946
C      -0.16954273      1.43077535      1.59981387
C       0.93079557      0.83007755      2.47525506
C       0.70246063      1.19987886      3.95740377
C       1.76772365      0.60763436      4.88185799
C       1.60238740      0.96266319      6.33791329
O       0.69972187      1.64955016      6.77925521
O       2.59601366      0.42340517      7.05788465
C       2.59713120      0.70373904      8.48014259
H      -0.71379035      1.52802936     -0.50657042
H       1.00481291      1.39618131     -0.23065886
H      -0.04696838      0.02611481      0.00907911
H      -1.10373512      1.11677311      1.92685495
H      -0.11056574      2.56836408      1.68073854
H       0.90399688     -0.29069014      2.32490863
H       1.88178598      1.20968974      2.23661234
H       0.74826488      2.29448042      4.02475459
H      -0.27854833      0.91390007      4.22734584
H       1.80244934     -0.48876789      4.75129228
H       2.75081463      0.94538485      4.53632350
H       3.38265604      0.18340242      8.85793815
H       1.68157664      0.35094337      8.97155674
H       2.65527517      1.78264466      8.60518144
23
Frame 30  Energy = -425.8884946045 Hartree
C       0.05926762      1.07518599      0.15333234
C      -0.17008984      1.43072685      1.59869331
C       0.93123445      0.83075485      2.47247937
C       0.70053295      1.19988727      3.95598789
C       1.76409435      0.60802791      4.88250821
C       1.60363557      0.96176504      6.33906100
O       0.70180372      1.64593249      6.78070798
O       2.59318531      0.42466547      7.05705718
C       2.59862616      0.70475760      8.48235309
H      -0.70516837      1.53148733     -0.50870768
H       1.00616247      1.39399504     -0.23308935
H      -0.05637442      0.02993252      0.00625104
H      -1.10408799      1.12009052      1.92886759
H      -0.10357368      2.56877079      1.67677790
H       0.90374799     -0.29000419      2.31504279
H       1.88351747      1.21885595      2.24798860
H       0.74737149      2.29332223      4.01960898
H      -0.28278688      0.91777264      4.21835605
H       1.80515309     -0.48611803      4.74836440
H       2.74643604      0.93751656      4.53049672
H       3.38688601      0.16998388      8.84826461
H       1.68972935      0.35451652      8.98824704
H       2.65735891      1.78227520      8.60883259
23
Frame 35  Energy = -425.8895524800 Hartree
C       0.06157677      1.07753442      0.15461983
C      -0.17007352      1.43110016      1.59745182
C       0.93138644      0.83112954      2.46998895
C       0.69877635      1.19995306      3.95434126
C       1.76050019      0.60832044      4.88297757
C       1.60487014      0.96078543      6.34011127
O       0.70398678      1.64222618      6.78217205
O       2.59038411      0.42591282      7.05636380
C       2.59963051      0.70598709      8.48433820
H      -0.69568780      1.53453662     -0.50976915
H       1.00886458      1.39188986     -0.23546161
H      -0.06524077      0.03159465      0.00315842
H      -1.10884817      1.12187831      1.93208515
H      -0.09728122      2.56587314      1.67288825
H       0.90415115     -0.28727051      2.30531695
H       1.88802825      1.22879665      2.25707887
H       0.74659067      2.29193096      4.01461437
H      -0.28891025      0.92045147      4.21062096
H       1.80763187     -0.48291472      4.74596991
H       2.74199302      0.93002063      4.52535350
H       3.39665594      0.15414295      8.84117832
H       1.69789745      0.35854183      9.00413731
H       2.65991007      1.78151706      8.61289711
23
Frame 40  Energy = -425.8894129075 Hartree
C       0.06358190      1.07996534      0.15572712
C      -0.16953149      1.43178902      1.59606339
C       0.93117087      0.83128838      2.46768558
C       0.69725456      1.19999313      3.95255102
C       1.75697473      0.60857834      4.88330979
C       1.60597907      0.95964109      6.34106033
O       0.70619929      1.63845792      6.78374365
O       2.58757860      0.42708527      7.05581152
C       2.60026345      0.70740984      8.48610035
H      -0.68548170      1.53747913     -0.51002258
H       1.01304687      1.38980530     -0.23782700
H      -0.07372861      0.03079606     -0.00021247
H      -1.11740279      1.12257584      1.93651743
H      -0.09174149      2.55965425      1.66923301
H       0.90540163     -0.28237107      2.29613133
H       1.89485657      1.23935809      2.26405389
H       0.74533866      2.29065910      4.01009368
H      -0.29698692      0.92224163      4.20426045
H       1.80966588     -0.47933446      4.74476461
H       2.73755198      0.92288752      4.52110881
H       3.41053212      0.13659480      8.83606998
H       1.70591087      0.36284570      9.01857627
H       2.66312758      1.78078490      8.61723479
23
Frame 45  Energy = -425.8893157057 Hartree
C       0.06534373      1.08242739      0.15657977
C      -0.16847225      1.43278894      1.59451046
C       0.93065056      0.83132285      2.46560752
C       0.69588120      1.20004995      3.95061637
C       1.75350165      0.60879865      4.88342626
C       1.60693810      0.95851210      6.34191285
O       0.70847003      1.63464058      6.78535489
O       2.58478035      0.42824663      7.05547834
C       2.60063990      0.70893129      8.48771478
H      -0.67489847      1.54060056     -0.50966268
H       1.01883505      1.38794630     -0.24003760
H      -0.08157022      0.02798884     -0.00389596
H      -1.12854210      1.12268433      1.94182804
H      -0.08656488      2.55081642      1.66584539
H       0.90749673     -0.27519698      2.28767135
H       1.90328988      1.25033766      2.26889197
H       0.74390974      2.28895844      4.00618750
H      -0.30706549      0.92323799      4.19930985
H       1.81100445     -0.47548836      4.74475710
H       2.73298998      0.91625430      4.51756127
H       3.42730976      0.11860284      8.83209489
H       1.71367981      0.36689409      9.03176013
H       2.66711813      1.78024751      8.62178019
23
Frame 50  Energy = -425.8887634957 Hartree
C       0.06694459      1.08490523      0.15721194
C      -0.16697229      1.43398701      1.59291969
C       0.92987084      0.83126806      2.46380568
C       0.69447892      1.20012284      3.94852166
C       1.74997936      0.60897541      4.88328391
C       1.60772670      0.95731873      6.34264169
O       0.71068021      1.63083513      6.78701270
O       2.58202680      0.42939690      7.05532203
C       2.60087442      0.71037571      8.48925508
H      -0.66412456      1.54398949     -0.50839909
H       1.02630581      1.38617585     -0.24248889
H      -0.08865585      0.02378980     -0.00754939
H      -1.14124965      1.12226361      1.94749068
H      -0.08231529      2.54012778      1.66278468
H       0.91051546     -0.26606928      2.27986875
H       1.91238999      1.26126402      2.27177089
H       0.74247479      2.28688745      4.00314918
H      -0.31861965      0.92326245      4.19555390
H       1.81180772     -0.47170297      4.74568810
H       2.72894393      0.91074695      4.51453066
H       3.44525906      0.10106262      8.82864307
H       1.72125319      0.37063094      9.04350816
H       2.67215002      1.77995061      8.62683955
23
Frame 55  Energy = -425.8883720281 Hartree
C       0.06835224      1.08735620      0.15768892
C      -0.16510750      1.43541729      1.59135164
C       0.92899010      0.83122990      2.46222163
C       0.69304253      1.20014156      3.94619953
C       1.74643986      0.60924273      4.88285571
C       1.60835233      0.95618254      6.34308206
O       0.71291792      1.62708125      6.78876383
O       2.57939655      0.43050230      7.05531772
C       2.60113543      0.71165630      8.49068012
H      -0.65378857      1.54789046     -0.50676619
H       1.03500424      1.38418084     -0.24458752
H      -0.09513846      0.01900789     -0.01118845
H      -1.15471879      1.12141429      1.95285655
H      -0.07893342      2.52799305      1.66017150
H       0.91426196     -0.25542190      2.27275675
H       1.92162934      1.27135486      2.27261544
H       0.74133787      2.28490381      4.00091533
H      -0.33045751      0.92271688      4.19291716
H       1.81213066     -0.46826829      4.74744852
H       2.72535118      0.90623407      4.51213380
H       3.46336071      0.08506595      8.82540716
H       1.72862874      0.37418783      9.05400389
H       2.67862378      1.77980861      8.63246628
23
Frame 60  Energy = -425.8883516156 Hartree
C       0.06961880      1.08954903      0.15797051
C      -0.16311763      1.43692738      1.58985495
C       0.92803162      0.83118891      2.46086692
C       0.69153595      1.20007375      3.94371099
C       1.74287221      0.60947215      4.88218479
C       1.60884139      0.95505927      6.34329847
O       0.71512282      1.62333693      6.79066036
O       2.57687784      0.43155763      7.05545658
C       2.60153804      0.71274270      8.49202712
H      -0.64406452      1.55256464     -0.50492350
H       1.04391173      1.38185767     -0.24576618
H      -0.10062698      0.01412721     -0.01464069
H      -1.16735535      1.12059001      1.95769271
H      -0.07642975      2.51526296      1.65809815
H       0.91900744     -0.24399920      2.26604551
H       1.93010254      1.28031254      2.27170956
H       0.74037546      2.28329242      3.99908361
H      -0.34196047      0.92181191      4.19126607
H       1.81187339     -0.46538906      4.74997180
H       2.72219144      0.90226512      4.51051250
H       3.48014149      0.07166032      8.82181300
H       1.73565722      0.37734434      9.06307692
H       2.68594059      1.77967965      8.63851126
23
Frame 65  Energy = -425.8884295213 Hartree
C       0.07082180      1.09142877      0.15801152
C      -0.16108426      1.43844996      1.58844788
C       0.92707006      0.83117292      2.45971647
C       0.68988114      1.19984834      3.94116157
C       1.73928070      0.60977452      4.88134642
C       1.60930490      0.95395151      6.34327559
O       0.71727637      1.61961514      6.79263394
O       2.57452786      0.43254235      7.05578501
C       2.60221122      0.71359874      8.49330098
H      -0.63512291      1.55822653     -0.50327640
H       1.05289132      1.37910350     -0.24598720
H      -0.10486691      0.00988218     -0.01761103
H      -1.17805412      1.12060907      1.96158407
H      -0.07463853      2.50324695      1.65680856
H       0.92472459     -0.23260463      2.25967270
H       1.93677583      1.28767758      2.26955787
H       0.73924535      2.28239775      3.99814085
H      -0.35230541      0.92075340      4.19041637
H       1.81060747     -0.46335951      4.75317678
H       2.71943820      0.89926821      4.50967473
H       3.49447708      0.06131612      8.81778337
H       1.74228156      0.37963808      9.07076904
H       2.69397291      1.78002114      8.64477796
23
Frame 70  Energy = -425.8885094881 Hartree
C       0.07201037      1.09295855      0.15773208
C      -0.15899697      1.43992649      1.58720450
C       0.92627556      0.83140913      2.45876192
C       0.68812321      1.19950705      3.93860851
C       1.73560851      0.61009048      4.88037792
C       1.60957949      0.95289745      6.34300897
O       0.71935521      1.61591313      6.79457626
O       2.57235781      0.43336608      7.05632247
C       2.60320672      0.71412434      8.49456940
H      -0.62720126      1.56489230     -0.50172182
H       1.06156310      1.37571034     -0.24493443
H      -0.10781051      0.00700835     -0.02035686
H      -1.18591691      1.12152512      1.96452480
H      -0.07335412      2.49286185      1.65613896
H       0.93115368     -0.22207825      2.25363608
H       1.94074846      1.29294968      2.26592625
H       0.73790942      2.28254794      3.99806328
H      -0.36091839      0.91990686      4.19021498
H       1.80838171     -0.46209276      4.75729564
H       2.71721896      0.89716006      4.50927022
H       3.50596157      0.05481813      8.81337481
H       1.74820886      0.38153085      9.07707958
H       2.70305481      1.78069858      8.65080575
23
Frame 75  Energy = -425.8886307895 Hartree
C       0.07324664      1.09417407      0.15705978
C      -0.15682347      1.44130871      1.58615306
C       0.92551109      0.83198697      2.45798236
C       0.68629207      1.19907469      3.93602730
C       1.73196823      0.61035095      4.87928746
C       1.60969526      0.95188155      6.34252918
O       0.72132255      1.61225073      6.79655807
O       2.57030448      0.43411550      7.05719946
C       2.60470541      0.71427881      8.49580546
H      -0.62077125      1.57242955     -0.50074745
H       1.06953796      1.37148214     -0.24255829
H      -0.10961011      0.00555179     -0.02291110
H      -1.19071846      1.12348011      1.96603468
H      -0.07261772      2.48552926      1.65623103
H       0.93832329     -0.21314445      2.24780688
H       1.94191144      1.29627457      2.26081095
H       0.73610176      2.28338581      3.99853990
H      -0.36731648      0.91950911      4.19070317
H       1.80574503     -0.46177779      4.76227106
H       2.71585172      0.89593463      4.50981570
H       3.51446700      0.05244822      8.80849353
H       1.75329214      0.38303989      9.08232819
H       2.71287884      1.78137902      8.65695949
23
Frame 80  Energy = -425.8886522996 Hartree
C       0.07459697      1.09507062      0.15609862
C      -0.15476557      1.44243292      1.58531233
C       0.92487100      0.83294795      2.45755311
C       0.68434196      1.19859226      3.93329676
C       1.72846299      0.61048747      4.87797754
C       1.60962764      0.95089757      6.34177494
O       0.72316401      1.60868237      6.79872471
O       2.56843445      0.43480706      7.05835071
C       2.60661868      0.71417288      8.49704252
H      -0.61537793      1.58083281     -0.50017417
H       1.07663370      1.36659587     -0.23883885
H      -0.11000628      0.00579398     -0.02494088
H      -1.19227704      1.12618198      1.96577586
H      -0.07235581      2.48202158      1.65702901
H       0.94617194     -0.20668288      2.24214655
H       1.94024226      1.29788388      2.25489351
H       0.73396445      2.28447162      3.99977017
H      -0.37100670      0.91922667      4.19179108
H       1.80218805     -0.46316370      4.76812760
H       2.71522665      0.89551916      4.51116102
H       3.51938126      0.05423322      8.80299885
H       1.75752334      0.38417656      9.08608302
H       2.72342649      1.78191274      8.66343710
23
Frame 85  Energy = -425.8888536669 Hartree
C       0.07600241      1.09560875      0.15483375
C      -0.15290189      1.44336332      1.58451067
C       0.92438486      0.83428980      2.45736732
C       0.68225124      1.19804261      3.93044426
C       1.72512649      0.61045612      4.87643218
C       1.60940642      0.94994834      6.34070758
O       0.72490404      1.60528791      6.80103373
O       2.56671532      0.43537153      7.05967729
C       2.60891112      0.71374852      8.49823976
H      -0.61147694      1.59015964     -0.50016983
H       1.08243316      1.36120578     -0.23362165
H      -0.10892296      0.00801913     -0.02616141
H      -1.19004236      1.12993354      1.96394276
H      -0.07225641      2.48263785      1.65858178
H       0.95455830     -0.20278924      2.23686833
H       1.93565214      1.29787442      2.24808556
H       0.73172397      2.28551190      4.00156938
H      -0.37216673      0.91937519      4.19355175
H       1.79763996     -0.46593893      4.77493799
H       2.71493419      0.89605903      4.51311769
H       3.52047955      0.06031912      8.79700434
H       1.76096875      0.38450295      9.08836060
H       2.73458454      1.78269094      8.66995560
23
Frame 90  Energy = -425.8889794408 Hartree
C       0.07745971      1.09588357      0.15331698
C      -0.15116844      1.44403685      1.58390855
C       0.92400299      0.83600067      2.45737528
C       0.68008044      1.19738446      3.92760764
C       1.72183192      0.61029614      4.87481924
C       1.60913131      0.94900417      6.33935096
O       0.72640219      1.60210023      6.80344774
O       2.56510839      0.43594779      7.06121962
C       2.61157239      0.71303433      8.49941198
H      -0.60893196      1.60051203     -0.50057729
H       1.08711561      1.35516583     -0.22732350
H      -0.10685730      0.01205415     -0.02704228
H      -1.18425795      1.13461712      1.96020716
H      -0.07252439      2.48743149      1.66066728
H       0.96331004     -0.20172913      2.23196875
H       1.92849917      1.29609922      2.24034529
H       0.72932885      2.28681454      4.00367840
H      -0.37080609      0.91982577      4.19587308
H       1.79217090     -0.46994900      4.78228595
H       2.71484633      0.89719631      4.51543842
H       3.51773115      0.07002515      8.79057117
H       1.76371578      0.38400432      9.08925364
H       2.74657296      1.78301814      8.67629060
23
Frame 95  Energy = -425.8889617811 Hartree
C       0.07886056      1.09605022      0.15154578
C      -0.14953903      1.44463438      1.58349165
C       0.92374470      0.83800371      2.45750759
C       0.67770951      1.19672439      3.92464922
C       1.71864799      0.61013287      4.87311804
C       1.60876537      0.94811539      6.33774535
O       0.72761019      1.59904424      6.80600089
O       2.56368178      0.43649175      7.06295587
C       2.61465283      0.71213617      8.50043762
H      -0.60745313      1.61155524     -0.50184064
H       1.09013439      1.34838165     -0.21988523
H      -0.10419545      0.01780102     -0.02732154
H      -1.17535990      1.14037245      1.95501125
H      -0.07318678      2.49589791      1.66334718
H       0.97251002     -0.20338931      2.22737998
H       1.91951204      1.29269527      2.23206706
H       0.72658817      2.28810074      4.00599843
H      -0.36702823      0.92033696      4.19851003
H       1.78593496     -0.47480332      4.79025097
H       2.71490098      0.89924762      4.51838640
H       3.51181493      0.08297971      8.78325219
H       1.76576773      0.38295759      9.08913704
H       2.75895513      1.78268193      8.68230773
23
Frame 100  Energy = -425.8887427027 Hartree
C       0.08019065      1.09606175      0.14952555
C      -0.14805487      1.44506141      1.58328960
C       0.92363334      0.84030554      2.45782937
C       0.67519606      1.19610674      3.92152080
C       1.71562130      0.60983777      4.87130196
C       1.60827950      0.94724871      6.33588229
O       0.72866716      1.59620551      6.80867128
O       2.56247822      0.43698061      7.06497263
C       2.61810031      0.71096567      8.50135442
H      -0.60667209      1.62350212     -0.50395682
H       1.09199392      1.34085635     -0.21137715
H      -0.10091082      0.02489320     -0.02714178
H      -1.16348367      1.14679414      1.94875437
H      -0.07408795      2.50741961      1.66637531
H       0.98161302     -0.20744854      2.22349232
H       1.90875453      1.28827965      2.22312732
H       0.72359428      2.28918551      4.00857606
H      -0.36088494      0.92093661      4.20128115
H       1.77893885     -0.47988277      4.79851441
H       2.71497745      0.90204699      4.52226579
H       3.50344684      0.09845293      8.77554393
H       1.76735013      0.38124116      9.08793856
H       2.77139458      1.78161451      8.68813414
23
Frame 105  Energy = -425.8894611177 Hartree
C       0.08135444      1.09591238      0.14727054
C      -0.14665604      1.44538083      1.58320324
C       0.92369127      0.84287183      2.45833605
C       0.67251566      1.19546933      3.91847768
C       1.71262141      0.60935646      4.86941000
C       1.60767705      0.94645178      6.33390683
O       0.72956441      1.59358321      6.81146259
O       2.56144525      0.43738450      7.06722222
C       2.62173112      0.70972213      8.50215608
H      -0.60640581      1.63600406     -0.50642426
H       1.09307692      1.33308827     -0.20202180
H      -0.09711525      0.03268688     -0.02671957
H      -1.14971276      1.15397605      1.94160443
H      -0.07520149      2.52117473      1.66986786
H       0.99097856     -0.21289649      2.22032276
H       1.89672710      1.28354307      2.21370848
H       0.72062571      2.28974728      4.01136853
H      -0.35336650      0.92166088      4.20423488
H       1.77143344     -0.48482884      4.80662306
H       2.71477009      0.90545729      4.52681456
H       3.49355117      0.11544138      8.76812895
H       1.76857168      0.37901695      9.08592403
H       2.78404758      1.77947241      8.69360777
23
Frame 110  Energy = -425.8892798197 Hartree
C       0.08241278      1.09568295      0.14474235
C      -0.14532837      1.44566591      1.58316498
C       0.92383979      0.84559281      2.45890306
C       0.66972492      1.19476465      3.91546554
C       1.70978453      0.60880081      4.86738991
C       1.60694695      0.94570210      6.33167970
O       0.73016500      1.59111498      6.81443002
O       2.56059553      0.43769842      7.06964418
C       2.62543486      0.70847496      8.50275574
H      -0.60629585      1.64849001     -0.50897754
H       1.09381953      1.32507983     -0.19211601
H      -0.09287606      0.04068290     -0.02604477
H      -1.13531420      1.16121156      1.93370752
H      -0.07677762      2.53588408      1.67390486
H       1.00023870     -0.21965789      2.21808013
H       1.88461213      1.27845170      2.20389970
H       0.71756638      2.28990806      4.01448955
H      -0.34454100      0.92219090      4.20756696
H       1.76340566     -0.48912819      4.81450800
H       2.71441783      0.90926054      4.53149078
H       3.48362956      0.13324278      8.76152390
H       1.76953690      0.37638772      9.08258243
H       2.79633887      1.77598879      8.69864647
23
Frame 115  Energy = -425.8891871056 Hartree
C       0.08342575      1.09557247      0.14204824
C      -0.14389940      1.44609710      1.58310687
C       0.92400301      0.84830994      2.45945892
C       0.66693783      1.19391234      3.91256343
C       1.70717672      0.60809357      4.86541449
C       1.60606786      0.94498950      6.32923882
O       0.73051460      1.58883278      6.81754823
O       2.55993705      0.43792915      7.07211925
C       2.62921553      0.70731144      8.50315985
H      -0.60578690      1.66066952     -0.51092541
H       1.09434018      1.31682825     -0.18212824
H      -0.08863503      0.04778597     -0.02549001
H      -1.12110066      1.16780403      1.92527465
H      -0.07905573      2.55007488      1.67784181
H       1.00957738     -0.22695978      2.21672293
H       1.87302715      1.27306128      2.19363649
H       0.71449589      2.28930936      4.01774859
H      -0.33553446      0.92237538      4.21110090
H       1.75462324     -0.49249942      4.82223517
H       2.71381944      0.91318089      4.53664223
H       3.47533821      0.15050902      8.75625413
H       1.77005919      0.37368313      9.07816090
H       2.80857820      1.77158641      8.70300368
23
Frame 120  Energy = -425.8861342141 Hartree
C       0.08433189      1.09560001      0.13913329
C      -0.14230756      1.44667922      1.58301848
C       0.92415053      0.85097357      2.46001204
C       0.66423755      1.19306407      3.90983846
C       1.70479883      0.60713398      4.86343526
C       1.60505790      0.94429310      6.32672426
O       0.73066955      1.58670788      6.82074869
O       2.55952469      0.43802241      7.07475180
C       2.63290298      0.70635298      8.50328099
H      -0.60459776      1.67215303     -0.51236466
H       1.09518756      1.30871883     -0.17223468
H      -0.08466579      0.05306182     -0.02521394
H      -1.10835025      1.17376011      1.91665379
H      -0.08155218      2.56295434      1.68193481
H       1.01818174     -0.23347096      2.21629196
H       1.86288685      1.26853497      2.18276637
H       0.71137239      2.28749466      4.02056781
H      -0.32691995      0.92160521      4.21495734
H       1.74487810     -0.49498500      4.82960953
H       2.71271442      0.91704623      4.54233697
H       3.47000279      0.16596307      8.75289618
H       1.77026749      0.37078641      9.07295441
H       2.82024328      1.76645005      8.70682373
23
Frame 125  Energy = -425.8861296302 Hartree
C       0.08500873      1.09570503      0.13603729
C      -0.14049637      1.44746895      1.58282350
C       0.92408849      0.85343079      2.46071841
C       0.66171738      1.19228402      3.90737310
C       1.70256406      0.60598239      4.86147818
C       1.60380942      0.94361320      6.32416708
O       0.73054411      1.58478843      6.82400718
O       2.55926002      0.43797071      7.07745034
C       2.63633016      0.70567415      8.50327652
H      -0.60249846      1.68267614     -0.51338680
H       1.09643450      1.30120789     -0.16222925
H      -0.08099329      0.05657578     -0.02529221
H      -1.09830274      1.17847912      1.90832281
H      -0.08424706      2.57353391      1.68574016
H       1.02606359     -0.23877359      2.21709403
H       1.85499697      1.26477193      2.17066580
H       0.70817963      2.28474094      4.02330638
H      -0.31949839      0.92006791      4.21900568
H       1.73452298     -0.49684980      4.83663479
H       2.71114721      0.92103872      4.54821599
H       3.46891618      0.17857380      8.75185448
H       1.77015802      0.36796377      9.06686933
H       2.83108336      1.76085404      8.71004027
23
Frame 130  Energy = -425.8864498990 Hartree
C       0.08543668      1.09586984      0.13285540
C      -0.13846041      1.44863799      1.58254017
C       0.92380062      0.85561189      2.46153493
C       0.65945731      1.19163993      3.90507039
C       1.70058124      0.60458474      4.85953569
C       1.60240732      0.94291527      6.32158766
O       0.73012044      1.58295951      6.82724865
O       2.55920345      0.43775544      7.08016559
C       2.63945099      0.70531910      8.50305420
H      -0.59951939      1.69189769     -0.51358045
H       1.09858516      1.29421229     -0.15230807
H      -0.07782834      0.05817713     -0.02593682
H      -1.09174250      1.18157728      1.90073530
H      -0.08735423      2.58143422      1.68903665
H       1.03335196     -0.24232139      2.21918799
H       1.84997080      1.26201956      2.15753603
H       0.70496319      2.28107042      4.02608089
H      -0.31373522      0.91774464      4.22346353
H       1.72420912     -0.49799597      4.84305234
H       2.70913189      0.92498884      4.55395686
H       3.47265307      0.18761179      8.75319901
H       1.76943776      0.36530048      9.06014174
H       2.84128411      1.75488807      8.71279405
23
Frame 135  Energy = -425.8865247253 Hartree
C       0.08576214      1.09622778      0.12964309
C      -0.13612132      1.45016219      1.58218122
C       0.92325750      0.85747861      2.46234490
C       0.65735011      1.19114722      3.90293542
C       1.69889924      0.60297995      4.85765573
C       1.60090047      0.94222307      6.31912991
O       0.72950875      1.58120730      6.83049370
O       2.55935793      0.43745477      7.08291605
C       2.64210885      0.70526129      8.50252415
H      -0.59493267      1.69944744     -0.51343399
H       1.10211595      1.28758340     -0.14286501
H      -0.07558071      0.05768133     -0.02699161
H      -1.08925127      1.18315446      1.89414277
H      -0.09092183      2.58637977      1.69222217
H       1.03985440     -0.24408276      2.22297249
H       1.84810513      1.26052617      2.14359283
H       0.70167848      2.27699521      4.02884430
H      -0.31012618      0.91420203      4.22860980
H       1.71416780     -0.49805891      4.84863601
H       2.70666198      0.92853383      4.55981254
H       3.48182355      0.19256295      8.75745406
H       1.76842755      0.36280161      9.05274570
H       2.85086060      1.74925981      8.71474265
23
Frame 140  Energy = -425.8868553167 Hartree
C       0.08593309      1.09676873      0.12641927
C      -0.13341083      1.45209580      1.58166178
C       0.92253784      0.85909815      2.46315323
C       0.65551967      1.19084817      3.90100787
C       1.69741455      0.60120459      4.85591188
C       1.59929150      0.94165732      6.31678361
O       0.72866891      1.57954202      6.83376856
O       2.55970605      0.43703578      7.08555039
C       2.64435367      0.70542746      8.50170200
H      -0.58905493      1.70584821     -0.51294523
H       1.10696594      1.28160199     -0.13397087
H      -0.07442843      0.05505044     -0.02856245
H      -1.09087217      1.18261204      1.88909119
H      -0.09436845      2.58811276      1.69529275
H       1.04514837     -0.24385476      2.22817662
H       1.84890941      1.26060898      2.12941249
H       0.69842280      2.27296385      4.03154225
H      -0.30884076      0.90905931      4.23450679
H       1.70421093     -0.49746923      4.85360248
H       2.70385546      0.93152634      4.56547491
H       3.49607134      0.19351309      8.76429019
H       1.76730234      0.36041121      9.04483894
H       2.85956137      1.74407593      8.71589001
23
Frame 145  Energy = -425.8872636425 Hartree
C       0.08592917      1.09746960      0.12330951
C      -0.13043910      1.45451203      1.58100924
C       0.92163599      0.86048017      2.46397545
C       0.65394853      1.19077428      3.89935642
C       1.69607923      0.59932621      4.85423494
C       1.59765480      0.94114067      6.31456997
O       0.72761463      1.57800811      6.83702947
O       2.56022304      0.43651026      7.08802288
C       2.64622520      0.70574523      8.50059153
H      -0.58238983      1.71072458     -0.51215194
H       1.11315979      1.27648898     -0.12554896
H      -0.07398358      0.05065492     -0.03042485
H      -1.09658103      1.18012745      1.88552634
H      -0.09778747      2.58661833      1.69794559
H       1.04968844     -0.24127583      2.23439463
H       1.85215971      1.26223965      2.11525008
H       0.69531607      2.26916890      4.03376954
H      -0.30972150      0.90285537      4.24056927
H       1.69468683     -0.49647177      4.85761880
H       2.70102355      0.93383623      4.57071545
H       3.51449028      0.19132428      8.77314199
H       1.76577478      0.35825250      9.03670494
H       2.86706712      1.73978367      8.71642859
23
Frame 150  Energy = -425.8869856482 Hartree
C       0.08572977      1.09831081      0.12032710
C      -0.12728869      1.45725605      1.58016231
C       0.92058220      0.86162501      2.46476081
C       0.65266815      1.19069178      3.89784592
C       1.69492937      0.59747296      4.85262286
C       1.59587067      0.94069822      6.31262810
O       0.72642756      1.57664723      6.84022994
O       2.56093747      0.43584916      7.09037169
C       2.64788473      0.70623353      8.49917124
H      -0.57482775      1.71427595     -0.51082646
H       1.12039335      1.27206174     -0.11792217
H      -0.07396714      0.04496625     -0.03280615
H      -1.10584941      1.17615500      1.88295542
H      -0.10116450      2.58195399      1.70033668
H       1.05332230     -0.23656526      2.24138834
H       1.85763289      1.26492438      2.10143024
H       0.69184057      2.26552036      4.03572546
H      -0.31260165      0.89556112      4.24669795
H       1.68560869     -0.49549262      4.86053918
H       2.69856643      0.93536036      4.57579464
H       3.53566746      0.18674539      8.78366129
H       1.76422957      0.35610554      9.02841345
H       2.87363826      1.73664835      8.71627563
23
Frame 155  Energy = -425.8869343414 Hartree
C       0.08537181      1.09927150      0.11744229
C      -0.12408226      1.46026546      1.57923468
C       0.91948986      0.86265809      2.46547052
C       0.65163846      1.19063399      3.89656984
C       1.69390667      0.59555747      4.85106664
C       1.59393564      0.94035735      6.31104888
O       0.72506423      1.57536306      6.84333629
O       2.56181263      0.43507778      7.09257853
C       2.64949840      0.70673177      8.49765033
H      -0.56654638      1.71687350     -0.50921571
H       1.12865954      1.26848075     -0.11123177
H      -0.07452468      0.03847614     -0.03562268
H      -1.11723420      1.17107085      1.88108124
H      -0.10457751      2.57464314      1.70240413
H       1.05598002     -0.22958454      2.24971409
H       1.86471242      1.26832073      2.08840273
H       0.68824399      2.26249288      4.03758103
H      -0.31706859      0.88731828      4.25300417
H       1.67677460     -0.49445942      4.86242699
H       2.69617383      0.93620797      4.58043854
H       3.55761368      0.18045165      8.79524897
H       1.76276078      0.35424384      9.02041056
H       2.87917850      1.73471431      8.71572346
23
Frame 160  Energy = -425.8868229121 Hartree
C       0.08499853      1.10029438      0.11455834
C      -0.12095965      1.46351485      1.57816162
C       0.91847487      0.86351277      2.46602377
C       0.65085867      1.19057419      3.89555882
C       1.69310813      0.59363345      4.84959729
C       1.59186664      0.94015474      6.30971033
O       0.72354190      1.57423933      6.84629907
O       2.56275650      0.43416295      7.09471873
C       2.65126027      0.70719559      8.49606637
H      -0.55734873      1.71859594     -0.50766412
H       1.13781485      1.26562780     -0.10545990
H      -0.07550386      0.03175716     -0.03890359
H      -1.12915967      1.16570866      1.87944441
H      -0.10768641      2.56530264      1.70404712
H       1.05732455     -0.22127297      2.25903711
H       1.87246119      1.27195547      2.07688193
H       0.68475896      2.26018149      4.03954762
H      -0.32295969      0.87852542      4.25897279
H       1.66804793     -0.49352405      4.86278896
H       2.69389344      0.93651182      4.58460539
H       3.57872963      0.17358494      8.80731605
H       1.76161854      0.35245802      9.01277407
H       2.88379866      1.73417985      8.71460545
23
Frame 165  Energy = -425.8866985172 Hartree
C       0.08469134      1.10128602      0.11176345
C      -0.11813075      1.46687198      1.57702351
C       0.91762230      0.86415782      2.46638432
C       0.65016166      1.19039516      3.89486337
C       1.69246203      0.59162802      4.84834097
C       1.58971544      0.93998180      6.30869555
O       0.72188403      1.57319244      6.84929108
O       2.56377703      0.43311938      7.09666953
C       2.65322775      0.70744544      8.49449067
H      -0.54799228      1.71957258     -0.50678732
H       1.14730661      1.26322814     -0.10042304
H      -0.07683520      0.02541283     -0.04293809
H      -1.14079567      1.16022101      1.87828109
H      -0.11034065      2.55490740      1.70518440
H       1.05731652     -0.21207007      2.26907543
H       1.88019114      1.27555598      2.06681314
H       0.68110064      2.25882207      4.04099071
H      -0.32953764      0.86933670      4.26419261
H       1.66013270     -0.49310847      4.86170127
H       2.69193836      0.93594266      4.58801830
H       3.59760623      0.16687107      8.81919950
H       1.76085841      0.35089367      9.00544503
H       2.88724241      1.73517711      8.71313907
23
Frame 170  Energy = -425.8869020298 Hartree
C       0.08453257      1.10222468      0.10911881
C      -0.11557722      1.47028650      1.57579331
C       0.91696080      0.86471239      2.46660712
C       0.64955295      1.19006768      3.89443973
C       1.69197749      0.58954781      4.84724819
C       1.58738948      0.93992649      6.30809035
O       0.72009029      1.57232303      6.85221145
O       2.56492815      0.43197631      7.09838562
C       2.65541538      0.70747121      8.49282311
H      -0.53882954      1.72025557     -0.50714133
H       1.15612626      1.26104212     -0.09654301
H      -0.07844396      0.01991505     -0.04721374
H      -1.15080970      1.15460124      1.87705698
H      -0.11257928      2.54460550      1.70575748
H       1.05605906     -0.20276823      2.27973667
H       1.88723280      1.27919049      2.05882197
H       0.67722078      2.25857296      4.04229309
H      -0.33594199      0.85987945      4.26840603
H       1.65270717     -0.49315835      4.85961754
H       2.69025850      0.93443788      4.59045152
H       3.61300008      0.16102617      8.83024565
H       1.76043793      0.34984866      8.99843535
H       2.88944714      1.73761857      8.71158091
23
Frame 175  Energy = -425.8866663941 Hartree
C       0.08464481      1.10311983      0.10666201
C      -0.11340953      1.47353612      1.57451406
C       0.91647233      0.86522167      2.46667118
C       0.64900533      1.18955835      3.89420417
C       1.69154085      0.58745310      4.84630001
C       1.58479534      0.94002923      6.30794675
O       0.71824904      1.57159861      6.85503506
O       2.56627327      0.43072109      7.09988772
C       2.65785544      0.70735515      8.49101256
H      -0.52999094      1.72078347     -0.50880053
H       1.16365315      1.25946709     -0.09378914
H      -0.08070091      0.01568198     -0.05166212
H      -1.15886169      1.14947683      1.87567688
H      -0.11447830      2.53529503      1.70623568
H       1.05362017     -0.19390957      2.29094328
H       1.89303940      1.28238499      2.05288165
H       0.67288314      2.25949119      4.04316330
H      -0.34170271      0.85052875      4.27134346
H       1.64599612     -0.49372464      4.85641297
H       2.68949301      0.93204676      4.59195307
H       3.62407023      0.15613156      8.83999487
H       1.76071660      0.34899244      8.99169744
H       2.89052794      1.74130878      8.70961197
23
Frame 180  Energy = -425.8867653540 Hartree
C       0.08502790      1.10387964      0.10440728
C      -0.11169819      1.47654237      1.57321095
C       0.91620244      0.86579152      2.46657496
C       0.64848885      1.18894293      3.89430976
C       1.69115527      0.58538835      4.84546049
C       1.58214225      0.94012782      6.30832984
O       0.71633271      1.57096214      6.85780920
O       2.56778883      0.42937295      7.10124312
C       2.66073416      0.70706465      8.48919217
H      -0.52170022      1.72136478     -0.51224267
H       1.17009505      1.25814808     -0.09173783
H      -0.08346148      0.01324972     -0.05592371
H      -1.16447168      1.14499439      1.87379079
H      -0.11599512      2.52788571      1.70646833
H       1.05013472     -0.18616622      2.30234002
H       1.89670460      1.28521655      2.04947201
H       0.66812161      2.26116909      4.04380014
H      -0.34605288      0.84184122      4.27253216
H       1.64011981     -0.49488130      4.85217588
H       2.68957640      0.92875184      4.59263715
H       3.63003974      0.15232031      8.84821953
H       1.76144296      0.34848133      8.98527410
H       2.89035608      1.74573296      8.70701132
23
Frame 185  Energy = -425.8868890948 Hartree
C       0.08573977      1.10437439      0.10247324
C      -0.11048396      1.47923734      1.57190368
C       0.91611134      0.86661871      2.46632452
C       0.64791834      1.18818550      3.89480494
C       1.69075892      0.58334484      4.84469972
C       1.57940603      0.94033274      6.30912938
O       0.71428967      1.57047040      6.86048815
O       2.56940373      0.42800457      7.10229919
C       2.66385947      0.70655578      8.48742984
H      -0.51423261      1.72237299     -0.51760382
H       1.17485410      1.25722551     -0.09048709
H      -0.08668630      0.01264348     -0.06004464
H      -1.16707012      1.14141493      1.87143585
H      -0.11730643      2.52309610      1.70635899
H       1.04628227     -0.18004246      2.31368927
H       1.89813348      1.28722585      2.04857262
H       0.66303036      2.26340382      4.04433045
H      -0.34884323      0.83339505      4.27205981
H       1.63494305     -0.49667155      4.84689974
H       2.68995985      0.92447669      4.59259678
H       3.63093523      0.15029876      8.85493458
H       1.76271190      0.34835393      8.97970989
H       2.88876270      1.75061129      8.70378989
23
Frame 190  Energy = -425.8869398342 Hartree
C       0.08679746      1.10459492      0.10081303
C      -0.10976238      1.48157273      1.57053727
C       0.91632632      0.86760078      2.46586599
C       0.64721320      1.18725421      3.89567856
C       1.69035802      0.58136865      4.84397426
C       1.57663729      0.94053230      6.31028220
O       0.71214762      1.57001569      6.86311022
O       2.57124919      0.42659054      7.10300981
C       2.66736725      0.70578291      8.48575898
H      -0.50779148      1.72423110     -0.52483448
H       1.17729041      1.25625340     -0.09039284
H      -0.09017153      0.01440678     -0.06405496
H      -1.16653252      1.13902370      1.86865603
H      -0.11845715      2.52172296      1.70612212
H       1.04189736     -0.17639302      2.32455484
H       1.89737911      1.28814779      2.05004292
H       0.65777093      2.26608656      4.04474583
H      -0.34973396      0.82554198      4.26991906
H       1.63037941     -0.49928266      4.84065589
H       2.69080653      0.91933091      4.59146516
H       3.62691411      0.15001943      8.86023597
H       1.76429360      0.34832346      8.97487374
H       2.88590825      1.75576836      8.70029019
23
Frame 195  Energy = -425.8870341120 Hartree
C       0.08816819      1.10466736      0.09933626
C      -0.10948775      1.48350129      1.56905056
C       0.91682269      0.86878136      2.46526878
C       0.64647436      1.18618511      3.89700117
C       1.69000070      0.57932828      4.84331846
C       1.57378178      0.94080700      6.31188964
O       0.70996075      1.56953172      6.86572983
O       2.57329387      0.42514435      7.10335820
C       2.67123168      0.70499038      8.48428026
H      -0.50208210      1.72677144     -0.53339206
H       1.17783350      1.25534971     -0.09126835
H      -0.09408908      0.01870704     -0.06812306
H      -1.16279665      1.13763734      1.86539700
H      -0.11970023      2.52371816      1.70650354
H       1.03718161     -0.17552458      2.33466035
H       1.89467518      1.28823265      2.05388493
H       0.65211507      2.26909934      4.04535435
H      -0.34871031      0.81868590      4.26572604
H       1.62654761     -0.50253842      4.83334872
H       2.69214485      0.91346747      4.58944386
H       3.61805393      0.15137657      8.86392334
H       1.76621604      0.34869817      8.97093903
H       2.88207042      1.76075900      8.69661881
23
Frame 200  Energy = -425.8876083988 Hartree
C       0.08983547      1.10460342      0.09806137
C      -0.10960582      1.48494342      1.56755192
C       0.91750721      0.87021189      2.46451392
C       0.64567132      1.18501182      3.89871415
C       1.68962773      0.57739271      4.84290258
C       1.57093192      0.94113433      6.31387874
O       0.70762315      1.56911607      6.86821674
O       2.57550884      0.42359323      7.10341197
C       2.67538122      0.70403832      8.48294076
H      -0.49711739      1.72923753     -0.54349519
H       1.17642071      1.25436790     -0.09325374
H      -0.09814054      0.02484333     -0.07186066
H      -1.15621972      1.13714325      1.86133118
H      -0.12059263      2.52915468      1.70750117
H       1.03244341     -0.17811281      2.34405157
H       1.89025839      1.28734741      2.06002153
H       0.64633312      2.27216374      4.04611204
H      -0.34577157      0.81245690      4.25980938
H       1.62361808     -0.50615146      4.82568216
H       2.69430067      0.90705680      4.58640464
H       3.60522556      0.15421051      8.86588130
H       1.76883485      0.34966017      8.96804404
H       2.87742905      1.76520079      8.69233784
23
Frame 205  Energy = -425.8877645068 Hartree
C       0.09186478      1.10451396      0.09700321
C      -0.11011412      1.48589963      1.56605196
C       0.91842833      0.87188726      2.46360645
C       0.64479173      1.18394897      3.90087559
C       1.68924923      0.57549372      4.84263956
C       1.56811369      0.94153736      6.31633619
O       0.70519684      1.56879935      6.87057352
O       2.57779662      0.42204685      7.10311511
C       2.67971643      0.70291946      8.48171117
H      -0.49254952      1.73201780     -0.55499398
H       1.17325727      1.25353171     -0.09620155
H      -0.10248112      0.03224632     -0.07517625
H      -1.14702521      1.13785342      1.85686886
H      -0.12128641      2.53782527      1.70820818
H       1.02780458     -0.18384065      2.35244327
H       1.88418984      1.28561728      2.06864415
H       0.64027663      2.27469722      4.04691190
H      -0.34122264      0.80718448      4.25228167
H       1.62180247     -0.50985723      4.81765019
H       2.69684536      0.90010896      4.58264401
H       3.58897965      0.15805252      8.86643246
H       1.77182373      0.35111495      8.96590281
H       2.87176642      1.76906848      8.68768578
23
Frame 210  Energy = -425.8875689198 Hartree
C       0.09417418      1.10440561      0.09606444
C      -0.11106699      1.48656523      1.56450873
C       0.91938944      0.87376990      2.46259154
C       0.64388496      1.18303926      3.90337240
C       1.68884918      0.57368428      4.84252904
C       1.56539073      0.94200600      6.31931679
O       0.70272890      1.56854512      6.87282857
O       2.58012560      0.42043104      7.10248556
C       2.68426513      0.70179926      8.48061519
H      -0.48843529      1.73494438     -0.56706282
H       1.16850933      1.25301619     -0.10011348
H      -0.10716607      0.04056916     -0.07817446
H      -1.13580775      1.13962207      1.85231883
H      -0.12173230      2.54924769      1.70861451
H       1.02300056     -0.19206812      2.35972802
H       1.87721959      1.28315634      2.07883573
H       0.63390017      2.27651281      4.04738463
H      -0.33565161      0.80307316      4.24340216
H       1.62096007     -0.51377883      4.80935412
H       2.69963326      0.89265380      4.57807021
H       3.56990445      0.16277374      8.86573016
H       1.77516491      0.35304419      8.96457768
H       2.86500606      1.77205039      8.68267034
23
Frame 215  Energy = -425.8873281060 Hartree
C       0.09667288      1.10430189      0.09529083
C      -0.11239637      1.48698155      1.56282989
C       0.92046538      0.87567117      2.46149589
C       0.64304403      1.18219260      3.90618690
C       1.68839559      0.57192367      4.84260792
C       1.56286701      0.94253610      6.32281030
O       0.70013751      1.56836817      6.87508229
O       2.58251772      0.41877593      7.10151369
C       2.68878978      0.70078228      8.47961131
H      -0.48444905      1.73742498     -0.57931141
H       1.16280018      1.25245091     -0.10471048
H      -0.11187433      0.04958883     -0.08112042
H      -1.12288225      1.14198800      1.84757651
H      -0.12189419      2.56217447      1.70845504
H       1.01780122     -0.20194350      2.36655215
H       1.87012989      1.28019991      2.09061104
H       0.62746195      2.27762532      4.04750421
H      -0.32922358      0.79986427      4.23337820
H       1.62066546     -0.51760628      4.80058722
H       2.70244062      0.88481929      4.57292228
H       3.54941968      0.16787675      8.86441279
H       1.77902236      0.35535593      8.96408914
H       2.85718892      1.77406545      8.67725867
23
Frame 220  Energy = -425.8871158299 Hartree
C       0.09938672      1.10440711      0.09456833
C      -0.11400173      1.48721197      1.56106024
C       0.92152806      0.87767996      2.46052089
C       0.64217686      1.18142602      3.90928710
C       1.68800777      0.57021859      4.84286598
C       1.56042915      0.94301127      6.32662272
O       0.69749811      1.56823182      6.87733198
O       2.58497962      0.41705798      7.10020185
C       2.69320415      0.70001535      8.47855745
H      -0.48062859      1.73938927     -0.59138099
H       1.15672538      1.25229968     -0.11031907
H      -0.11628573      0.05913551     -0.08421696
H      -1.10916911      1.14458476      1.84276366
H      -0.12167634      2.57545177      1.70793782
H       1.01209303     -0.21241105      2.37250921
H       1.86336124      1.27765341      2.10338516
H       0.62099751      2.27790756      4.04735826
H      -0.32268492      0.79697755      4.22274942
H       1.62084586     -0.52106756      4.79139426
H       2.70493152      0.87627868      4.56776613
H       3.52880969      0.17226108      8.86286723
H       1.78337020      0.35798445      8.96441278
H       2.84863688      1.77517922      8.67126032
23
Frame 225  Energy = -425.8865530303 Hartree
C       0.10213480      1.10464416      0.09379640
C      -0.11571233      1.48743613      1.55907724
C       0.92258747      0.87963496      2.45949565
C       0.64139251      1.18078648      3.91256209
C       1.68771680      0.56857439      4.84319460
C       1.55809350      0.94340469      6.33073754
O       0.69483923      1.56813138      6.87954055
O       2.58753431      0.41523491      7.09855224
C       2.69731329      0.69954178      8.47746502
H      -0.47642285      1.74087948     -0.60298810
H       1.15090773      1.25248080     -0.11722570
H      -0.12111488      0.06856161     -0.08741805
H      -1.09562448      1.14706614      1.83850563
H      -0.12109320      2.58824597      1.70678311
H       1.00570010     -0.22280812      2.37760705
H       1.85743199      1.27551634      2.11672654
H       0.61435817      2.27696825      4.04704111
H      -0.31648829      0.79398272      4.21171210
H       1.62162897     -0.52449028      4.78200779
H       2.70697523      0.86724427      4.56274791
H       3.51000881      0.17490387      8.86164724
H       1.78768924      0.36115730      8.96528572
H       2.83956091      1.77545459      8.66459135
23
Frame 230  Energy = -425.8864991658 Hartree
C       0.10497071      1.10510240      0.09286082
C      -0.11739208      1.48765946      1.55693479
C       0.92354940      0.88144687      2.45855257
C       0.64068927      1.18022969      3.91593287
C       1.68746732      0.56704793      4.84362891
C       1.55597889      0.94369407      6.33511158
O       0.69216713      1.56810350      6.88165492
O       2.59019557      0.41339854      7.09661907
C       2.70109365      0.69938044      8.47626506
H      -0.47152294      1.74105468     -0.61385861
H       1.14595473      1.25288719     -0.12519209
H      -0.12653521      0.07687015     -0.09140651
H      -1.08337894      1.14873600      1.83520381
H      -0.12015376      2.59986426      1.70476602
H       0.99879475     -0.23222563      2.38189700
H       1.85345911      1.27370601      2.13047046
H       0.60755120      2.27494118      4.04661316
H      -0.31149508      0.79078551      4.20071863
H       1.62295985     -0.52728725      4.77287820
H       2.70835671      0.85784686      4.55778737
H       3.49442680      0.17533913      8.86127653
H       1.79206535      0.36447382      8.96679076
H       2.83012609      1.77501004      8.65780905
23
Frame 235  Energy = -425.8864675369 Hartree
C       0.10777363      1.10585179      0.09186357
C      -0.11903524      1.48797006      1.55469284
C       0.92429301      0.88309410      2.45772430
C       0.64007435      1.17982386      3.91939275
C       1.68731670      0.56557054      4.84411107
C       1.55413181      0.94379265      6.33974366
O       0.68955543      1.56814096      6.88362388
O       2.59290384      0.41151363      7.09436467
C       2.70433378      0.69951830      8.47500295
H      -0.46618359      1.74018741     -0.62321526
H       1.14204758      1.25343773     -0.13429247
H      -0.13250426      0.08371005     -0.09591638
H      -1.07352867      1.14972610      1.83304491
H      -0.11880726      2.60923207      1.70204983
H       0.99159910     -0.23997515      2.38529133
H       1.85212591      1.27251716      2.14450128
H       0.60104337      2.27208725      4.04653717
H      -0.30792647      0.78714877      4.19017674
H       1.62479599     -0.52939718      4.76412814
H       2.70903079      0.84826819      4.55287943
H       3.48354252      0.17312519      8.86224004
H       1.79650230      0.36799586      8.96870441
H       2.82086910      1.77417570      8.65066141
23
Frame 240  Energy = -425.8866785328 Hartree
C       0.11050067      1.10678880      0.09086795
C      -0.12056268      1.48858086      1.55232718
C       0.92482159      0.88435395      2.45708190
C       0.63964877      1.17960782      3.92277188
C       1.68724005      0.56409362      4.84473345
C       1.55244059      0.94365077      6.34453111
O       0.68685290      1.56830513      6.88549705
O       2.59563634      0.40959473      7.09178157
C       2.70706705      0.69998967      8.47352081
H      -0.46006055      1.73826942     -0.63097569
H       1.13961686      1.25409749     -0.14425455
H      -0.13871750      0.08891379     -0.10056225
H      -1.06725907      1.15007076      1.83213365
H      -0.11759401      2.61578990      1.69859744
H       0.98424386     -0.24552124      2.38768267
H       1.85419182      1.27229534      2.15796338
H       0.59477442      2.26839925      4.04682910
H      -0.30657869      0.78284033      4.18014904
H       1.62688505     -0.53092518      4.75580031
H       2.70892982      0.83853232      4.54804826
H       3.47812033      0.16780029      8.86515871
H       1.80064309      0.37173916      8.97109023
H       2.81162986      1.77282820      8.64311623
23
Frame 245  Energy = -425.8870727559 Hartree
C       0.11315043      1.10796593      0.08981438
C      -0.12184775      1.48950013      1.54977474
C       0.92508482      0.88521703      2.45655703
C       0.63949014      1.17960116      3.92608151
C       1.68719429      0.56270048      4.84556967
C       1.55088673      0.94329050      6.34947686
O       0.68412624      1.56854365      6.88726309
O       2.59833045      0.40768252      7.08892204
C       2.70915925      0.70078515      8.47188249
H      -0.45332956      1.73508214     -0.63677282
H       1.13908713      1.25461807     -0.15509233
H      -0.14547264      0.09248910     -0.10505071
H      -1.06482557      1.14964319      1.83237205
H      -0.11659001      2.61918864      1.69411543
H       0.97667940     -0.24829363      2.38931438
H       1.85981078      1.27299850      2.17069537
H       0.58813231      2.26398504      4.04774349
H      -0.30765592      0.77814707      4.17098904
H       1.62903034     -0.53171025      4.74829585
H       2.70841526      0.82889175      4.54322970
H       3.47797631      0.15896627      8.87023089
H       1.80424789      0.37549160      8.97391522
H       2.80244019      1.77156289      8.63536684
23
Frame 250  Energy = -425.8872922971 Hartree
C       0.11575357      1.10941132      0.08864798
C      -0.12285034      1.49071978      1.54705885
C       0.92512277      0.88576048      2.45616162
C       0.63958709      1.17974981      3.92933474
C       1.68706794      0.56128197      4.84656908
C       1.54962223      0.94284268      6.35438314
O       0.68140350      1.56888344      6.88901272
O       2.60098506      0.40579272      7.08587833
C       2.71064534      0.70193491      8.47016689
H      -0.44616475      1.73103139     -0.64086898
H       1.14101417      1.25516746     -0.16656324
H      -0.15263643      0.09435588     -0.10979081
H      -1.06618646      1.14832409      1.83402008
H      -0.11572177      2.61917196      1.68877482
H       0.96885749     -0.24820652      2.38993857
H       1.86867610      1.27472072      2.18244978
H       0.58167127      2.25946122      4.04922998
H      -0.31131935      0.77306230      4.16258670
H       1.63119894     -0.53214316      4.74160065
H       2.70726179      0.81937858      4.53876040
H       3.48314110      0.14766622      8.87717798
H       1.80758697      0.37944890      8.97710843
H       2.79348529      1.77047126      8.62806856
23
Frame 255  Energy = -425.8873454260 Hartree
C       0.11824441      1.11104880      0.08745868
C      -0.12362513      1.49213332      1.54414569
C       0.92496460      0.88603196      2.45592933
C       0.63987940      1.18006576      3.93239164
C       1.68695586      0.55975069      4.84775734
C       1.54856090      0.94217164      6.35925375
O       0.67867521      1.56922899      6.89075761
O       2.60362637      0.40394262      7.08265652
C       2.71168995      0.70330034      8.46838943
H      -0.43867335      1.72656590     -0.64315122
H       1.14500981      1.25567814     -0.17819771
H      -0.15981014      0.09482628     -0.11476528
H      -1.07183846      1.14577195      1.83666927
H      -0.11467891      2.61623595      1.68288752
H       0.96095600     -0.24526942      2.38951548
H       1.88037468      1.27708735      2.19335762
H       0.57548504      2.25496362      4.05157369
H      -0.31699708      0.76730535      4.15504233
H       1.63336039     -0.53188022      4.73614664
H       2.70605931      0.81007954      4.53468066
H       3.49281035      0.13468021      8.88518924
H       1.81045703      0.38353226      8.98051075
H       2.78529497      1.76955000      8.62097704
23
Frame 260  Energy = -425.8871329135 Hartree
C       0.12064960      1.11287853      0.08618962
C      -0.12416829      1.49373802      1.54109062
C       0.92467005      0.88606325      2.45589538
C       0.64034074      1.18056659      3.93530734
C       1.68669048      0.55813537      4.84912511
C       1.54777570      0.94127045      6.36426289
O       0.67585579      1.56963357      6.89247826
O       2.60621870      0.40220944      7.07928433
C       2.71240655      0.70471399      8.46658615
H      -0.43105361      1.72140131     -0.64431903
H       1.15088144      1.25599326     -0.18995689
H      -0.16704336      0.09413954     -0.11985595
H      -1.08074929      1.14221166      1.84005898
H      -0.11337373      2.61075654      1.67669584
H       0.95314969     -0.23953937      2.38759461
H       1.89433353      1.27968476      2.20377760
H       0.56986334      2.25036769      4.05460173
H      -0.32460684      0.76118278      4.14835943
H       1.63531817     -0.53095069      4.73139219
H       2.70454784      0.80127744      4.53098107
H       3.50570690      0.12084010      8.89348195
H       1.81277732      0.38764412      8.98426717
H       2.77806665      1.76928938      8.61433779
23
Frame 265  Energy = -425.8897191953 Hartree
C       0.12292838      1.11480226      0.08485070
C      -0.12458319      1.49550382      1.53804309
C       0.92427320      0.88591653      2.45602113
C       0.64079965      1.18109319      3.93803671
C       1.68634681      0.55648824      4.85067890
C       1.54731075      0.94015873      6.36930634
O       0.67293768      1.57007007      6.89416072
O       2.60875037      0.40050113      7.07580343
C       2.71294317      0.70602724      8.46473168
H      -0.42391391      1.71575446     -0.64435255
H       1.15816989      1.25560552     -0.20187088
H      -0.17414841      0.09248524     -0.12462896
H      -1.09199835      1.13810774      1.84426538
H      -0.11217664      2.60264925      1.67015511
H       0.94523750     -0.23146062      2.38467281
H       1.90932277      1.28223164      2.21332253
H       0.56474208      2.24639400      4.05837457
H      -0.33345021      0.75501442      4.14263473
H       1.63755765     -0.52971496      4.72727131
H       2.70274991      0.79290808      4.52798382
H       3.52028996      0.10734495      8.90118945
H       1.81418140      0.39137784      8.98841635
H       2.77208369      1.76957331      8.60811303
23
Frame 270  Energy = -425.8893364251 Hartree
C       0.12512921      1.11679726      0.08349056
C      -0.12484810      1.49742565      1.53499172
C       0.92390099      0.88569227      2.45624774
C       0.64128922      1.18155203      3.94059283
C       1.68603579      0.55497638      4.85238448
C       1.54710546      0.93888271      6.37424076
O       0.67001279      1.57041718      6.89578840
O       2.61113671      0.39886750      7.07229524
C       2.71337539      0.70720337      8.46293459
H      -0.41705177      1.71034426     -0.64354733
H       1.16643067      1.25500167     -0.21323659
H      -0.18079948      0.09057895     -0.12880273
H      -1.10463829      1.13369463      1.84902467
H      -0.11125385      2.59264651      1.66346087
H       0.93741672     -0.22166124      2.38044048
H       1.92403206      1.28424630      2.22247057
H       0.55973933      2.24352909      4.06313682
H      -0.34261964      0.74885730      4.13788700
H       1.63989326     -0.52856229      4.72446407
H       2.70129743      0.78522905      4.52540983
H       3.53502657      0.09535502      8.90775328
H       1.81497142      0.39467297      8.99272763
H       2.76782135      1.77053044      8.60224804
23
Frame 275  Energy = -425.8890552582 Hartree
C       0.12732534      1.11886834      0.08196653
C      -0.12507235      1.49928617      1.53195141
C       0.92358143      0.88550797      2.45667859
C       0.64174663      1.18194096      3.94305587
C       1.68570430      0.55354189      4.85428235
C       1.54718639      0.93738549      6.37912880
O       0.66715875      1.57067675      6.89740779
O       2.61340705      0.39733522      7.06875931
C       2.71375200      0.70809750      8.46110952
H      -0.41109001      1.70556452     -0.64215976
H       1.17479633      1.25413588     -0.22423111
H      -0.18693167      0.08869098     -0.13195151
H      -1.11731672      1.13001610      1.85360380
H      -0.11011230      2.58177351      1.65656167
H       0.93003757     -0.21090546      2.37515600
H       1.93782551      1.28563556      2.23146667
H       0.55472992      2.24212537      4.06893369
H      -0.35123156      0.74316376      4.13394356
H       1.64179359     -0.52796431      4.72298185
H       2.69973398      0.77835374      4.52344622
H       3.54874510      0.08565159      8.91223001
H       1.81518663      0.39790706      8.99725230
H       2.76507075      1.77229149      8.59651517
23
Frame 280  Energy = -425.8887155254 Hartree
C       0.12952361      1.12082974      0.08025997
C      -0.12524244      1.50098477      1.52888666
C       0.92339365      0.88545373      2.45736792
C       0.64225929      1.18228724      3.94535509
C       1.68538035      0.55226053      4.85645824
C       1.54752257      0.93572821      6.38398420
O       0.66432566      1.57078634      6.89897914
O       2.61552270      0.39588967      7.06511041
C       2.71415187      0.70880679      8.45943824
H      -0.40596228      1.70200623     -0.64078551
H       1.18292332      1.25280190     -0.23465203
H      -0.19215835      0.08727332     -0.13436949
H      -1.12929270      1.12691892      1.85756399
H      -0.10913153      2.57114125      1.64921875
H       0.92318704     -0.19979729      2.36867994
H       1.95051306      1.28605596      2.24031844
H       0.55006740      2.24194861      4.07563613
H      -0.35913981      0.73798694      4.13058405
H       1.64336380     -0.52772207      4.72263486
H       2.69801110      0.77214822      4.52229084
H       3.56054306      0.07879585      8.91451268
H       1.81512050      0.40110305      9.00131367
H       2.76367854      1.77487097      8.59106089
23
Frame 285  Energy = -425.8886639644 Hartree
C       0.13182989      1.12266241      0.07854254
C      -0.12551281      1.50248863      1.52595124
C       0.92332398      0.88556080      2.45832595
C       0.64257638      1.18241246      3.94747541
C       1.68498054      0.55107313      4.85897745
C       1.54811503      0.93383571      6.38874092
O       0.66164750      1.57076945      6.90046319
O       2.61759490      0.39450895      7.06139346
C       2.71453696      0.70925818      8.45802421
H      -0.40210386      1.70005771     -0.63981608
H       1.19016865      1.25127342     -0.24360705
H      -0.19602592      0.08656713     -0.13625276
H      -1.13966101      1.12468521      1.86068270
H      -0.10838305      2.56142330      1.64169941
H       0.91645783     -0.18933193      2.36121381
H       1.96129389      1.28539539      2.24898348
H       0.54582022      2.24302918      4.08300326
H      -0.36546511      0.73349085      4.12798261
H       1.64466761     -0.52777583      4.72385107
H       2.69630437      0.76675211      4.52183090
H       3.56999384      0.07535418      8.91462211
H       1.81466728      0.40391516      9.00475553
H       2.76377673      1.77825293      8.58632012
23
Frame 290  Energy = -425.8883324332 Hartree
C       0.13428232      1.12440484      0.07668666
C      -0.12591144      1.50364461      1.52306576
C       0.92333390      0.88593355      2.45948805
C       0.64268586      1.18237250      3.94938506
C       1.68451234      0.54983087      4.86172852
C       1.54879721      0.93172342      6.39328367
O       0.65915535      1.57059530      6.90192753
O       2.61952263      0.39318569      7.05762940
C       2.71502849      0.70940012      8.45678186
H      -0.39985555      1.69982239     -0.63968957
H       1.19594642      1.24934540     -0.25126719
H      -0.19864874      0.08646604     -0.13756355
H      -1.14782672      1.12358143      1.86258910
H      -0.10781496      2.55387623      1.63442908
H       0.90988871     -0.17997721      2.35254189
H       1.96937640      1.28313557      2.25739695
H       0.54212241      2.24528198      4.09106584
H      -0.37015416      0.72967066      4.12654062
H       1.64570198     -0.52851361      4.72651331
H       2.69483479      0.76270166      4.52200117
H       3.57670382      0.07515969      8.91235482
H       1.81413083      0.40685406      9.00736873
H       2.76540906      1.78221972      8.58178784
23
Frame 295  Energy = -425.8885865418 Hartree
C       0.13690025      1.12602942      0.07474532
C      -0.12641004      1.50441842      1.52019621
C       0.92350768      0.88652435      2.46079364
C       0.64266113      1.18207406      3.95115688
C       1.68395166      0.54867817      4.86452076
C       1.54957274      0.92941737      6.39755102
O       0.65682969      1.57037093      6.90331426
O       2.62130163      0.39187067      7.05389788
C       2.71561086      0.70919878      8.45569711
H      -0.39956098      1.70144314     -0.64022999
H       1.20026895      1.24640911     -0.25742298
H      -0.19985995      0.08749223     -0.13837127
H      -1.15342605      1.12349283      1.86322358
H      -0.10773302      2.54880713      1.62756842
H       0.90412186     -0.17218479      2.34279548
H       1.97426958      1.27921515      2.26555285
H       0.53873400      2.24855427      4.09992536
H      -0.37273853      0.72711788      4.12582784
H       1.64623875     -0.52999677      4.73069450
H       2.69368479      0.75992240      4.52279202
H       3.58024290      0.07840569      8.90719843
H       1.81399435      0.40965187      9.00920665
H       2.76887588      1.78640147      8.57753303
23
Frame 300  Energy = -425.8888343706 Hartree
C       0.13967422      1.12739734      0.07276406
C      -0.12696579      1.50472981      1.51744986
C       0.92379145      0.88744691      2.46224369
C       0.64234212      1.18156004      3.95273833
C       1.68337241      0.54753702      4.86746741
C       1.55042660      0.92700844      6.40151500
O       0.65472980      1.57016362      6.90469430
O       2.62287357      0.39055392      7.05023695
C       2.71630817      0.70867900      8.45480353
H      -0.40084700      1.70516429     -0.64123258
H       1.20272749      1.24268510     -0.26190150
H      -0.19963737      0.08947117     -0.13858393
H      -1.15602107      1.12528755      1.86218266
H      -0.10806142      2.54720583      1.62099097
H       0.89943747     -0.16678343      2.33238912
H       1.97609880      1.27396938      2.27331885
H       0.53593858      2.25257786      4.10969109
H      -0.37283366      0.72592517      4.12581320
H       1.64614309     -0.53220952      4.73617210
H       2.69294602      0.75848079      4.52421032
H       3.58037326      0.08530598      8.89966100
H       1.81422964      0.41232680      9.01032789
H       2.77395187      1.79036021      8.57389840
