23
Frame 5  Energy = -425.8819464121 Hartree
C       0.25692001      1.17467999      0.04450786
C      -0.06236690      1.54331509      1.50969219
C       0.88967161      0.90452800      2.55608311
C       0.54233058      1.16158611      4.00539367
C       1.61911014      0.46571839      4.85670539
C       1.55397728      0.83783271      6.40469377
O       0.67717463      1.45018134      6.98970484
O       2.63687491      0.38787129      6.98813759
C       2.78738925      0.70692788      8.39407861
H      -0.33213409      1.78920310     -0.58640941
H       1.33593925      1.25986452     -0.21030296
H       0.01348980      0.10664925     -0.12464374
H      -1.12484811      1.36233396      1.76931028
H       0.05780811      2.61643259      1.61215031
H       1.00240020     -0.17401317      2.25970326
H       1.94710045      1.25483046      2.44524039
H       0.54050799      2.20030319      4.25887868
H      -0.45849525      0.77376299      4.26910625
H       1.54163536     -0.62828118      4.76947821
H       2.59443843      0.76614783      4.47657258
H       3.81444535      0.25010222      8.66468820
H       1.92442960      0.37146183      8.93693365
H       2.96640507      1.77083132      8.48486159
23
Frame 10  Energy = -425.8821790942 Hartree
C       0.25823137      1.17619664      0.04575828
C      -0.06009687      1.54404696      1.51171407
C       0.88905955      0.90308809      2.55778796
C       0.54003534      1.16287562      4.00337252
C       1.61890472      0.46476636      4.85265953
C       1.55306541      0.83619078      6.40463266
O       0.67637931      1.44897315      6.99057366
O       2.63926094      0.38674086      6.98739826
C       2.78845200      0.70739234      8.39477137
H      -0.33438430      1.78768987     -0.57864364
H       1.34566972      1.26151766     -0.20282303
H       0.01892282      0.10455646     -0.11871551
H      -1.13623242      1.36567426      1.77110035
H       0.05733910      2.60593326      1.61055157
H       1.00105869     -0.16679896      2.25754904
H       1.95661283      1.25297702      2.44409883
H       0.53612910      2.20091169      4.26263101
H      -0.46322211      0.76960244      4.26967126
H       1.53389151     -0.62901766      4.77082959
H       2.59082195      0.76630085      4.46828520
H       3.82010508      0.25394240      8.66189119
H       1.92269899      0.36512001      8.94299542
H       2.97295947      1.77357745      8.48324098
23
Frame 15  Energy = -425.8825270118 Hartree
C       0.25975966      1.17738488      0.04734657
C      -0.05778298      1.54474759      1.51387030
C       0.88860226      0.90170948      2.55914052
C       0.53776065      1.16379363      4.00144281
C       1.61852575      0.46394504      4.84894492
C       1.55187585      0.83463268      6.40418971
O       0.67565827      1.44770098      6.99137562
O       2.64170239      0.38558245      6.98683778
C       2.78996849      0.70776474      8.39527302
H      -0.33786723      1.78726868     -0.57368943
H       1.35335673      1.26350100     -0.19491234
H       0.02431418      0.10383305     -0.11315541
H      -1.14482189      1.36844257      1.77201047
H       0.05689246      2.59732043      1.60929739
H       0.99880056     -0.15911985      2.25668759
H       1.96324844      1.25125581      2.44221746
H       0.53168526      2.20297287      4.26595102
H      -0.46684090      0.76587156      4.26917807
H       1.52637487     -0.62893505      4.77257714
H       2.58816036      0.76634627      4.46040353
H       3.82024798      0.25844244      8.65911059
H       1.92154926      0.35871328      8.94965753
H       2.97804092      1.77676365      8.48184062
23
Frame 20  Energy = -425.8848457364 Hartree
C       0.26147310      1.17829218      0.04920127
C      -0.05552313      1.54523886      1.51613918
C       0.88837758      0.90042438      2.56029544
C       0.53539997      1.16438488      3.99970561
C       1.61787543      0.46325818      4.84561245
C       1.55039523      0.83308178      6.40335625
O       0.67506440      1.44633801      6.99193595
O       2.64414578      0.38438250      6.98642759
C       2.79192164      0.70802692      8.39559221
H      -0.34241528      1.78802657     -0.57144261
H       1.35868713      1.26601303     -0.18666564
H       0.02957160      0.10480661     -0.10790776
H      -1.15083100      1.37100171      1.77216958
H       0.05622840      2.59128827      1.60832073
H       0.99543840     -0.15188938      2.25689341
H       1.96681564      1.24976399      2.43998821
H       0.52726861      2.20653411      4.26889126
H      -0.46893517      0.76278074      4.26754353
H       1.51937853     -0.62822484      4.77460620
H       2.58622910      0.76605470      4.45329416
H       3.81547987      0.26367157      8.65653973
H       1.92138118      0.35271390      8.95663666
H       2.98194964      1.77994792      8.48064676
23
Frame 25  Energy = -425.8846950035 Hartree
C       0.26340292      1.17902967      0.05129685
C      -0.05340653      1.54556794      1.51863417
C       0.88834164      0.89927922      2.56118967
C       0.53299128      1.16460146      3.99799091
C       1.61703086      0.46277932      4.84257943
C       1.54861697      0.83160385      6.40218269
O       0.67460655      1.44490367      6.99239761
O       2.64664869      0.38312422      6.98616419
C       2.79424594      0.70813339      8.39585138
H      -0.34788321      1.78951132     -0.57143230
H       1.36138640      1.26888029     -0.17794627
H       0.03476846      0.10736171     -0.10267797
H      -1.15352472      1.37298023      1.77177460
H       0.05583902      2.58832011      1.60816406
H       0.99123550     -0.14560506      2.25826088
H       1.96708518      1.24839915      2.43721313
H       0.52303125      2.21144356      4.27147131
H      -0.46968489      0.76019670      4.26479934
H       1.51302635     -0.62671057      4.77651731
H       2.58483056      0.76500632      4.44710932
H       3.80610004      0.26921760      8.65387437
H       1.92220499      0.34739585      8.96356569
H       2.98446005      1.78291417      8.47975733
23
Frame 30  Energy = -425.8886669863 Hartree
C       0.26552964      1.17960234      0.05361166
C      -0.05131868      1.54576428      1.52127479
C       0.88854192      0.89830855      2.56178655
C       0.53044997      1.16453382      3.99646504
C       1.61610285      0.46241519      4.83980086
C       1.54659851      0.83030863      6.40069139
O       0.67428612      1.44344279      6.99282835
O       2.64926196      0.38190747      6.98608982
C       2.79682837      0.70813248      8.39604466
H      -0.35404161      1.79133574     -0.57310488
H       1.36149717      1.27242779     -0.16878257
H       0.03974132      0.11157087     -0.09770679
H      -1.15269792      1.37429598      1.77076487
H       0.05571581      2.58888608      1.60881576
H       0.98632265     -0.14072989      2.26083501
H       1.96394971      1.24735521      2.43416202
H       0.51905136      2.21698047      4.27356360
H      -0.46892685      0.75774821      4.26100571
H       1.50727374     -0.62450831      4.77867872
H       2.58351610      0.76352674      4.44183498
H       3.79287006      0.27487044      8.65128292
H       1.92464710      0.34275285      8.97051091
H       2.98533691      1.78552524      8.47925563
23
Frame 35  Energy = -425.8885123675 Hartree
C       0.26782198      1.17998882      0.05616558
C      -0.04928592      1.54569863      1.52397084
C       0.88890940      0.89744789      2.56221141
C       0.52782498      1.16418993      3.99516652
C       1.61503239      0.46231068      4.83746041
C       1.54447899      0.82918185      6.39895592
O       0.67413039      1.44191924      6.99321852
O       2.65195632      0.38064683      6.98612161
C       2.79966548      0.70807965      8.39606997
H      -0.36028843      1.79339649     -0.57598945
H       1.35928592      1.27672336     -0.15953632
H       0.04445526      0.11701007     -0.09338626
H      -1.14832834      1.37526426      1.76854094
H       0.05606378      2.59317726      1.61006355
H       0.98079888     -0.13726511      2.26441243
H       1.95778551      1.24690254      2.43093328
H       0.51510501      2.22289837      4.27463741
H      -0.46710477      0.75577214      4.25651325
H       1.50191793     -0.62222636      4.78124803
H       2.58264245      0.76171183      4.43730617
H       3.77665929      0.28019638      8.64910480
H       1.92898695      0.33851686      8.97674456
H       2.98446312      1.78790136      8.47905367
23
Frame 40  Energy = -425.8887001265 Hartree
C       0.27013537      1.18024022      0.05896156
C      -0.04738547      1.54543022      1.52670009
C       0.88934842      0.89679079      2.56241504
C       0.52515052      1.16370727      3.99408786
C       1.61367738      0.46229847      4.83556327
C       1.54225443      0.82809454      6.39705757
O       0.67408072      1.44025235      6.99353596
O       2.65470601      0.37940936      6.98637056
C       2.80271682      0.70789207      8.39587026
H      -0.36629311      1.79581902     -0.57984726
H       1.35493034      1.28179703     -0.15029615
H       0.04883359      0.12313265     -0.08972364
H      -1.14043785      1.37607314      1.76538177
H       0.05698714      2.60049594      1.61225902
H       0.97467435     -0.13523831      2.26940530
H       1.94886245      1.24706884      2.42749508
H       0.51123064      2.22838491      4.27474265
H      -0.46455840      0.75415089      4.25135612
H       1.49727087     -0.61983513      4.78389520
H       2.58216161      0.75923642      4.43411313
H       3.75907318      0.28483835      8.64769889
H       1.93489942      0.33557541      8.98242055
H       2.98182943      1.78947427      8.47935089
23
Frame 45  Energy = -425.8887181563 Hartree
C       0.27240651      1.18036158      0.06204011
C      -0.04549895      1.54509582      1.52943302
C       0.88978156      0.89641293      2.56229388
C       0.52249128      1.16306217      3.99326852
C       1.61206955      0.46233838      4.83410890
C       1.54007197      0.82716846      6.39496855
O       0.67408882      1.43846754      6.99357887
O       2.65741874      0.37826317      6.98669282
C       2.80570213      0.70776341      8.39543915
H      -0.37147153      1.79777253     -0.58401586
H       1.34909476      1.28780935     -0.14135434
H       0.05303581      0.12937616     -0.08648628
H      -1.12959268      1.37628814      1.76134069
H       0.05846939      2.61010384      1.61496809
H       0.96771370     -0.13518431      2.27538344
H       1.93735070      1.24746265      2.42372611
H       0.50746674      2.23300856      4.27392549
H      -0.46150131      0.75310701      4.24580657
H       1.49303069     -0.61754075      4.78655188
H       2.58178199      0.75599777      4.43230285
H       3.74157493      0.28798537      8.64746791
H       1.94277046      0.33379312      8.98697989
H       2.97727042      1.79022046      8.47995484
23
Frame 50  Energy = -425.8889476432 Hartree
C       0.27455807      1.18044342      0.06527797
C      -0.04366537      1.54476027      1.53205681
C       0.89019557      0.89627206      2.56193515
C       0.51995744      1.16228524      3.99261251
C       1.61036097      0.46256934      4.83298784
C       1.53791501      0.82641742      6.39269826
O       0.67415576      1.43659037      6.99338138
O       2.66011011      0.37715468      6.98705479
C       2.80857553      0.70769287      8.39476262
H      -0.37526622      1.79874342     -0.58778724
H       1.34208605      1.29442475     -0.13290072
H       0.05690343      0.13481274     -0.08379696
H      -1.11666486      1.37554925      1.75706960
H       0.06013295      2.62130160      1.61796589
H       0.96048057     -0.13734326      2.28211264
H       1.92392248      1.24786366      2.41940925
H       0.50364966      2.23645873      4.27182031
H      -0.45817544      0.75236643      4.24016695
H       1.48909591     -0.61545079      4.78920238
H       2.58164385      0.75185177      4.43150886
H       3.72576470      0.28939565      8.64880253
H       1.95275484      0.33341590      8.99090681
H       2.97112660      1.79034469      8.48092062
23
Frame 55  Energy = -425.8848863421 Hartree
C       0.27657977      1.18059410      0.06861013
C      -0.04186487      1.54447121      1.53460482
C       0.89048665      0.89629012      2.56129473
C       0.51751509      1.16148369      3.99209232
C       1.60858886      0.46290388      4.83228778
C       1.53568876      0.82574749      6.39031643
O       0.67442779      1.43454058      6.99296845
O       2.66266114      0.37599980      6.98747479
C       2.81112886      0.70781223      8.39388549
H      -0.37739189      1.79841596     -0.59134520
H       1.33424616      1.30150115     -0.12505852
H       0.06020433      0.13909651     -0.08168754
H      -1.10247416      1.37410571      1.75272758
H       0.06150456      2.63325806      1.62162532
H       0.95329255     -0.14176845      2.28947775
H       1.90940148      1.24870314      2.41447958
H       0.50026165      2.23835061      4.26856764
H      -0.45482856      0.75162509      4.23438181
H       1.48525255     -0.61371103      4.79203448
H       2.58175671      0.74699884      4.43184345
H       3.71311208      0.28814685      8.65166246
H       1.96436079      0.33414089      8.99385131
H       2.96348633      1.79017960      8.48228715
23
Frame 60  Energy = -425.8851298225 Hartree
C       0.27831975      1.18091394      0.07207366
C      -0.04000290      1.54433726      1.53708802
C       0.89067850      0.89652281      2.56047452
C       0.51538336      1.16058110      3.99176551
C       1.60658178      0.46338372      4.83214109
C       1.53354718      0.82501691      6.38777366
O       0.67472263      1.43234992      6.99244367
O       2.66506916      0.37489018      6.98797301
C       2.81325897      0.70817717      8.39276838
H      -0.37784098      1.79676369     -0.59451034
H       1.32685457      1.30933351     -0.11832033
H       0.06298185      0.14253148     -0.07999581
H      -1.08791277      1.37195789      1.74847320
H       0.06273681      2.64506605      1.62582392
H       0.94581574     -0.14856665      2.29726840
H       1.89524948      1.25011615      2.40898382
H       0.49737060      2.23847593      4.26382460
H      -0.45206800      0.75082874      4.22859755
H       1.48198982     -0.61262680      4.79491507
H       2.58218421      0.74159271      4.43307649
H       3.70455546      0.28395366      8.65646316
H       1.97702606      0.33554970      8.99587284
H       2.95474831      1.78956296      8.48381880
23
Frame 65  Energy = -425.8851696498 Hartree
C       0.27983789      1.18140762      0.07565771
C      -0.03793696      1.54446512      1.53949120
C       0.89068975      0.89697718      2.55944304
C       0.51352350      1.15956804      3.99154333
C       1.60426439      0.46411681      4.83246041
C       1.53152561      0.82418910      6.38504014
O       0.67499300      1.43005618      6.99178338
O       2.66739542      0.37385784      6.98851388
C       2.81505712      0.70878285      8.39142647
H      -0.37616778      1.79369812     -0.59675942
H       1.32061867      1.31788355     -0.11272928
H       0.06522059      0.14438768     -0.07849593
H      -1.07388938      1.36905619      1.74456161
H       0.06396275      2.65549360      1.63033621
H       0.93812181     -0.15712558      2.30548234
H       1.88219240      1.25210583      2.40289536
H       0.49458316      2.23680138      4.25773825
H      -0.45034580      0.75019800      4.22308874
H       1.47952000     -0.61221656      4.79751005
H       2.58310179      0.73545799      4.43512277
H       3.70099352      0.27606851      8.66327678
H       1.99020608      0.33771882      8.99733054
H       2.94502166      1.78866202      8.48573767
23
Frame 70  Energy = -425.8849245104 Hartree
C       0.28113715      1.18203092      0.07939891
C      -0.03562253      1.54490705      1.54180933
C       0.89050374      0.89753661      2.55822254
C       0.51192060      1.15852106      3.99145670
C       1.60174899      0.46503817      4.83313987
C       1.52963575      0.82334956      6.38225400
O       0.67535974      1.42762883      6.99100640
O       2.66955680      0.37294518      6.98910635
C       2.81656626      0.70954169      8.38983338
H      -0.37214916      1.78933061     -0.59779624
H       1.31597240      1.32726719     -0.10870446
H       0.06698994      0.14456746     -0.07770479
H      -1.06129332      1.36509283      1.74157145
H       0.06522611      2.66415696      1.63497356
H       0.92980452     -0.16670535      2.31413808
H       1.87113125      1.25500415      2.39657522
H       0.49138652      2.23364259      4.25079519
H      -0.44962489      0.74935122      4.21767461
H       1.47775905     -0.61239038      4.80025874
H       2.58427966      0.72859105      4.43803571
H       3.70245230      0.26507093      8.67197639
H       2.00340366      0.33999522      8.99817018
H       2.93423974      1.78756521      8.48806023
23
Frame 75  Energy = -425.8851610162 Hartree
C       0.28215662      1.18281614      0.08321837
C      -0.03303721      1.54567197      1.54388973
C       0.89006453      0.89815364      2.55678734
C       0.51054520      1.15751229      3.99154790
C       1.59910147      0.46614167      4.83421836
C       1.52779672      0.82250546      6.37927983
O       0.67580229      1.42513750      6.99011191
O       2.67161461      0.37216750      6.98966450
C       2.81779130      0.71044684      8.38792517
H      -0.36610940      1.78362799     -0.59815015
H       1.31331862      1.33729020     -0.10621736
H       0.06810374      0.14328781     -0.07760472
H      -1.05087319      1.35976840      1.73952540
H       0.06649682      2.67050697      1.63980412
H       0.92115168     -0.17698133      2.32366937
H       1.86252330      1.25892408      2.38974042
H       0.48801424      2.22943820      4.24319694
H      -0.45049671      0.74808802      4.21250248
H       1.47677520     -0.61301177      4.80326471
H       2.58541369      0.72157755      4.44163781
H       3.70814385      0.25193175      8.68233502
H       2.01577459      0.34226089      8.99878304
H       2.92237660      1.78647335      8.49086205
23
Frame 80  Energy = -425.8851352647 Hartree
C       0.28297178      1.18374236      0.08717562
C      -0.03027685      1.54673955      1.54578325
C       0.88936458      0.89865722      2.55521295
C       0.50945664      1.15657124      3.99172637
C       1.59627428      0.46739680      4.83583998
C       1.52611310      0.82166098      6.37619370
O       0.67631937      1.42268294      6.98909072
O       2.67356274      0.37141964      6.99032805
C       2.81886022      0.71155287      8.38577630
H      -0.35828459      1.77679276     -0.59820029
H       1.31317602      1.34764657     -0.10488849
H       0.06886500      0.14042278     -0.07807604
H      -1.04330445      1.35315989      1.73846479
H       0.06798873      2.67426837      1.64450082
H       0.91241253     -0.18751425      2.33374213
H       1.85719724      1.26406927      2.38227851
H       0.48470519      2.22449377      4.23510193
H      -0.45338932      0.74620498      4.20771748
H       1.47612741     -0.61410679      4.80599165
H       2.58638639      0.71428117      4.44601967
H       3.71704804      0.23722937      8.69362772
H       2.02690746      0.34442525      8.99938250
H       2.91010588      1.78560650      8.49391668
23
Frame 85  Energy = -425.8842447839 Hartree
C       0.28357841      1.18474566      0.09128165
C      -0.02738634      1.54807474      1.54762019
C       0.88835644      0.89895575      2.55343316
C       0.50861640      1.15564661      3.99199836
C       1.59332286      0.46883980      4.83787183
C       1.52459108      0.82079417      6.37297579
O       0.67679940      1.42018302      6.98788779
O       2.67540256      0.37072679      6.99100323
C       2.81986265      0.71280667      8.38342834
H      -0.34927636      1.76878170     -0.59747119
H       1.31536261      1.35857295     -0.10459802
H       0.06926721      0.13655865     -0.07893162
H      -1.03925779      1.34570886      1.73820677
H       0.06929372      2.67546891      1.64905549
H       0.90377216     -0.19723015      2.34429841
H       1.85523470      1.27017921      2.37443156
H       0.48158790      2.21905153      4.22649938
H      -0.45789523      0.74355061      4.20355807
H       1.47589782     -0.61540668      4.80824538
H       2.58718548      0.70677654      4.45091705
H       3.72799306      0.22150310      8.70525115
H       2.03636975      0.34640088      9.00046765
H       2.89767276      1.78504574      8.49699040
23
Frame 90  Energy = -425.8840218828 Hartree
C       0.28398853      1.18579908      0.09549509
C      -0.02433929      1.54975667      1.54930343
C       0.88706671      0.89907048      2.55159177
C       0.50803848      1.15465859      3.99238438
C       1.59030520      0.47041128      4.84021420
C       1.52319308      0.81990661      6.36968521
O       0.67725495      1.41759122      6.98654079
O       2.67710808      0.37006157      6.99159467
C       2.82096272      0.71399992      8.38102334
H      -0.33951115      1.76025274     -0.59592733
H       1.31913520      1.37010235     -0.10512643
H       0.06967395      0.13234741     -0.08001432
H      -1.03878816      1.33732479      1.73880589
H       0.07059119      2.67383563      1.65373198
H       0.89504851     -0.20588628      2.35545109
H       1.85653199      1.27681783      2.36599761
H       0.47868252      2.21326712      4.21760861
H      -0.46368770      0.74025485      4.19987340
H       1.47628334     -0.61642290      4.81006271
H       2.58753842      0.69937396      4.45666144
H       3.73942044      0.20569789      8.71654327
H       2.04375281      0.34796682      9.00215543
H       2.88531886      1.78479896      8.50018426
23
Frame 95  Energy = -425.8861466364 Hartree
C       0.28425038      1.18693784      0.09983030
C      -0.02115088      1.55172453      1.55084246
C       0.88552325      0.89896671      2.54968877
C       0.50764796      1.15367558      3.99287731
C       1.58709528      0.47205546      4.84292080
C       1.52210888      0.81901302      6.36635386
O       0.67778019      1.41491864      6.98508865
O       2.67868155      0.36942293      6.99207600
C       2.82234686      0.71514736      8.37858429
H      -0.32945029      1.75148706     -0.59401417
H       1.32432048      1.38200672     -0.10678633
H       0.07039926      0.12811280     -0.08147209
H      -1.04165680      1.32823449      1.74013563
H       0.07167993      2.66981009      1.65841842
H       0.88664618     -0.21267528      2.36705961
H       1.86051331      1.28417936      2.35710938
H       0.47563660      2.20789741      4.20836576
H      -0.47043896      0.73648170      4.19619715
H       1.47711071     -0.61712250      4.81167606
H       2.58738011      0.69198023      4.46335588
H       3.75025352      0.19100379      8.72682734
H       2.04859526      0.34870612      9.00415497
H       2.87315718      1.78548044      8.50312949
23
Frame 100  Energy = -425.8863622506 Hartree
C       0.28441226      1.18796216      0.10416080
C      -0.01793084      1.55397075      1.55215611
C       0.88389323      0.89863405      2.54771293
C       0.50737627      1.15258245      3.99345310
C       1.58375580      0.47362084      4.84601312
C       1.52135740      0.81808649      6.36294879
O       0.67827376      1.41218206      6.98354073
O       2.68013206      0.36889115      6.99254175
C       2.82409438      0.71609451      8.37614577
H      -0.31959609      1.74293043     -0.59236227
H       1.33044491      1.39379647     -0.10905661
H       0.07154590      0.12424031     -0.08308668
H      -1.04689782      1.31899868      1.74219349
H       0.07248342      2.66362402      1.66326529
H       0.87873704     -0.21706214      2.37902883
H       1.86675054      1.29152850      2.34845682
H       0.47293440      2.20373435      4.19928252
H      -0.47761195      0.73273759      4.19278818
H       1.47800470     -0.61746885      4.81289053
H       2.58692003      0.68459143      4.47075718
H       3.75963204      0.17820331      8.73570829
H       2.05094920      0.34892980      9.00669149
H       2.86126385      1.78679827      8.50584271
23
Frame 105  Energy = -425.8863628334 Hartree
C       0.28458798      1.18887544      0.10856047
C      -0.01471634      1.55647152      1.55335692
C       0.88226611      0.89810106      2.54565301
C       0.50718970      1.15128631      3.99405637
C       1.58037814      0.47521927      4.84941881
C       1.52098816      0.81709443      6.35948331
O       0.67876173      1.40937443      6.98184603
O       2.68137862      0.36846989      6.99290938
C       2.82619494      0.71675230      8.37373087
H      -0.31024928      1.73538111     -0.59136713
H       1.33638532      1.40495860     -0.11138476
H       0.07320346      0.12086672     -0.08446316
H      -1.05335409      1.30929145      1.74443283
H       0.07312131      2.65605557      1.66840005
H       0.87148249     -0.21887606      2.39091284
H       1.87425838      1.29872979      2.34005001
H       0.47047244      2.20093127      4.19071710
H      -0.48459041      0.72912850      4.18986532
H       1.47892102     -0.61794608      4.81366343
H       2.58623510      0.67741540      4.47867090
H       3.76645961      0.16778474      8.74288389
H       2.05085610      0.34786392      9.00957040
H       2.84969069      1.78880079      8.50847728
23
Frame 110  Energy = -425.8862781342 Hartree
C       0.28486138      1.18962622      0.11294509
C      -0.01175835      1.55916914      1.55448402
C       0.88068306      0.89739311      2.54355312
C       0.50709642      1.14979356      3.99457768
C       1.57699762      0.47679839      4.85307565
C       1.52096986      0.81618025      6.35598830
O       0.67920825      1.40647339      6.98002611
O       2.68245859      0.36816602      6.99320457
C       2.82858273      0.71716309      8.37142532
H      -0.30136308      1.72893549     -0.59096403
H       1.34173561      1.41546388     -0.11394689
H       0.07574544      0.11832281     -0.08529530
H      -1.06013731      1.29899030      1.74700928
H       0.07361216      2.64764319      1.67371736
H       0.86465491     -0.21838846      2.40303927
H       1.88244830      1.30528142      2.33190890
H       0.46772415      2.19966599      4.18305916
H      -0.49090888      0.72568739      4.18739184
H       1.47958895     -0.61862507      4.81459736
H       2.58548999      0.67078360      4.48694980
H       3.77043108      0.16020004      8.74852755
H       2.04881212      0.34560169      9.01213669
H       2.83889929      1.79131242      8.51100657
23
Frame 115  Energy = -425.8862373336 Hartree
C       0.28534900      1.19029330      0.11735448
C      -0.00905529      1.56197613      1.55548596
C       0.87911922      0.89663720      2.54149217
C       0.50701503      1.14809691      3.99509138
C       1.57360374      0.47836859      4.85699954
C       1.52121114      0.81537599      6.35259036
O       0.67967208      1.40354531      6.97803396
O       2.68341439      0.36794181      6.99353513
C       2.83118489      0.71738071      8.36922299
H      -0.29391566      1.72402207     -0.59136084
H       1.34644355      1.42542681     -0.11668654
H       0.07915342      0.11694237     -0.08576782
H      -1.06629946      1.28887094      1.74960375
H       0.07379314      2.63906653      1.67916513
H       0.85834439     -0.21565237      2.41509934
H       1.89080225      1.31043116      2.32473071
H       0.46499776      2.20010988      4.17595319
H      -0.49628321      0.72289300      4.18503207
H       1.47995000     -0.61929810      4.81536730
H       2.58475806      0.66487307      4.49529586
H       3.77115886      0.15565504      8.75243592
H       2.04509819      0.34243233      9.01429162
H       2.82940078      1.79417068      8.51306143
23
Frame 120  Energy = -425.8863301134 Hartree
C       0.28602327      1.19084534      0.12168774
C      -0.00662252      1.56481106      1.55637482
C       0.87757468      0.89583876      2.53937554
C       0.50695447      1.14613267      3.99555159
C       1.57007709      0.47992274      4.86112972
C       1.52171460      0.81451403      6.34938198
O       0.68013785      1.40057927      6.97595071
O       2.68419149      0.36783072      6.99379065
C       2.83396818      0.71725641      8.36709756
H      -0.28821744      1.72098254     -0.59285381
H       1.35022731      1.43453060     -0.11889341
H       0.08334523      0.11698937     -0.08572802
H      -1.07136922      1.27933663      1.75209835
H       0.07360923      2.63109057      1.68499339
H       0.85288304     -0.21117842      2.42660721
H       1.89810238      1.31387411      2.31833151
H       0.46230803      2.20230914      4.16924313
H      -0.50030050      0.72087733      4.18293622
H       1.48006881     -0.62001277      4.81616527
H       2.58392549      0.65937590      4.50360714
H       3.76867382      0.15443484      8.75439444
H       2.04032911      0.33869381      9.01549008
H       2.82163422      1.79707146      8.51448907
23
Frame 125  Energy = -425.8860114952 Hartree
C       0.28698574      1.19128825      0.12596884
C      -0.00460223      1.56758142      1.55711561
C       0.87614857      0.89495079      2.53726125
C       0.50686954      1.14405268      3.99611611
C       1.56657515      0.48138122      4.86557597
C       1.52249172      0.81352406      6.34640280
O       0.68064888      1.39748508      6.97373904
O       2.68493315      0.36780969      6.99395704
C       2.83696341      0.71685357      8.36518583
H      -0.28472795      1.71953044     -0.59543053
H       1.35268548      1.44266317     -0.12032709
H       0.08845685      0.11864476     -0.08498550
H      -1.07528007      1.27033203      1.75488491
H       0.07352556      2.62439647      1.69097495
H       0.84826040     -0.20497532      2.43742782
H       1.90368420      1.31564283      2.31242376
H       0.45969758      2.20560512      4.16333922
H      -0.50272732      0.71949594      4.18097817
H       1.47998842     -0.62026294      4.81696170
H       2.58285173      0.65451895      4.51210365
H       3.76342683      0.15667695      8.75436165
H       2.03492891      0.33454463      9.01541616
H       2.81545301      1.79977942      8.51577810
23
Frame 130  Energy = -425.8862622268 Hartree
C       0.28832045      1.19169701      0.13014571
C      -0.00304118      1.57015633      1.55780074
C       0.87495686      0.89405013      2.53526931
C       0.50678399      1.14191172      3.99661443
C       1.56303319      0.48270297      4.87021032
C       1.52338584      0.81248979      6.34370193
O       0.68124895      1.39435360      6.97145819
O       2.68557777      0.36784349      6.99409022
C       2.84009249      0.71621668      8.36353384
H      -0.28304617      1.71971585     -0.59875398
H       1.35349869      1.44966174     -0.12139695
H       0.09447449      0.12146042     -0.08353007
H      -1.07760791      1.26222296      1.75784932
H       0.07321153      2.61962538      1.69690140
H       0.84482786     -0.19787109      2.44715234
H       1.90721973      1.31529089      2.30772858
H       0.45709050      2.20983940      4.15813400
H      -0.50346494      0.71861040      4.17950794
H       1.47979134     -0.61958425      4.81774441
H       2.58144946      0.65016822      4.52022489
H       3.75573539      0.16245233      8.75209130
H       2.02936739      0.33013603      9.01416025
H       2.81092111      1.80207892      8.51674727
23
Frame 135  Energy = -425.8862777906 Hartree
C       0.29005177      1.19198548      0.13416716
C      -0.00188731      1.57239777      1.55840062
C       0.87407529      0.89310892      2.53346585
C       0.50676390      1.13967610      3.99695474
C       1.55947809      0.48386872      4.87492379
C       1.52448448      0.81157285      6.34123139
O       0.68191562      1.39111516      6.96915788
O       2.68609723      0.36781540      6.99413439
C       2.84319607      0.71543911      8.36206880
H      -0.28284747      1.72118782     -0.60278393
H       1.35250661      1.45519747     -0.12189001
H       0.10136994      0.12542895     -0.08116573
H      -1.07790248      1.25577153      1.76080887
H       0.07270699      2.61717194      1.70282580
H       0.84234244     -0.19061945      2.45533430
H       1.90887602      1.31260020      2.30459850
H       0.45451235      2.21443714      4.15368537
H      -0.50282022      0.71807916      4.17829535
H       1.47934865     -0.61795935      4.81868207
H       2.57983564      0.64648076      4.52848677
H       3.74632350      0.17115298      8.74755100
H       2.02399116      0.32549777      9.01134498
H       2.80763687      1.80381156      8.51774901
23
Frame 140  Energy = -425.8864808690 Hartree
C       0.29218120      1.19230787      0.13804658
C      -0.00127504      1.57431151      1.55881255
C       0.87357281      0.89214021      2.53177882
C       0.50668112      1.13735088      3.99717522
C       1.55589767      0.48490028      4.87968149
C       1.52580628      0.81066464      6.33905136
O       0.68248405      1.38785607      6.96681135
O       2.68640192      0.36783771      6.99403429
C       2.84614877      0.71444837      8.36088647
H      -0.28382524      1.72348452     -0.60694160
H       1.34986483      1.45950882     -0.12191910
H       0.10918055      0.13022158     -0.07791503
H      -1.07642522      1.25076829      1.76325680
H       0.07175382      2.61775194      1.70874013
H       0.84082780     -0.18353297      2.46187951
H       1.90810473      1.30729810      2.30286996
H       0.45204945      2.21898891      4.15023918
H      -0.50092900      0.71830089      4.17745075
H       1.47887646     -0.61542549      4.81959514
H       2.57806949      0.64358275      4.53647095
H       3.73559008      0.18207143      8.74093210
H       2.01907663      0.32123735      9.00684976
H       2.80581355      1.80476627      8.51846035
23
Frame 145  Energy = -425.8864218062 Hartree
C       0.29458999      1.19259292      0.14169874
C      -0.00126675      1.57591204      1.55913517
C       0.87345118      0.89125085      2.53024404
C       0.50647051      1.13509137      3.99729490
C       1.55236785      0.48570855      4.88445303
C       1.52728520      0.80980123      6.33710339
O       0.68301637      1.38464156      6.96443467
O       2.68658338      0.36783085      6.99375484
C       2.84884049      0.71336732      8.35998655
H      -0.28539238      1.72646523     -0.61068353
H       1.34580195      1.46284114     -0.12119707
H       0.11776996      0.13567897     -0.07392532
H      -1.07225689      1.24709572      1.76527610
H       0.07060016      2.62128098      1.71462573
H       0.84043921     -0.17722042      2.46663327
H       1.90513245      1.29960423      2.30261459
H       0.44965154      2.22313135      4.14774263
H      -0.49835995      0.71969489      4.17696460
H       1.47803668     -0.61221093      4.82049786
H       2.57621120      0.64138983      4.54432702
H       3.72410089      0.19451937      8.73288672
H       2.01495914      0.31715390      9.00070463
H       2.80521026      1.80478567      8.51878831
23
Frame 150  Energy = -425.8862833951 Hartree
C       0.29713625      1.19291975      0.14513062
C      -0.00184565      1.57719253      1.55938725
C       0.87370708      0.89054409      2.52891517
C       0.50623722      1.13292622      3.99735650
C       1.54889717      0.48625879      4.88915953
C       1.52898451      0.80892322      6.33546126
O       0.68349252      1.38141642      6.96197863
O       2.68678124      0.36779576      6.99331005
C       2.85120003      0.71215905      8.35928600
H      -0.28763423      1.72982539     -0.61393064
H       1.34028732      1.46520769     -0.11986808
H       0.12705843      0.14155265     -0.06951946
H      -1.06569699      1.24487794      1.76664930
H       0.06925606      2.62750671      1.72033589
H       0.84068320     -0.17255460      2.46941119
H       1.90047699      1.28956903      2.30373041
H       0.44771057      2.22658131      4.14594551
H      -0.49517616      0.72184335      4.17685760
H       1.47665064     -0.60841115      4.82139438
H       2.57422295      0.63997039      4.55204247
H       3.71352635      0.20783458      8.72401771
H       2.01206146      0.31332631      8.99257598
H       2.80622718      1.80354416      8.51878813
23
Frame 155  Energy = -425.8860480464 Hartree
C       0.29982939      1.19342217      0.14837205
C      -0.00290776      1.57822739      1.55954263
C       0.87424749      0.88998069      2.52781261
C       0.50601490      1.13093186      3.99733045
C       1.54542226      0.48665289      4.89388457
C       1.53095211      0.80809805      6.33424894
O       0.68387514      1.37825038      6.95954078
O       2.68695101      0.36780585      6.99276942
C       2.85312111      0.71099131      8.35867750
H      -0.29000004      1.73310652     -0.61603372
H       1.33385826      1.46672373     -0.11792721
H       0.13691113      0.14686471     -0.06457336
H      -1.05722442      1.24434813      1.76723985
H       0.06750014      2.63580625      1.72565432
H       0.84181385     -0.17013389      2.47029510
H       1.89456985      1.27745247      2.30591856
H       0.44593300      2.22906484      4.14508971
H      -0.49126166      0.72443835      4.17754804
H       1.47509013     -0.60454064      4.82219605
H       2.57184396      0.63977837      4.55934522
H       3.70538887      0.22114964      8.71491067
H       2.01000513      0.31009767      8.98242845
H       2.80863250      1.80128493      8.51841983
23
Frame 160  Energy = -425.8855444635 Hartree
C       0.30256821      1.19410102      0.15136541
C      -0.00447385      1.57910146      1.55973528
C       0.87492764      0.88967503      2.52687505
C       0.50591602      1.12911755      3.99724886
C       1.54201038      0.48698030      4.89854735
C       1.53311876      0.80727883      6.33340558
O       0.68419052      1.37506984      6.95708675
O       2.68706338      0.36784597      6.99210622
C       2.85451657      0.70988554      8.35817814
H      -0.29200852      1.73609145     -0.61665265
H       1.32705392      1.46715612     -0.11561105
H       0.14702552      0.15119232     -0.05885496
H      -1.04707676      1.24543971      1.76757403
H       0.06524527      2.64566507      1.73033272
H       0.84359662     -0.17030139      2.46932879
H       1.88770258      1.26410193      2.30942215
H       0.44413653      2.23047893      4.14470605
H      -0.48683094      0.72716792      4.17864548
H       1.47327354     -0.60060831      4.82297899
H       2.56910446      0.64058481      4.56598114
H       3.70089116      0.23403047      8.70625642
H       2.00935096      0.30777265      8.97027162
H       2.81200610      1.79798784      8.51734399
23
Frame 165  Energy = -425.8852764143 Hartree
C       0.30545129      1.19494626      0.15396884
C      -0.00648125      1.57982067      1.55992420
C       0.87577273      0.88956473      2.52616071
C       0.50585084      1.12754762      3.99700134
C       1.53863987      0.48725133      4.90314314
C       1.53560294      0.80650835      6.33297274
O       0.68440823      1.37192747      6.95453522
O       2.68713165      0.36794677      6.99132192
C       2.85524823      0.70893980      8.35777213
H      -0.29418692      1.73876122     -0.61591563
H       1.32060322      1.46654779     -0.11308046
H       0.15745830      0.15452246     -0.05272795
H      -1.03620464      1.24797137      1.76768041
H       0.06220030      2.65635618      1.73458538
H       0.84627186     -0.17348498      2.46620735
H       1.88052526      1.24944990      2.31386252
H       0.44241222      2.23037274      4.14497078
H      -0.48241149      0.72971227      4.18038340
H       1.47100310     -0.59682906      4.82398808
H       2.56601796      0.64247846      4.57256557
H       3.70126776      0.24559368      8.69866295
H       2.00989109      0.30583790      8.95660299
H       2.81623119      1.79371834      8.51586316
23
Frame 170  Energy = -425.8854811387 Hartree
C       0.30827773      1.19597758      0.15622430
C      -0.00881446      1.58044129      1.56012248
C       0.87679364      0.88957409      2.52580266
C       0.50592968      1.12632092      3.99669276
C       1.53546133      0.48739824      4.90754612
C       1.53827064      0.80572253      6.33305275
O       0.68455010      1.36879821      6.95191880
O       2.68716085      0.36807450      6.99033898
C       2.85522000      0.70824985      8.35732595
H      -0.29623587      1.74019194     -0.61360304
H       1.31544581      1.46567989     -0.11061540
H       0.16807429      0.15671120     -0.04632991
H      -1.02550776      1.25171917      1.76748845
H       0.05880945      2.66670310      1.73829491
H       0.84937075     -0.17937893      2.46087139
H       1.87394631      1.23425282      2.31883218
H       0.44079287      2.22881486      4.14598110
H      -0.47853860      0.73194223      4.18264739
H       1.46814023     -0.59359666      4.82533861
H       2.56318043      0.64528275      4.57881930
H       3.70703744      0.25514770      8.69223140
H       2.01136148      0.30442608      8.94213294
H       2.82145739      1.78869443      8.51449602
23
Frame 175  Energy = -425.8855180823 Hartree
C       0.31094102      1.19715968      0.15814590
C      -0.01136115      1.58104085      1.56028790
C       0.87787993      0.88959742      2.52583854
C       0.50610629      1.12538376      3.99627485
C       1.53250318      0.48745220      4.91173066
C       1.54095437      0.80495985      6.33363271
O       0.68456146      1.36575753      6.94932679
O       2.68711628      0.36815966      6.98913626
C       2.85446266      0.70775515      8.35674339
H      -0.29779702      1.74101665     -0.60936776
H       1.31243545      1.46458567     -0.10800703
H       0.17828854      0.15719176     -0.03975101
H      -1.01559515      1.25595128      1.76724338
H       0.05506468      2.67646583      1.74114863
H       0.85249798     -0.18719565      2.45366217
H       1.86884144      1.21886285      2.32424908
H       0.43938037      2.22615501      4.14782986
H      -0.47559404      0.73371719      4.18535842
H       1.46472270     -0.59124367      4.82697498
H       2.56068897      0.64900605      4.58465121
H       3.71852872      0.26266106      8.68737225
H       2.01323015      0.30337872      8.92700648
H       2.82730675      1.78346263      8.51272677
23
Frame 180  Energy = -425.8855987797 Hartree
C       0.31348442      1.19860264      0.15961330
C      -0.01401600      1.58172866      1.56048900
C       0.87890870      0.88954819      2.52616540
C       0.50628937      1.12470099      3.99585554
C       1.52976269      0.48737256      4.91567830
C       1.54377341      0.80425822      6.33468450
O       0.68449597      1.36272004      6.94676824
O       2.68699360      0.36823064      6.98772943
C       2.85317657      0.70736921      8.35602794
H      -0.29890789      1.74127464     -0.60329412
H       1.31141504      1.46376020     -0.10540886
H       0.18801338      0.15555741     -0.03297550
H      -1.00749971      1.26052538      1.76728820
H       0.05122365      2.68506207      1.74303194
H       0.85582354     -0.19613588      2.44449198
H       1.86610865      1.20380329      2.32969032
H       0.43824475      2.22221688      4.15022335
H      -0.47379080      0.73515906      4.18846987
H       1.46100214     -0.59019774      4.82849555
H       2.55837307      0.65356481      4.59005910
H       3.73511476      0.26787980      8.68346979
H       2.01521514      0.30227849      8.91184435
H       2.83363204      1.77880256      8.51084631
23
Frame 185  Energy = -425.8857846629 Hartree
C       0.31589736      1.20024230      0.16071366
C      -0.01663354      1.58271069      1.56077251
C       0.87993346      0.88929978      2.52679581
C       0.50658613      1.12434711      3.99537399
C       1.52725643      0.48719768      4.91933105
C       1.54678179      0.80366962      6.33619159
O       0.68438316      1.35974271      6.94426214
O       2.68679469      0.36839334      6.98607882
C       2.85134149      0.70707967      8.35527271
H      -0.29945527      1.74059186     -0.59591418
H       1.31246632      1.46335242     -0.10319976
H       0.19749422      0.15185014     -0.02624566
H      -1.00219381      1.26531518      1.76765969
H       0.04714767      2.69173476      1.74389821
H       0.85984934     -0.20529134      2.43352788
H       1.86691712      1.18950086      2.33497483
H       0.43740192      2.21726643      4.15285008
H      -0.47334535      0.73601181      4.19210287
H       1.45694699     -0.59041662      4.83013305
H       2.55597505      0.65869019      4.59487377
H       3.75514191      0.27131393      8.68048354
H       2.01708900      0.30105850      8.89692799
H       2.84024060      1.77496278      8.50873873
23
Frame 190  Energy = -425.8859579223 Hartree
C       0.31809578      1.20208734      0.16143966
C      -0.01916675      1.58390743      1.56116240
C       0.88085724      0.88886377      2.52765753
C       0.50697306      1.12417716      3.99487982
C       1.52501994      0.48696720      4.92265684
C       1.54990288      0.80310846      6.33822772
O       0.68411509      1.35687474      6.94193635
O       2.68662151      0.36857547      6.98421383
C       2.84923151      0.70688484      8.35451240
H      -0.29945010      1.73932677     -0.58729757
H       1.31592506      1.46332923     -0.10162081
H       0.20661909      0.14676916     -0.01920565
H      -1.00004812      1.27016808      1.76864058
H       0.04280646      2.69606030      1.74372929
H       0.86400455     -0.21414538      2.42118862
H       1.87164041      1.17638424      2.33993281
H       0.43708104      2.21138751      4.15577719
H      -0.47410443      0.73625390      4.19653509
H       1.45269052     -0.59165596      4.83194411
H       2.55343584      0.66433104      4.59899017
H       3.77727991      0.27362637      8.67781385
H       2.01848993      0.29918997      8.88348075
H       2.84712589      1.77192122      8.50598443
23
Frame 195  Energy = -425.8858566571 Hartree
C       0.32008523      1.20406984      0.16183491
C      -0.02154510      1.58529073      1.56157817
C       0.88172118      0.88814303      2.52875207
C       0.50752845      1.12424003      3.99438330
C       1.52304116      0.48656032      4.92568526
C       1.55321188      0.80248422      6.34074509
O       0.68373422      1.35407135      6.93975210
O       2.68647326      0.36883593      6.98207242
C       2.84708209      0.70673562      8.35366150
H      -0.29937278      1.73718793     -0.57747768
H       1.32212073      1.46373160     -0.10012672
H       0.21532316      0.14078449     -0.01217077
H      -1.00140665      1.27475484      1.77069153
H       0.03823924      2.69756752      1.74265851
H       0.86805366     -0.22217687      2.40784611
H       1.88024033      1.16433241      2.34474150
H       0.43717186      2.20504784      4.15935192
H      -0.47593243      0.73592127      4.20110275
H       1.44833694     -0.59364311      4.83402879
H       2.55054307      0.67036151      4.60213053
H       3.79972804      0.27552337      8.67515164
H       2.01898017      0.29674647      8.87161356
H       2.85442954      1.77014660      8.50293995
23
Frame 200  Energy = -425.8860009364 Hartree
C       0.32187737      1.20609710      0.16203776
C      -0.02361779      1.58684475      1.56204468
C       0.88250469      0.88705192      2.53001576
C       0.50810649      1.12444837      3.99388080
C       1.52132520      0.48605631      4.92843800
C       1.55670347      0.80189970      6.34360754
O       0.68320153      1.35136988      6.93770842
O       2.68626009      0.36910982      6.97968718
C       2.84504168      0.70658133      8.35271473
H      -0.29934355      1.73417535     -0.56707727
H       1.33042224      1.46467310     -0.09851737
H       0.22347525      0.13402965     -0.00530624
H      -1.00621566      1.27860928      1.77361617
H       0.03352601      2.69649839      1.74071826
H       0.87179880     -0.22829877      2.39376523
H       1.89226935      1.15337819      2.34923325
H       0.43742638      2.19857493      4.16354778
H      -0.47839806      0.73538400      4.20541504
H       1.44425514     -0.59664697      4.83639423
H       2.54731423      0.67671357      4.60447947
H       3.82119353      0.27756931      8.67200082
H       2.01833863      0.29364070      8.86204105
H       2.86165278      1.76994251      8.49997447
23
Frame 205  Energy = -425.8859652095 Hartree
C       0.32362803      1.20823584      0.16208792
C      -0.02543863      1.58867983      1.56257535
C       0.88311409      0.88565857      2.53149405
C       0.50878211      1.12474437      3.99341750
C       1.51991887      0.48553789      4.93085796
C       1.56017591      0.80133725      6.34679256
O       0.68255170      1.34874049      6.93581141
O       2.68594391      0.36940998      6.97721203
C       2.84329792      0.70628981      8.35170660
H      -0.29956570      1.73085709     -0.55684216
H       1.34011683      1.46624240     -0.09677413
H       0.23121782      0.12732059      0.00148743
H      -1.01469823      1.28203910      1.77691085
H       0.02876408      2.69268610      1.73810660
H       0.87515126     -0.23238498      2.37891163
H       1.90708418      1.14371735      2.35336054
H       0.43787107      2.19246638      4.16833345
H      -0.48135048      0.73464094      4.20949817
H       1.44053222     -0.60029745      4.83885122
H       2.54384940      0.68318286      4.60589887
H       3.84075878      0.27996227      8.66818507
H       2.01667638      0.28965560      8.85493093
H       2.86886035      1.77134266      8.49712786
23
Frame 210  Energy = -425.8857292492 Hartree
C       0.32539479      1.21043446      0.16199703
C      -0.02715160      1.59068764      1.56327757
C       0.88360293      0.88395477      2.53321028
C       0.50943009      1.12505725      3.99292349
C       1.51881143      0.48482855      4.93281527
C       1.56363198      0.80065229      6.35020485
O       0.68177928      1.34622286      6.93405661
O       2.68571370      0.36974030      6.97455381
C       2.84189694      0.70580042      8.35050528
H      -0.30009418      1.72721603     -0.54692489
H       1.35062540      1.46832647     -0.09481458
H       0.23865480      0.12128223      0.00800269
H      -1.02599619      1.28474705      1.78047119
H       0.02441491      2.68654300      1.73492584
H       0.87802479     -0.23406635      2.36364135
H       1.92349508      1.13503185      2.35733823
H       0.43873851      2.18696606      4.17373083
H      -0.48477489      0.73367073      4.21332229
H       1.43700124     -0.60418868      4.84151101
H       2.54014788      0.68989819      4.60659084
H       3.85715125      0.28311410      8.66336570
H       2.01378160      0.28456585      8.85047011
H       2.87571820      1.77402362      8.49387322
23
Frame 215  Energy = -425.8856560300 Hartree
C       0.32727168      1.21266157      0.16178407
C      -0.02885120      1.59285644      1.56401433
C       0.88395698      0.88186790      2.53507951
C       0.51008934      1.12536565      3.99243721
C       1.51792601      0.48399608      4.93436325
C       1.56712411      0.79991178      6.35386278
O       0.68088777      1.34383618      6.93243773
O       2.68563390      0.37003963      6.97175675
C       2.84082467      0.70509148      8.34913585
H      -0.30144937      1.72357335     -0.53753036
H       1.36144859      1.47049539     -0.09295072
H       0.24567987      0.11636410      0.01412257
H      -1.03922455      1.28700910      1.78391225
H       0.02012937      2.67940399      1.73094933
H       0.88045181     -0.23348701      2.34827336
H       1.94053293      1.12741088      2.36128133
H       0.44003475      2.18242865      4.17950918
H      -0.48828154      0.73267565      4.21670746
H       1.43338769     -0.60774824      4.84450947
H       2.53601534      0.69645379      4.60643699
H       3.86971284      0.28723568      8.65740741
H       2.00968034      0.27849412      8.84858448
H       2.88231871      1.77769533      8.49060450
23
Frame 220  Energy = -425.8836661575 Hartree
C       0.32930448      1.21470466      0.16148195
C      -0.03052058      1.59501774      1.56497253
C       0.88443464      0.87956657      2.53705623
C       0.51065548      1.12563748      3.99204394
C       1.51738079      0.48304217      4.93556557
C       1.57053124      0.79918679      6.35776403
O       0.67984885      1.34164030      6.93112761
O       2.68566429      0.37034397      6.96892112
C       2.84018305      0.70436395      8.34774205
H      -0.30394940      1.72034586     -0.52936832
H       1.37183217      1.47264210     -0.09097810
H       0.25224622      0.11277658      0.02009148
H      -1.05352110      1.28924529      1.78692936
H       0.01575681      2.67168804      1.72629946
H       0.88207155     -0.23065926      2.33316711
H       1.95713193      1.12077977      2.36515917
H       0.44165769      2.17937273      4.18565391
H      -0.49129134      0.73214571      4.21929042
H       1.43012043     -0.61099778      4.84776721
H       2.53186310      0.70294474      4.60503357
H       3.87761418      0.29213141      8.65057099
H       2.00414595      0.27154792      8.84904612
H       2.88848320      1.78204823      8.48739250
23
Frame 225  Energy = -425.8836086411 Hartree
C       0.33160135      1.21656741      0.16112933
C      -0.03213253      1.59701953      1.56621520
C       0.88495206      0.87707879      2.53918063
C       0.51115936      1.12573496      3.99190808
C       1.51708565      0.48178590      4.93643467
C       1.57377463      0.79841237      6.36174310
O       0.67862392      1.33959305      6.92992400
O       2.68584338      0.37062819      6.96598660
C       2.83993727      0.70359123      8.34625504
H      -0.30749755      1.71730395     -0.52322464
H       1.38121767      1.47507058     -0.08894780
H       0.25903197      0.11100240      0.02598002
H      -1.06788232      1.29166512      1.78969954
H       0.01164243      2.66416257      1.72158626
H       0.88278388     -0.22573900      2.31881123
H       1.97178747      1.11508512      2.36895905
H       0.44341664      2.17787925      4.19239738
H      -0.49386807      0.73191022      4.22134944
H       1.42716371     -0.61401269      4.85135650
H       2.52856366      0.70900364      4.60286479
H       3.88089828      0.29829284      8.64265609
H       1.99751755      0.26391357      8.85191867
H       2.89395582      1.78676586      8.48405707
23
Frame 230  Energy = -425.8835283951 Hartree
C       0.33414800      1.21832096      0.16085463
C      -0.03371512      1.59884284      1.56756966
C       0.88567969      0.87442824      2.54128783
C       0.51153481      1.12568387      3.99192445
C       1.51709969      0.48014696      4.93693066
C       1.57682886      0.79762199      6.36578118
O       0.67721049      1.33771765      6.92890051
O       2.68625487      0.37085023      6.96301575
C       2.84008800      0.70270055      8.34473583
H      -0.31235899      1.71478421     -0.51884319
H       1.38932313      1.47791303     -0.08651161
H       0.26541252      0.11123236      0.03209284
H      -1.08156404      1.29490441      1.79188584
H       0.00737099      2.65766202      1.71679127
H       0.88240460     -0.21929452      2.30509772
H       1.98375894      1.11032957      2.37323677
H       0.44555701      2.17789652      4.19896988
H      -0.49562773      0.73170423      4.22264438
H       1.42464818     -0.61656120      4.85563250
H       2.52590413      0.71436079      4.59963979
H       3.87957569      0.30557901      8.63373210
H       1.99079911      0.25610533      8.85628451
H       2.89848704      1.79130096      8.48042549
23
Frame 235  Energy = -425.8836503926 Hartree
C       0.33680563      1.21982486      0.16062161
C      -0.03543969      1.60043466      1.56906094
C       0.88660341      0.87166312      2.54340682
C       0.51180497      1.12552608      3.99212699
C       1.51732013      0.47830368      4.93714151
C       1.57966090      0.79676690      6.36990404
O       0.67562034      1.33597887      6.92820070
O       2.68686671      0.37108708      6.96011220
C       2.84068811      0.70184782      8.34324678
H      -0.31836366      1.71260949     -0.51656087
H       1.39551507      1.48068017     -0.08395480
H       0.27154198      0.11348263      0.03847535
H      -1.09371800      1.29861973      1.79352083
H       0.00341095      2.65290793      1.71250798
H       0.88107457     -0.21173494      2.29185713
H       1.99253722      1.10618079      2.37782999
H       0.44804183      2.17913241      4.20547055
H      -0.49632578      0.73181218      4.22307344
H       1.42274742     -0.61857944      4.85991101
H       2.52354752      0.71916260      4.59530632
H       3.87381084      0.31349257      8.62422524
H       1.98479147      0.24846235      8.86174403
H       2.90202994      1.79468874      8.47649940
23
Frame 240  Energy = -425.8846568109 Hartree
C       0.33958437      1.22122949      0.16047961
C      -0.03717183      1.60172677      1.57074291
C       0.88775906      0.86888943      2.54550923
C       0.51198813      1.12527889      3.99251234
C       1.51780803      0.47632032      4.93713291
C       1.58225353      0.79591323      6.37393084
O       0.67386052      1.33430580      6.92774148
O       2.68769078      0.37133625      6.95725908
C       2.84153509      0.70097742      8.34189317
H      -0.32527563      1.71085253     -0.51646967
H       1.39948116      1.48340907     -0.08057980
H       0.27746060      0.11754353      0.04461989
H      -1.10350309      1.30296067      1.79488206
H       0.00007566      2.65032360      1.70855543
H       0.87910550     -0.20317293      2.27931690
H       1.99800979      1.10237641      2.38250678
H       0.45106636      2.18120792      4.21176345
H      -0.49581136      0.73190432      4.22279856
H       1.42098908     -0.62033496      4.86411891
H       2.52132749      0.72343061      4.58994593
H       3.86418519      0.32183658      8.61472455
H       1.98029384      0.24181445      8.86828245
H       2.90470431      1.79734391      8.47249211
23
Frame 245  Energy = -425.8847264152 Hartree
C       0.34247812      1.22246874      0.16030165
C      -0.03882845      1.60273477      1.57267702
C       0.88912605      0.86622055      2.54752010
C       0.51208575      1.12491891      3.99314682
C       1.51854524      0.47418330      4.93689966
C       1.58452946      0.79508552      6.37790875
O       0.67193601      1.33276306      6.92749718
O       2.68869106      0.37160190      6.95446631
C       2.84254119      0.70007220      8.34057976
H      -0.33262635      1.70915901     -0.51846131
H       1.40156725      1.48638731     -0.07710937
H       0.28298418      0.12347519      0.05048704
H      -1.11052615      1.30759021      1.79519921
H      -0.00236037      2.65055513      1.70481527
H       0.87628489     -0.19399468      2.26780422
H       1.99964345      1.09929239      2.38764202
H       0.45434821      2.18433362      4.21761625
H      -0.49451266      0.73202320      4.22193784
H       1.41934588     -0.62149718      4.86831859
H       2.51918437      0.72668109      4.58374350
H       3.85126763      0.32995138      8.60562415
H       1.97790001      0.23656885      8.87524805
H       2.90608126      1.79935511      8.46873219
23
Frame 250  Energy = -425.8848158440 Hartree
C       0.34558010      1.22359633      0.16015872
C      -0.04047927      1.60337568      1.57478059
C       0.89065843      0.86362077      2.54947230
C       0.51205739      1.12447835      3.99394659
C       1.51950024      0.47189385      4.93643535
C       1.58643704      0.79419600      6.38166545
O       0.66984782      1.33128194      6.92745781
O       2.68978297      0.37186625      6.95168930
C       2.84368593      0.69925275      8.33926124
H      -0.33997952      1.70705505     -0.52236358
H       1.40168122      1.48918525     -0.07330601
H       0.28814691      0.13059149      0.05595045
H      -1.11456863      1.31221537      1.79464931
H      -0.00407830      2.65344346      1.70139060
H       0.87279383     -0.18507214      2.25709179
H       1.99754661      1.09702572      2.39326510
H       0.45776935      2.18801949      4.22288639
H      -0.49241059      0.73250910      4.22074250
H       1.41830611     -0.62198489      4.87276284
H       2.51731890      0.72873585      4.57664708
H       3.83645020      0.33765526      8.59682194
H       1.97804475      0.23301261      8.88253644
H       2.90589136      1.80019974      8.46521688
23
Frame 255  Energy = -425.8850179473 Hartree
C       0.34868555      1.22459112      0.16007928
C      -0.04215255      1.60371998      1.57692857
C       0.89233565      0.86119802      2.55136091
C       0.51191954      1.12391016      3.99490814
C       1.52066433      0.46947594      4.93573866
C       1.58808853      0.79328111      6.38512614
O       0.66767384      1.32989986      6.92762374
O       2.69103719      0.37212940      6.94901356
C       2.84482726      0.69855002      8.33804355
H      -0.34670767      1.70462407     -0.52753621
H       1.39997478      1.49199935     -0.06931562
H       0.29288845      0.13799966      0.06095438
H      -1.11538278      1.31705967      1.79358395
H      -0.00516529      2.65887089      1.69844772
H       0.86838545     -0.17671185      2.24694559
H       1.99221648      1.09534154      2.39902563
H       0.46140166      2.19208304      4.22753129
H      -0.48963521      0.73312202      4.21878751
H       1.41771751     -0.62206549      4.87678128
H       2.51563941      0.72977200      4.56904533
H       3.82087839      0.34444760      8.58859028
H       1.98077016      0.23071992      8.88948746
H       2.90445926      1.79952103      8.46151593
23
Frame 260  Energy = -425.8850893539 Hartree
C       0.35183186      1.22558717      0.15992846
C      -0.04394123      1.60372736      1.57914800
C       0.89410838      0.85908992      2.55319980
C       0.51172540      1.12334306      3.99608624
C       1.52199447      0.46697561      4.93483537
C       1.58938091      0.79237519      6.38818160
O       0.66540771      1.32862883      6.92802068
O       2.69247814      0.37239779      6.94647359
C       2.84582771      0.69797704      8.33677467
H      -0.35269428      1.70177822     -0.53354116
H       1.39702815      1.49498706     -0.06523255
H       0.29692704      0.14538387      0.06541595
H      -1.11328008      1.32235916      1.79244492
H      -0.00576274      2.66668335      1.69617094
H       0.86269226     -0.16994186      2.23757500
H       1.98384801      1.09447931      2.40494451
H       0.46566511      2.19595969      4.23164305
H      -0.48642006      0.73408205      4.21629291
H       1.41753560     -0.62172290      4.88064425
H       2.51426174      0.72997528      4.56098748
H       3.80627121      0.34941317      8.58131568
H       1.98625832      0.23003327      8.89594699
H       2.90172513      1.79747725      8.45835687
23
Frame 265  Energy = -425.8851440171 Hartree
C       0.35492344      1.22659008      0.15972082
C      -0.04566662      1.60363551      1.58150137
C       0.89589637      0.85728011      2.55501948
C       0.51148514      1.12275133      3.99756575
C       1.52344499      0.46442625      4.93381699
C       1.59030518      0.79144642      6.39082171
O       0.66304868      1.32743058      6.92866427
O       2.69412075      0.37255924      6.94399340
C       2.84658277      0.69749880      8.33551195
H      -0.35759804      1.69828219     -0.53980376
H       1.39294235      1.49834757     -0.06100163
H       0.30061674      0.15249507      0.06881863
H      -1.10895537      1.32794363      1.79073183
H      -0.00591062      2.67614290      1.69451073
H       0.85625746     -0.16510637      2.22911936
H       1.97278163      1.09437794      2.41109352
H       0.47029057      2.19897593      4.23517064
H      -0.48309527      0.73490861      4.21364061
H       1.41780584     -0.62118146      4.88449668
H       2.51344260      0.72894171      4.55233910
H       3.79426366      0.35208754      8.57511833
H       1.99429814      0.23095965      8.90178108
H       2.89786766      1.79438865      8.45559260
23
Frame 270  Energy = -425.8853213396 Hartree
C       0.35794977      1.22764452      0.15952030
C      -0.04737666      1.60339311      1.58393249
C       0.89767223      0.85573314      2.55685838
C       0.51123848      1.12206339      3.99927919
C       1.52509396      0.46180375      4.93260019
C       1.59074404      0.79056187      6.39308813
O       0.66074324      1.32631331      6.92955494
O       2.69591457      0.37265610      6.94162304
C       2.84704126      0.69718384      8.33422940
H      -0.36084464      1.69420266     -0.54625643
H       1.38834951      1.50205443     -0.05680829
H       0.30392106      0.15865142      0.07141480
H      -1.10264435      1.33340475      1.78835624
H      -0.00578144      2.68611049      1.69375355
H       0.84919339     -0.16254574      2.22150011
H       1.96037494      1.09504237      2.41747780
H       0.47530044      2.20106614      4.23807828
H      -0.48033702      0.73549742      4.21079808
H       1.41859626     -0.62131619      4.88806609
H       2.51293344      0.72680847      4.54325360
H       3.78596333      0.35187744      8.57040032
H       2.00443448      0.23328361      8.90677829
H       2.89292841      1.79030364      8.45302231
23
Frame 275  Energy = -425.8853129916 Hartree
C       0.36075073      1.22878279      0.15929255
C      -0.04892230      1.60305483      1.58631620
C       0.89931050      0.85451267      2.55871247
C       0.51100116      1.12139179      4.00122986
C       1.52699650      0.45909635      4.93124739
C       1.59070408      0.78973275      6.39489890
O       0.65845737      1.32528549      6.93066242
O       2.69787005      0.37280549      6.93948959
C       2.84712772      0.69706891      8.33295536
H      -0.36230033      1.68968204     -0.55236971
H       1.38381810      1.50618706     -0.05294647
H       0.30669575      0.16353846      0.07325777
H      -1.09484016      1.33861991      1.78553583
H      -0.00529871      2.69620906      1.69352416
H       0.84178767     -0.16256022      2.21459549
H       1.94752150      1.09678105      2.42343671
H       0.48084684      2.20198497      4.24003063
H      -0.47851877      0.73555567      4.20758117
H       1.41976498     -0.62240886      4.89132287
H       2.51259108      0.72352768      4.53390290
H       3.78229555      0.34901146      8.56708960
H       2.01673437      0.23719791      8.91096726
H       2.88667785      1.78526646      8.45099176
23
Frame 280  Energy = -425.8847809061 Hartree
C       0.36327713      1.23006937      0.15908075
C      -0.05030842      1.60275042      1.58859027
C       0.90076816      0.85346681      2.56060126
C       0.51075928      1.12067375      4.00341018
C       1.52916303      0.45631206      4.92973765
C       1.59017066      0.78898116      6.39624036
O       0.65609713      1.32429176      6.93198469
O       2.69997359      0.37289621      6.93747559
C       2.84682983      0.69708474      8.33159890
H      -0.36176823      1.68436681     -0.55801880
H       1.37970556      1.51083557     -0.04941430
H       0.30922265      0.16695345      0.07432706
H      -1.08627932      1.34361202      1.78259035
H      -0.00426292      2.70544969      1.69372956
H       0.83427211     -0.16483834      2.20897130
H       1.93486809      1.09980958      2.42910994
H       0.48674899      2.20156828      4.24077351
H      -0.47730845      0.73601949      4.20428284
H       1.42140457     -0.62409219      4.89428357
H       2.51226004      0.71944547      4.52457868
H       3.78353562      0.34337212      8.56590321
H       2.03073998      0.24194364      8.91467158
H       2.87939047      1.77951618      8.44921760
23
Frame 285  Energy = -425.8849426647 Hartree
C       0.36547299      1.23146784      0.15884988
C      -0.05135509      1.60252708      1.59078740
C       0.90190896      0.85264033      2.56243468
C       0.51063063      1.11998216      4.00568267
C       1.53162581      0.45360805      4.92806723
C       1.58908392      0.78833697      6.39710228
O       0.65368963      1.32335068      6.93343363
O       2.70214735      0.37296080      6.93564726
C       2.84621430      0.69714756      8.33014951
H      -0.35930005      1.67834660     -0.56319986
H       1.37657680      1.51634113     -0.04638506
H       0.31173946      0.16861142      0.07442068
H      -1.07822763      1.34808716      1.77972467
H      -0.00293905      2.71340225      1.69448384
H       0.82652525     -0.16898625      2.20475709
H       1.92343272      1.10431734      2.43418475
H       0.49279285      2.19977124      4.24072035
H      -0.47673713      0.73650483      4.20134794
H       1.42363038     -0.62643449      4.89683275
H       2.51214734      0.71451455      4.51574217
H       3.78937972      0.33538561      8.56663979
H       2.04599931      0.24739823      8.91801942
H       2.87111767      1.77383847      8.44740656
23
Frame 290  Energy = -425.8846769500 Hartree
C       0.36733322      1.23297491      0.15858219
C      -0.05199036      1.60256632      1.59279999
C       0.90256436      0.85196102      2.56417800
C       0.51056819      1.11929475      4.00797698
C       1.53431813      0.45089586      4.92628651
C       1.58755952      0.78770396      6.39740719
O       0.65119082      1.32240337      6.93499561
O       2.70445563      0.37306278      6.93400291
C       2.84537449      0.69722266      8.32851101
H      -0.35489600      1.67168185     -0.56769085
H       1.37496359      1.52260813     -0.04396216
H       0.31414292      0.16852816      0.07372280
H      -1.07106206      1.35145774      1.77724500
H      -0.00123140      2.71982313      1.69563682
H       0.81879361     -0.17473705      2.20215263
H       1.91432273      1.11005588      2.43899247
H       0.49900794      2.19663448      4.23995859
H      -0.47687408      0.73707134      4.19832267
H       1.42629262     -0.62923370      4.89902800
H       2.51238306      0.70876775      4.50710029
H       3.79891534      0.32535600      8.56932265
H       2.06159222      0.25326333      8.92147738
H       2.86197775      1.76876943      8.44582690
23
Frame 295  Energy = -425.8846566906 Hartree
C       0.36890031      1.23462716      0.15830235
C      -0.05234492      1.60278429      1.59463044
C       0.90271899      0.85135032      2.56586051
C       0.51058999      1.11853590      4.01044604
C       1.53734043      0.44822732      4.92442035
C       1.58556060      0.78714154      6.39725199
O       0.64873059      1.32148412      6.93682914
O       2.70684126      0.37314203      6.93253757
C       2.84455765      0.69736049      8.32687331
H      -0.34869270      1.66450619     -0.57130105
H       1.37457891      1.52987113     -0.04221271
H       0.31609186      0.16670166      0.07243432
H      -1.06524558      1.35357420      1.77505976
H       0.00110816      2.72401443      1.69698621
H       0.81131696     -0.18167493      2.20108954
H       1.90808831      1.11743871      2.44278250
H       0.50516233      2.19217866      4.23871758
H      -0.47794467      0.73743851      4.19537758
H       1.42919896     -0.63266436      4.90066463
H       2.51274474      0.70231212      4.49859951
H       3.81088752      0.31408995      8.57331486
H       2.07650440      0.25888361      8.92478859
H       2.85216238      1.76464976      8.44465333
23
Frame 300  Energy = -425.8843803556 Hartree
C       0.37015733      1.23644920      0.15805660
C      -0.05228581      1.60318542      1.59624985
C       0.90229304      0.85081251      2.56744313
C       0.51071553      1.11758680      4.01310160
C       1.54053081      0.44562903      4.92253606
C       1.58319159      0.78666731      6.39663550
O       0.64630293      1.32061594      6.93894089
O       2.70930349      0.37317212      6.93129710
C       2.84385207      0.69748774      8.32518670
H      -0.34095343      1.65674091     -0.57460943
H       1.37533704      1.53820478     -0.04064409
H       0.31789955      0.16368830      0.07019006
H      -1.06148285      1.35452220      1.77317685
H       0.00395903      2.72566414      1.69877731
H       0.80404386     -0.18935508      2.20168358
H       1.90503623      1.12671297      2.44594493
H       0.51116432      2.18714125      4.23688550
H      -0.48039849      0.73753614      4.19274066
H       1.43240528     -0.63696340      4.90165548
H       2.51322585      0.69540767      4.49059571
H       3.82414720      0.30210910      8.57799741
H       2.08980230      0.26409336      8.92855818
H       2.84199547      1.76156613      8.44408569
