23
Frame 5  Energy = -425.8871868566 Hartree
C       0.43031034      1.34261846      0.16908140
C      -0.03986578      1.59363635      1.60829042
C       0.85946332      0.83179668      2.59388881
C       0.58254016      1.05870296      4.10129627
C       1.59958119      0.33147321      4.93818427
C       1.57556791      0.68364758      6.37884009
O       0.67529371      1.19107113      6.98299921
O       2.75590940      0.44462897      6.91888579
C       2.88281973      0.67314403      8.29708460
H      -0.29152216      1.79899743     -0.58582544
H       1.37556780      1.79602252     -0.08688438
H       0.44418177      0.31920456     -0.10463772
H      -1.08158725      1.30067398      1.71559702
H      -0.00336530      2.68623276      1.77374905
H       0.69732321     -0.19992217      2.32505807
H       1.88455818      1.13263013      2.45226381
H       0.58923091      2.15103462      4.30025347
H      -0.44530501      0.73621412      4.23610551
H       1.48297584     -0.75493870      4.86421178
H       2.57384627      0.49572322      4.47802338
H       3.85612447      0.29728760      8.48084198
H       2.20095171      0.13882489      8.96098439
H       2.78721561      1.72583129      8.53412252
23
Frame 10  Energy = -425.8874359508 Hartree
C       0.42978523      1.34495494      0.16838680
C      -0.04067015      1.59351698      1.60920306
C       0.86116535      0.83238236      2.59262496
C       0.58178618      1.05763366      4.10185076
C       1.59952119      0.33167718      4.93994237
C       1.57305375      0.68228714      6.37832669
O       0.67600202      1.18819323      6.98184677
O       2.76055873      0.44474000      6.92109889
C       2.88235745      0.67363081      8.29807257
H      -0.28446745      1.80337166     -0.59067991
H       1.37103194      1.79330773     -0.08695433
H       0.44782901      0.31769332     -0.10351475
H      -1.06794051      1.29483743      1.71800442
H      -0.00777507      2.69132585      1.78335333
H       0.69931501     -0.20358177      2.33233493
H       1.87709023      1.12007552      2.44509790
H       0.59165152      2.14801459      4.29882037
H      -0.44596121      0.74558806      4.23134105
H       1.48330903     -0.75399732      4.86698210
H       2.57329309      0.48963039      4.47801471
H       3.87031208      0.29878849      8.48877926
H       2.20454471      0.14003446      8.94759562
H       2.79190850      1.71466451      8.52937092
23
Frame 15  Energy = -425.8871599058 Hartree
C       0.42885679      1.34764666      0.16753467
C      -0.04123738      1.59361237      1.61006029
C       0.86269168      0.83318006      2.59147125
C       0.58088505      1.05692627      4.10194166
C       1.59941926      0.33174126      4.94157987
C       1.57063041      0.68116211      6.37775488
O       0.67650947      1.18528198      6.98083882
O       2.76528588      0.44481500      6.92331315
C       2.88205062      0.67415238      8.29916600
H      -0.27555769      1.80679297     -0.59312304
H       1.36811520      1.79090830     -0.08644172
H       0.45147140      0.31400517     -0.10232351
H      -1.05550293      1.28864374      1.72066062
H      -0.01232363      2.69462153      1.79278434
H       0.70224532     -0.20871156      2.33991366
H       1.87159812      1.10762261      2.43718238
H       0.59474670      2.14364273      4.29758069
H      -0.44683201      0.75475023      4.22854140
H       1.48320659     -0.75273546      4.86996101
H       2.57314396      0.48401266      4.47904921
H       3.88546902      0.30069547      8.49771693
H       2.20655134      0.14080832      8.93355828
H       2.79653166      1.70472640      8.52463679
23
Frame 20  Energy = -425.8869222186 Hartree
C       0.42751359      1.35068695      0.16648636
C      -0.04159253      1.59395033      1.61090810
C       0.86401296      0.83406391      2.59043009
C       0.57980373      1.05646070      4.10160702
C       1.59925292      0.33168815      4.94304569
C       1.56836376      0.68031149      6.37724417
O       0.67697324      1.18234268      6.97996419
O       2.77008160      0.44485210      6.92541513
C       2.88209621      0.67452609      8.30028901
H      -0.26541892      1.80947617     -0.59330452
H       1.36716342      1.78883678     -0.08514313
H       0.45531732      0.30874147     -0.10092269
H      -1.04486106      1.28190939      1.72367045
H      -0.01721221      2.69585350      1.80245541
H       0.70592452     -0.21520466      2.34750194
H       1.86893198      1.09546439      2.42825304
H       0.59826050      2.13833016      4.29658766
H      -0.44821302      0.76335313      4.22731872
H       1.48251877     -0.75112896      4.87354367
H       2.57333355      0.47899194      4.48158353
H       3.90059903      0.30313742      8.50769610
H       2.20709445      0.14026364      8.91979301
H       2.80122688      1.69711831      8.52034453
23
Frame 25  Energy = -425.8869146784 Hartree
C       0.42585354      1.35391806      0.16526695
C      -0.04163801      1.59448009      1.61169574
C       0.86509199      0.83511860      2.58954425
C       0.57859739      1.05620376      4.10092361
C       1.59893212      0.33151668      4.94429497
C       1.56630162      0.67956414      6.37681522
O       0.67727965      1.17942616      6.97915750
O       2.77476187      0.44485289      6.92745362
C       2.88255232      0.67473653      8.30142097
H      -0.25400806      1.81135996     -0.59170455
H       1.36825086      1.78724644     -0.08314624
H       0.45910730      0.30230240     -0.09930037
H      -1.03681422      1.27440906      1.72752827
H      -0.02219262      2.69502195      1.81201602
H       0.71004692     -0.22235929      2.35494009
H       1.86936921      1.08405007      2.41829033
H       0.60231291      2.13217113      4.29592469
H      -0.44998785      0.77129308      4.22768209
H       1.48070005     -0.74922982      4.87755066
H       2.57403919      0.47464677      4.48541918
H       3.91484223      0.30629368      8.51841936
H       2.20542663      0.13801763      8.90665819
H       2.80543903      1.69283718      8.51688655
23
Frame 30  Energy = -425.8868592529 Hartree
C       0.42394854      1.35711905      0.16397825
C      -0.04127655      1.59517066      1.61242242
C       0.86583613      0.83626592      2.58869122
C       0.57728355      1.05612953      4.09980329
C       1.59848909      0.33122452      4.94527435
C       1.56451927      0.67882748      6.37640216
O       0.67736123      1.17661344      6.97857593
O       2.77937787      0.44476461      6.92934305
C       2.88359001      0.67474664      8.30266423
H      -0.24127177      1.81251936     -0.58875655
H       1.37125726      1.78597401     -0.08018665
H       0.46299366      0.29528630     -0.09729114
H      -1.03172260      1.26576511      1.73204169
H      -0.02745186      2.69215817      1.82120615
H       0.71502399     -0.22991693      2.36251219
H       1.87349639      1.07343125      2.40731433
H       0.60683326      2.12565578      4.29585170
H      -0.45250760      0.77826794      4.22998937
H       1.47812557     -0.74760686      4.88152330
H       2.57515627      0.47094367      4.49008084
H       3.92724070      0.31048207      8.52933408
H       2.20141198      0.13411645      8.89440751
H       2.80947159      1.69224917      8.51436235
23
Frame 35  Energy = -425.8868980836 Hartree
C       0.42189408      1.36029003      0.16259495
C      -0.04041920      1.59613766      1.61312025
C       0.86621302      0.83732574      2.58791447
C       0.57598304      1.05621270      4.09827184
C       1.59802888      0.33080484      4.94588985
C       1.56318916      0.67827249      6.37603775
O       0.67721737      1.17394012      6.97817394
O       2.78400059      0.44462829      6.93097736
C       2.88523906      0.67445096      8.30405932
H      -0.22861423      1.81328260     -0.58472812
H       1.37638847      1.78522856     -0.07649234
H       0.46661993      0.28825063     -0.09491586
H      -1.03012522      1.25611630      1.73696836
H      -0.03278022      2.68736842      1.82991263
H       0.72071509     -0.23709726      2.37027693
H       1.88123776      1.06377360      2.39554922
H       0.61159482      2.11929765      4.29642991
H      -0.45618035      0.78415961      4.23439754
H       1.47494484     -0.74652138      4.88566248
H       2.57672796      0.46781910      4.49564657
H       3.93711811      0.31609634      8.54043302
H       2.19506127      0.12859335      8.88325559
H       2.81315973      1.69559250      8.51313000
23
Frame 40  Energy = -425.8866839698 Hartree
C       0.41967380      1.36339319      0.16112189
C      -0.03914287      1.59734615      1.61374729
C       0.86625930      0.83829158      2.58732908
C       0.57477152      1.05637989      4.09637311
C       1.59759990      0.33025882      4.94616179
C       1.56227863      0.67788585      6.37573106
O       0.67678514      1.17127258      6.97789397
O       2.78854749      0.44437230      6.93247274
C       2.88754123      0.67393669      8.30554382
H      -0.21657784      1.81413646     -0.58006019
H       1.38308847      1.78501795     -0.07248166
H       0.46995916      0.28227551     -0.09188688
H      -1.03110393      1.24552538      1.74204051
H      -0.03837457      2.68095492      1.83861285
H       0.72689605     -0.24358960      2.37797340
H       1.89174465      1.05472227      2.38323079
H       0.61675659      2.11355352      4.29743237
H      -0.46090687      0.78910730      4.24006941
H       1.47079166     -0.74600213      4.89023683
H       2.57908912      0.46546554      4.50206343
H       3.94378707      0.32313662      8.55160704
H       2.18659213      0.12112375      8.87321531
H       2.81628540      1.70277331      8.51334359
23
Frame 45  Energy = -425.8854038764 Hartree
C       0.41730256      1.36638232      0.15968102
C      -0.03759729      1.59876497      1.61427822
C       0.86617941      0.83908148      2.58686319
C       0.57348653      1.05651736      4.09417903
C       1.59718466      0.32964133      4.94616235
C       1.56177857      0.67763009      6.37539496
O       0.67616245      1.16867845      6.97767594
O       2.79292284      0.44396806      6.93371536
C       2.89041433      0.67333946      8.30705442
H      -0.20600037      1.81528539     -0.57563580
H       1.39109533      1.78523818     -0.06747528
H       0.47314685      0.27772953     -0.08771857
H      -1.03429059      1.23455490      1.74696219
H      -0.04403053      2.67317406      1.84704198
H       0.73341114     -0.24957813      2.38565575
H       1.90406189      1.04588618      2.37090408
H       0.62248018      2.10841054      4.29878235
H      -0.46628366      0.79324913      4.24701410
H       1.46564469     -0.74615385      4.89515012
H       2.58221403      0.46381788      4.50912697
H       3.94712507      0.33130835      8.56275270
H       2.17645759      0.11241036      8.86444821
H       2.81879682      1.71271492      8.51410649
23
Frame 50  Energy = -425.8853690011 Hartree
C       0.41494747      1.36911409      0.15833744
C      -0.03580185      1.60028829      1.61478479
C       0.86610737      0.83979423      2.58644742
C       0.57221430      1.05666960      4.09166948
C       1.59680869      0.32898845      4.94592558
C       1.56173420      0.67748646      6.37501882
O       0.67528732      1.16622345      6.97758165
O       2.79712474      0.44350499      6.93476431
C       2.89374098      0.67263077      8.30866763
H      -0.19747479      1.81717818     -0.57204074
H       1.39990233      1.78540772     -0.06138962
H       0.47602150      0.27488206     -0.08276237
H      -1.03943457      1.22352782      1.75214594
H      -0.04955209      2.66470482      1.85527929
H       0.74041294     -0.25454023      2.39339327
H       1.91728311      1.03730875      2.35870627
H       0.62863144      2.10459849      4.30066296
H      -0.47171090      0.79647142      4.25512043
H       1.45987179     -0.74692247      4.89999665
H       2.58578209      0.46280743      4.51689650
H       3.94672375      0.34033041      8.57357581
H       2.16462924      0.10280631      8.85709836
H       2.82057460      1.72429515      8.51597810
23
Frame 55  Energy = -425.8851150638 Hartree
C       0.41277446      1.37154202      0.15701163
C      -0.03384674      1.60171179      1.61531839
C       0.86603877      0.84026950      2.58603429
C       0.57085597      1.05681088      4.08879455
C       1.59633729      0.32824677      4.94548604
C       1.56211699      0.67733092      6.37466411
O       0.67408104      1.16386719      6.97775300
O       2.80114792      0.44301676      6.93565796
C       2.89751882      0.67189880      8.31042930
H      -0.19156235      1.82014535     -0.56995633
H       1.40893190      1.78479253     -0.05445811
H       0.47858247      0.27415009     -0.07725980
H      -1.04577365      1.21260302      1.75693639
H      -0.05509120      2.65597077      1.86351618
H       0.74769775     -0.25810641      2.40103589
H       1.93030073      1.02913272      2.34695052
H       0.63524644      2.10236447      4.30276262
H      -0.47674529      0.79871255      4.26458226
H       1.45355871     -0.74837690      4.90462259
H       2.58981034      0.46207728      4.52541028
H       3.94264129      0.35043851      8.58409994
H       2.15226414      0.09303496      8.85067857
H       2.82157862      1.73685028      8.51890050
23
Frame 60  Energy = -425.8847870615 Hartree
C       0.41093834      1.37371324      0.15582824
C      -0.03190977      1.60304296      1.61585887
C       0.86605190      0.84051807      2.58566056
C       0.56949923      1.05684243      4.08567442
C       1.59574426      0.32743597      4.94483803
C       1.56297506      0.67719793      6.37431905
O       0.67266661      1.16153117      6.97815647
O       2.80501447      0.44239924      6.93646936
C       2.90158718      0.67121101      8.31238832
H      -0.18841035      1.82450112     -0.56987346
H       1.41778600      1.78383468     -0.04673652
H       0.48095762      0.27559657     -0.07123547
H      -1.05241514      1.20220109      1.76148589
H      -0.06052607      2.64780536      1.87183311
H       0.75528728     -0.26036833      2.40828878
H       1.94214562      1.02076979      2.33555472
H       0.64203880      2.10146354      4.30518700
H      -0.48087562      0.80028169      4.27487955
H       1.44683874     -0.75033698      4.90902797
H       2.59355332      0.46188580      4.53505666
H       3.93548317      0.36127807      8.59427016
H       2.13956685      0.08373066      8.84453887
H       2.82207936      1.74952149      8.52242726
23
Frame 65  Energy = -425.8844130362 Hartree
C       0.40947185      1.37562694      0.15478214
C      -0.03010753      1.60425314      1.61651271
C       0.86624544      0.84053571      2.58516031
C       0.56806368      1.05687931      4.08231716
C       1.59501894      0.32650328      4.94400921
C       1.56429532      0.67704592      6.37410932
O       0.67104723      1.15920703      6.97863303
O       2.80874593      0.44169862      6.93708433
C       2.90572361      0.67057737      8.31457172
H      -0.18834224      1.83063853     -0.57201999
H       1.42607274      1.78244935     -0.03800207
H       0.48304664      0.27915541     -0.06451609
H      -1.05821308      1.19226684      1.76549025
H      -0.06604871      2.64100602      1.88025165
H       0.76238323     -0.26105514      2.41499485
H       1.95233001      1.01263268      2.32493585
H       0.64862378      2.10203169      4.30797454
H      -0.48415861      0.80096102      4.28589456
H       1.43972290     -0.75275067      4.91311406
H       2.59747573      0.46228689      4.54533478
H       3.92598831      0.37240470      8.60408045
H       2.12753048      0.07537557      8.83846370
H       2.82129383      1.76160103      8.52620710
23
Frame 70  Energy = -425.8819201413 Hartree
C       0.40844082      1.37737728      0.15390769
C      -0.02846262      1.60515841      1.61719213
C       0.86663741      0.84034605      2.58457532
C       0.56653321      1.05686501      4.07882228
C       1.59422476      0.32548823      4.94282199
C       1.56610612      0.67689247      6.37400918
O       0.66925439      1.15690844      6.97912403
O       2.81242205      0.44098177      6.93747059
C       2.90994222      0.67001583      8.31687948
H      -0.19119185      1.83865479     -0.57657830
H       1.43325875      1.78061558     -0.02783627
H       0.48440426      0.28496062     -0.05732911
H      -1.06277684      1.18316891      1.76868943
H      -0.07111619      2.63602345      1.88839288
H       0.76927626     -0.25997683      2.42110948
H       1.96013645      1.00487500      2.31521658
H       0.65502614      2.10444190      4.31090005
H      -0.48646773      0.80087610      4.29741580
H       1.43214077     -0.75555641      4.91696215
H       2.60188553      0.46332596      4.55604477
H       3.91499284      0.38313177      8.61338831
H       2.11700414      0.06842735      8.83218501
H       2.81964080      1.77195546      8.52977136
23
Frame 75  Energy = -425.8847576996 Hartree
C       0.40774365      1.37904190      0.15311006
C      -0.02697848      1.60576136      1.61780820
C       0.86720401      0.84005028      2.58389824
C       0.56503303      1.05679515      4.07526114
C       1.59337585      0.32436296      4.94139258
C       1.56838648      0.67677903      6.37400929
O       0.66730865      1.15471605      6.97966012
O       2.81603628      0.44022330      6.93770804
C       2.91413429      0.66968930      8.31925733
H      -0.19649102      1.84798765     -0.58280426
H       1.43908749      1.77787661     -0.01660625
H       0.48504275      0.29278381     -0.05028773
H      -1.06589808      1.17549170      1.77108992
H      -0.07550973      2.63291067      1.89653664
H       0.77602393     -0.25737638      2.42681820
H       1.96483842      0.99777641      2.30645053
H       0.66137883      2.10818707      4.31417577
H      -0.48734681      0.80002692      4.30899563
H       1.42445110     -0.75867723      4.92040089
H       2.60631248      0.46476868      4.56705484
H       3.90372521      0.39342271      8.62298674
H       2.10869648      0.06331912      8.82570927
H       2.81720973      1.77967001      8.53356142
23
Frame 80  Energy = -425.8850207953 Hartree
C       0.40730006      1.38066433      0.15240914
C      -0.02570419      1.60601512      1.61841189
C       0.86789378      0.83962217      2.58325463
C       0.56354146      1.05673536      4.07167278
C       1.59249822      0.32309990      4.93983257
C       1.57098125      0.67673500      6.37411943
O       0.66519864      1.15255829      6.98029685
O       2.81951234      0.43942470      6.93772667
C       2.91814551      0.66961045      8.32174371
H      -0.20342244      1.85778316     -0.59036842
H       1.44310549      1.77423686     -0.00494720
H       0.48523352      0.30197815     -0.04342397
H      -1.06669697      1.16956621      1.77295951
H      -0.07975839      2.63191863      1.90470310
H       0.78264403     -0.25341487      2.43223033
H       1.96659573      0.99173450      2.29957889
H       0.66799559      2.11290027      4.31774648
H      -0.48627675      0.79928508      4.32028909
H       1.41692476     -0.76203990      4.92348885
H       2.61037864      0.46643456      4.57812009
H       3.89315681      0.40263958      8.63316797
H       2.10281407      0.06048435      8.81881811
H       2.81406184      1.78453335      8.53717230
23
Frame 85  Energy = -425.8856429949 Hartree
C       0.40706266      1.38234256      0.15180225
C      -0.02470474      1.60587264      1.61893817
C       0.86890205      0.83903735      2.58261417
C       0.56214334      1.05667128      4.06801940
C       1.59155164      0.32166967      4.93811334
C       1.57388014      0.67679318      6.37439218
O       0.66297699      1.15043612      6.98108159
O       2.82280668      0.43868214      6.93755252
C       2.92172623      0.66980751      8.32443554
H      -0.21111253      1.86760511     -0.59840671
H       1.44555925      1.77014261      0.00668069
H       0.48463448      0.31190316     -0.03687394
H      -1.06525000      1.16512021      1.77405331
H      -0.08382555      2.63291561      1.91280959
H       0.78853913     -0.24861055      2.43696680
H       1.96479220      0.98662156      2.29459116
H       0.67468125      2.11818108      4.32102275
H      -0.48338239      0.79861965      4.33132887
H       1.40950321     -0.76535925      4.92604441
H       2.61424225      0.46823181      4.58880881
H       3.88463989      0.41043896      8.64425616
H       2.09987053      0.06002424      8.81153043
H       2.81041103      1.78613724      8.54061407
23
Frame 90  Energy = -425.8854063331 Hartree
C       0.40699433      1.38414547      0.15126611
C      -0.02394238      1.60540656      1.61945000
C       0.87022715      0.83824742      2.58192165
C       0.56087919      1.05674649      4.06433594
C       1.59048065      0.31995331      4.93620897
C       1.57713911      0.67702345      6.37478844
O       0.66067315      1.14827842      6.98198814
O       2.82594867      0.43798932      6.93728385
C       2.92479937      0.67027283      8.32720747
H      -0.21916890      1.87729859     -0.60595418
H       1.44631138      1.76589495      0.01890205
H       0.48322108      0.32184887     -0.03082761
H      -1.06128029      1.16235432      1.77416709
H      -0.08775772      2.63602357      1.92075287
H       0.79357623     -0.24355225      2.44113308
H       1.95962800      0.98212234      2.29115699
H       0.68104306      2.12313199      4.32387372
H      -0.47893102      0.79761544      4.34164815
H       1.40186395     -0.76815327      4.92765146
H       2.61797060      0.47020639      4.59908450
H       3.87923164      0.41674532      8.65622436
H       2.09978114      0.06240205      8.80388703
H       2.80612016      1.78403812      8.54409574
23
Frame 95  Energy = -425.8855262091 Hartree
C       0.40709601      1.38613185      0.15087534
C      -0.02346448      1.60456183      1.61997091
C       0.87177600      0.83725898      2.58117465
C       0.55976838      1.05704289      4.06080531
C       1.58933936      0.31810512      4.93413994
C       1.58062634      0.67741535      6.37530968
O       0.65839660      1.14612267      6.98294245
O       2.82891953      0.43731979      6.93687754
C       2.92735063      0.67099762      8.33008759
H      -0.22699817      1.88617519     -0.61237803
H       1.44558206      1.76146921      0.03148110
H       0.48118077      0.33116431     -0.02495923
H      -1.05489894      1.16164472      1.77353935
H      -0.09150680      2.64046584      1.92822700
H       0.79748817     -0.23882187      2.44474665
H       1.95175586      0.97907376      2.28930517
H       0.68661761      2.12759439      4.32621677
H      -0.47268519      0.79639323      4.35111156
H       1.39446770     -0.77025946      4.92863451
H       2.62144417      0.47197895      4.60886941
H       3.87759087      0.42119479      8.66874953
H       2.10254338      0.06722637      8.79575507
H       2.80150182      1.77840108      8.54733132
23
Frame 100  Energy = -425.8853120241 Hartree
C       0.40727767      1.38826683      0.15055977
C      -0.02324228      1.60343299      1.62036579
C       0.87343364      0.83617711      2.58042289
C       0.55892269      1.05758013      4.05726898
C       1.58812901      0.31615127      4.93192786
C       1.58422800      0.67794425      6.37591104
O       0.65616615      1.14394097      6.98393731
O       2.83181256      0.43667191      6.93635072
C       2.92934388      0.67211310      8.33310657
H      -0.23395949      1.89393757     -0.61697798
H       1.44390838      1.75694737      0.04447906
H       0.47871430      0.33910762     -0.01976844
H      -1.04627683      1.16244065      1.77213843
H      -0.09514201      2.64580334      1.93474298
H       0.80053048     -0.23443146      2.44788649
H       1.94153943      0.97732317      2.28901658
H       0.69180024      2.13107199      4.32744443
H      -0.46513137      0.79485898      4.35950955
H       1.38766834     -0.77180515      4.92915426
H       2.62460267      0.47338381      4.61804218
H       3.87985530      0.42345337      8.68193196
H       2.10789119      0.07378531      8.78796610
H       2.79655557      1.76944543      8.55017944
23
Frame 105  Energy = -425.8850916407 Hartree
C       0.40755044      1.39070059      0.15027161
C      -0.02321720      1.60209130      1.62068199
C       0.87516264      0.83508041      2.57969369
C       0.55825689      1.05833263      4.05379840
C       1.58687556      0.31401909      4.92962317
C       1.58796732      0.67857671      6.37658444
O       0.65401207      1.14172563      6.98498243
O       2.83453072      0.43612855      6.93567057
C       2.93082467      0.67359378      8.33613413
H      -0.23983197      1.90026574     -0.61961214
H       1.44141061      1.75270335      0.05731143
H       0.47560425      0.34461385     -0.01565054
H      -1.03633757      1.16428018      1.77043060
H      -0.09822078      2.65147930      1.94058382
H       0.80248987     -0.23086548      2.45053083
H       1.92975453      0.97682492      2.29022050
H       0.69649250      2.13326721      4.32782175
H      -0.45656959      0.79309409      4.36680603
H       1.38148242     -0.77260287      4.92873948
H       2.62707711      0.47444456      4.62655630
H       3.88554769      0.42359628      8.69551056
H       2.11510113      0.08179140      8.78101949
H       2.79102117      1.75789586      8.55303345
23
Frame 110  Energy = -425.8850005255 Hartree
C       0.40785619      1.39346930      0.15005921
C      -0.02332807      1.60068298      1.62103377
C       0.87702641      0.83402555      2.57896987
C       0.55778537      1.05930183      4.05061777
C       1.58552608      0.31167592      4.92722197
C       1.59185315      0.67942345      6.37741202
O       0.65194600      1.13951446      6.98611866
O       2.83715580      0.43560315      6.93489730
C       2.93186598      0.67531741      8.33910114
H      -0.24410620      1.90527277     -0.61990287
H       1.43854528      1.74880661      0.06985868
H       0.47213346      0.34802251     -0.01294828
H      -1.02544344      1.16715980      1.76810102
H      -0.10062129      2.65678945      1.94554276
H       0.80320016     -0.22855623      2.45210849
H       1.91741063      0.97794834      2.29287043
H       0.70048814      2.13380957      4.32695421
H      -0.44747229      0.79130968      4.37355659
H       1.37592519     -0.77245274      4.92782437
H       2.62881285      0.47511074      4.63448758
H       3.89396865      0.42204669      8.70948408
H       2.12387079      0.09074757      8.77488386
H       2.78486954      1.74464991      8.55576714
23
Frame 115  Energy = -425.8849439892 Hartree
C       0.40810737      1.39667241      0.14993569
C      -0.02357878      1.59915658      1.62136515
C       0.87878375      0.83298241      2.57822823
C       0.55756751      1.06054382      4.04778448
C       1.58424386      0.30925755      4.92479263
C       1.59583622      0.68031660      6.37844423
O       0.65000224      1.13729313      6.98721676
O       2.83962028      0.43515046      6.93402046
C       2.93260153      0.67706022      8.34196760
H      -0.24667979      1.90859182     -0.61800260
H       1.43569586      1.74515956      0.08170808
H       0.46796636      0.34908872     -0.01166689
H      -1.01400037      1.17070673      1.76542302
H      -0.10251149      2.66110879      1.94927599
H       0.80276677     -0.22793486      2.45221397
H       1.90559299      0.98047378      2.29667227
H       0.70389266      2.13270467      4.32481591
H      -0.43849679      0.78939053      4.37946961
H       1.37131126     -0.77139426      4.92634563
H       2.62983163      0.47518577      4.64166488
H       3.90409639      0.41932200      8.72331023
H       2.13347018      0.09995332      8.76999949
H       2.77816413      1.73059855      8.55866932
23
Frame 120  Energy = -425.8850816357 Hartree
C       0.40830135      1.40015791      0.14990799
C      -0.02380428      1.59760294      1.62173289
C       0.88051148      0.83199458      2.57750239
C       0.55775216      1.06202672      4.04518950
C       1.58302254      0.30676850      4.92241751
C       1.59979517      0.68132638      6.37967765
O       0.64820587      1.13502015      6.98818671
O       2.84198723      0.43472587      6.93308375
C       2.93316319      0.67886521      8.34479537
H      -0.24749474      1.91022969     -0.61399506
H       1.43308846      1.74199702      0.09249288
H       0.46299945      0.34795864     -0.01146729
H      -1.00298593      1.17449666      1.76276815
H      -0.10346945      2.66392555      1.95181280
H       0.80118023     -0.22920618      2.45099982
H       1.89517671      0.98462300      2.30114580
H       0.70650624      2.13001900      4.32168111
H      -0.42978859      0.78712884      4.38468712
H       1.36727388     -0.77004748      4.92444167
H       2.62992462      0.47516112      4.64775862
H       3.91505365      0.41516716      8.73620546
H       2.14251545      0.10846823      8.76664614
H       2.77102391      1.71683411      8.56139741
23
Frame 125  Energy = -425.8849203225 Hartree
C       0.40846348      1.40379399      0.14996924
C      -0.02406215      1.59616177      1.62205794
C       0.88205047      0.83094444      2.57687558
C       0.55837494      1.06374108      4.04282444
C       1.58176460      0.30420780      4.92008350
C       1.60361071      0.68256208      6.38114363
O       0.64657607      1.13267763      6.98911330
O       2.84422370      0.43430924      6.93218647
C       2.93366427      0.68066584      8.34757093
H      -0.24603220      1.91060860     -0.60773218
H       1.43120365      1.73973878      0.10231592
H       0.45756604      0.34514908     -0.01239953
H      -0.99319196      1.17813084      1.75992660
H      -0.10384208      2.66535477      1.95325166
H       0.79811107     -0.23227406      2.44875172
H       1.88711541      0.99072990      2.30617032
H       0.70803104      2.12589847      4.31773021
H      -0.42175121      0.78461963      4.38893036
H       1.36387251     -0.76835656      4.92204617
H       2.62945428      0.47447521      4.65219394
H       3.92573789      0.41023254      8.74788163
H       2.15017866      0.11634464      8.76540222
H       2.76338257      1.70473664      8.56388231
23
Frame 130  Energy = -425.8850148691 Hartree
C       0.40843049      1.40756045      0.15015464
C      -0.02433239      1.59490374      1.62240641
C       0.88331333      0.82988898      2.57629233
C       0.55940927      1.06566556      4.04074498
C       1.58055335      0.30166275      4.91778371
C       1.60723144      0.68395296      6.38285566
O       0.64515542      1.13027740      6.98997933
O       2.84640743      0.43388395      6.93130155
C       2.93431449      0.68229554      8.35032031
H      -0.24266850      1.91005701     -0.59955345
H       1.43033508      1.73887547      0.11094630
H       0.45150480      0.34150132     -0.01416212
H      -0.98548032      1.18156523      1.75717320
H      -0.10386312      2.66505549      1.95339055
H       0.79388424     -0.23691207      2.44532985
H       1.88197047      0.99865172      2.31180016
H       0.70867138      2.12092234      4.31266493
H      -0.41504845      0.78197843      4.39214846
H       1.36117186     -0.76634725      4.91908749
H       2.62868639      0.47299022      4.65505926
H       3.93503885      0.40490010      8.75789004
H       2.15594077      0.12273266      8.76660780
H       2.75527487      1.69531726      8.56666123
23
Frame 135  Energy = -425.8839476547 Hartree
C       0.40829884      1.41141376      0.15049601
C      -0.02457052      1.59378717      1.62277723
C       0.88430173      0.82877237      2.57579887
C       0.56083069      1.06773769      4.03890323
C       1.57936231      0.29918903      4.91554052
C       1.61067819      0.68552522      6.38483245
O       0.64400283      1.12785360      6.99080336
O       2.84846752      0.43352785      6.93041256
C       2.93517929      0.68368997      8.35288438
H      -0.23752723      1.90863847     -0.58986546
H       1.43053679      1.73890763      0.11841806
H       0.44552331      0.33716588     -0.01698271
H      -0.98056172      1.18411518      1.75479532
H      -0.10327819      2.66281224      1.95210978
H       0.78871564     -0.24303416      2.44072963
H       1.88069678      1.00841456      2.31743285
H       0.70867034      2.11531776      4.30665954
H      -0.40982325      0.77912472      4.39440016
H       1.35925106     -0.76461167      4.91578010
H       2.62726395      0.47076154      4.65627430
H       3.94232030      0.39921264      8.76606602
H       2.15937030      0.12722526      8.77045516
H       2.74690942      1.68941295      8.56971177
23
Frame 140  Energy = -425.8838265601 Hartree
C       0.40814657      1.41536232      0.15098321
C      -0.02462138      1.59276446      1.62318525
C       0.88488428      0.82758720      2.57540973
C       0.56265285      1.06998288      4.03731361
C       1.57831568      0.29686713      4.91339548
C       1.61394491      0.68728466      6.38682083
O       0.64312132      1.12538080      6.99157735
O       2.85040453      0.43327779      6.92954581
C       2.93632564      0.68485563      8.35531542
H      -0.23122054      1.90692715     -0.57890643
H       1.43172741      1.73969759      0.12450759
H       0.43909623      0.33269329     -0.02078369
H      -0.97915815      1.18561679      1.75274295
H      -0.10228309      2.65883012      1.94940534
H       0.78256749     -0.25041205      2.43485624
H       1.88354210      1.01998073      2.32318458
H       0.70810159      2.10946888      4.29976884
H      -0.40609722      0.77591615      4.39551809
H       1.35781111     -0.76355159      4.91178435
H       2.62519892      0.46789351      4.65584508
H       3.94697126      0.39349962      8.77237279
H       2.16044866      0.12939090      8.77722071
H       2.73820084      1.68740124      8.57314356
23
Frame 145  Energy = -425.8830743825 Hartree
C       0.40799499      1.41925253      0.15173867
C      -0.02441984      1.59187916      1.62357587
C       0.88508843      0.82629986      2.57501919
C       0.56479558      1.07225022      4.03597556
C       1.57738997      0.29461751      4.91140397
C       1.61706908      0.68917750      6.38885449
O       0.64245368      1.12287923      6.99233201
O       2.85217030      0.43311812      6.92868527
C       2.93773775      0.68581480      8.35762775
H      -0.22481350      1.90512068     -0.56731515
H       1.43409661      1.74136765      0.12923618
H       0.43209379      0.32905773     -0.02511396
H      -0.98165238      1.18584836      1.75083478
H      -0.10058920      2.65326193      1.94524530
H       0.77543253     -0.25810832      2.42842528
H       1.89007258      1.03286295      2.32868875
H       0.70724608      2.10454650      4.29258824
H      -0.40410617      0.77272188      4.39558575
H       1.35650412     -0.76371862      4.90727603
H       2.62283849      0.46450466      4.65338488
H       3.94858577      0.38787187      8.77633654
H       2.15903214      0.12922735      8.78642059
H       2.72936979      1.68926934      8.57708942
23
Frame 150  Energy = -425.8830248364 Hartree
C       0.40798079      1.42288154      0.15285803
C      -0.02399205      1.59109560      1.62396764
C       0.88494338      0.82493270      2.57462505
C       0.56730819      1.07431697      4.03491760
C       1.57653488      0.29239419      4.90954309
C       1.61987590      0.69108740      6.39094339
O       0.64202470      1.12031362      6.99303233
O       2.85384304      0.43308607      6.92788840
C       2.93949646      0.68658585      8.35985077
H      -0.21856610      1.90409530     -0.55620668
H       1.43760508      1.74398980      0.13251253
H       0.42461666      0.32615932     -0.03000103
H      -0.98779363      1.18501019      1.74893044
H      -0.09845464      2.64645800      1.93994496
H       0.76798777     -0.26547544      2.42103337
H       1.89957917      1.04682659      2.33451487
H       0.70623666      2.10129915      4.28525979
H      -0.40354966      0.76952756      4.39467828
H       1.35532564     -0.76500639      4.90232360
H       2.62015271      0.46085364      4.64879303
H       3.94713616      0.38262936      8.77800159
H       2.15577829      0.12708955      8.79751156
H       2.72086314      1.69506010      8.58133314
23
Frame 155  Energy = -425.8827481078 Hartree
C       0.40828129      1.42623793      0.15431183
C      -0.02340007      1.59043520      1.62427348
C       0.88453523      0.82341322      2.57413060
C       0.57008052      1.07624351      4.03407884
C       1.57570590      0.29027096      4.90793894
C       1.62241946      0.69300711      6.39306950
O       0.64190283      1.11770898      6.99368517
O       2.85546703      0.43313628      6.92707384
C       2.94155513      0.68719972      8.36196327
H      -0.21301394      1.90436802     -0.54640648
H       1.44172154      1.74749905      0.13412886
H       0.41675224      0.32486756     -0.03498004
H      -0.99698772      1.18325675      1.74734297
H      -0.09596216      2.63894874      1.93391817
H       0.76024626     -0.27190711      2.41316486
H       1.91128783      1.06188372      2.34041052
H       0.70523248      2.10004562      4.27800120
H      -0.40404246      0.76644004      4.39277227
H       1.35463963     -0.76713722      4.89722653
H       2.61720590      0.45644572      4.64208334
H       3.94288403      0.37825626      8.77727926
H       2.15113186      0.12359206      8.81021262
H       2.71273222      1.70401293      8.58555469
23
Frame 160  Energy = -425.8828134450 Hartree
C       0.40883208      1.42934154      0.15613130
C      -0.02268587      1.58974574      1.62447535
C       0.88401793      0.82173289      2.57363913
C       0.57307856      1.07796461      4.03346014
C       1.57497196      0.28830191      4.90657015
C       1.62469866      0.69488252      6.39519311
O       0.64207575      1.11506553      6.99419781
O       2.85702802      0.43319594      6.92629831
C       2.94378668      0.68767674      8.36404582
H      -0.20914749      1.90661421     -0.53914683
H       1.44607433      1.75189426      0.13400838
H       0.40872867      0.32550989     -0.04047151
H      -1.00830935      1.18103625      1.74562490
H      -0.09303184      2.63109318      1.92720192
H       0.75276787     -0.27725673      2.40487877
H       1.92376846      1.07732853      2.34663936
H       0.70429682      2.10108322      4.27071655
H      -0.40527828      0.76330070      4.38989172
H       1.35445493     -0.77022787      4.89156367
H       2.61436067      0.45103316      4.63386690
H       3.93585118      0.37446152      8.77461438
H       2.14579960      0.11929696      8.82397191
H       2.70509830      1.71496616      8.58973064
23
Frame 165  Energy = -425.8831310583 Hartree
C       0.40957710      1.43210705      0.15835063
C      -0.02195301      1.58915854      1.62464613
C       0.88348595      0.81994856      2.57312773
C       0.57616709      1.07934701      4.03294600
C       1.57429555      0.28652879      4.90538141
C       1.62669159      0.69664655      6.39737837
O       0.64256550      1.11245925      6.99466067
O       2.85856566      0.43337834      6.92567363
C       2.94603606      0.68796969      8.36616215
H      -0.20740199      1.91114532     -0.53411232
H       1.45048240      1.75669180      0.13270381
H       0.40098020      0.32822780     -0.04609356
H      -1.02100394      1.17859101      1.74409850
H      -0.08989974      2.62345590      1.92031017
H       0.74585382     -0.28114150      2.39647197
H       1.93532354      1.09248613      2.35370205
H       0.70337174      2.10494674      4.26366513
H      -0.40684897      0.76026805      4.38581522
H       1.35445803     -0.77401678      4.88579862
H       2.61168788      0.44496745      4.62462539
H       3.92682664      0.37198310      8.76977319
H       2.14059826      0.11455184      8.83825323
H       2.69781109      1.72702667      8.59368086
23
Frame 170  Energy = -425.8830837592 Hartree
C       0.41064251      1.43445511      0.16096154
C      -0.02117505      1.58858580      1.62491737
C       0.88304364      0.81808148      2.57260698
C       0.57937660      1.08042764      4.03250757
C       1.57373085      0.28494262      4.90431101
C       1.62843105      0.69824730      6.39950927
O       0.64336600      1.10978612      6.99509166
O       2.85996580      0.43369672      6.92511375
C       2.94810072      0.68817828      8.36830549
H      -0.20783464      1.91739985     -0.53110010
H       1.45449846      1.76172457      0.13003972
H       0.39359533      0.33296292     -0.05197674
H      -1.03443939      1.17641152      1.74281889
H      -0.08656602      2.61706820      1.91360533
H       0.73959766     -0.28307238      2.38810591
H       1.94546653      1.10697608      2.36144291
H       0.70254935      2.11154461      4.25753840
H      -0.40884341      0.75758432      4.38030009
H       1.35484770     -0.77834404      4.88000293
H       2.60942749      0.43824889      4.61409301
H       3.91643797      0.37040590      8.76316538
H       2.13623558      0.10952590      8.85265037
H       2.69148440      1.73909846      8.59684493
23
Frame 175  Energy = -425.8818297337 Hartree
C       0.41190449      1.43646810      0.16390413
C      -0.02052000      1.58784405      1.62517551
C       0.88275526      0.81614974      2.57197343
C       0.58266515      1.08116892      4.03229227
C       1.57317576      0.28359782      4.90354698
C       1.62987851      0.69965853      6.40146719
O       0.64444887      1.10705510      6.99551626
O       2.86116047      0.43412909      6.92463647
C       2.94985256      0.68833468      8.37036488
H      -0.21006920      1.92544552     -0.52993292
H       1.45828165      1.76692886      0.12600268
H       0.38657053      0.33990109     -0.05801918
H      -1.04762579      1.17463337      1.74119647
H      -0.08298637      2.61279280      1.90725492
H       0.73402774     -0.28335189      2.37991928
H       1.95351750      1.12023999      2.36974849
H       0.70165394      2.12028558      4.25204647
H      -0.41119176      0.75560169      4.37326330
H       1.35551765     -0.78312172      4.87405105
H       2.60718249      0.43120415      4.60217841
H       3.90549667      0.36963086      8.75548732
H       2.13301791      0.10473323      8.86676335
H       2.68661047      1.74988915      8.59912229
23
Frame 180  Energy = -425.8819204121 Hartree
C       0.41336087      1.43824480      0.16714228
C      -0.02005603      1.58692204      1.62541789
C       0.88259111      0.81419121      2.57127040
C       0.58596591      1.08164335      4.03223459
C       1.57259097      0.28237616      4.90297968
C       1.63108361      0.70098828      6.40330545
O       0.64582907      1.10428023      6.99595111
O       2.86213855      0.43461103      6.92433089
C       2.95113096      0.68855239      8.37242117
H      -0.21378204      1.93518796     -0.53035485
H       1.46158652      1.77230478      0.12051879
H       0.38027474      0.34883172     -0.06441187
H      -1.05954913      1.17403029      1.73950663
H      -0.07896816      2.61055727      1.90122487
H       0.72987233     -0.28154651      2.37144668
H       1.95880605      1.13230248      2.37834277
H       0.70049715      2.13073263      4.24687421
H      -0.41343836      0.75451727      4.36492106
H       1.35651263     -0.78840885      4.86808789
H       2.60515366      0.42404167      4.58887763
H       3.89518496      0.36943643      8.74717569
H       2.13154966      0.10058720      8.87968929
H       2.68361736      1.75846573      8.60049552
23
Frame 185  Energy = -425.8823407253 Hartree
C       0.41497001      1.43974355      0.17057999
C      -0.01982139      1.58576738      1.62561033
C       0.88252332      0.81220090      2.57052428
C       0.58926792      1.08193071      4.03234008
C       1.57201158      0.28134288      4.90257513
C       1.63198500      0.70222136      6.40496634
O       0.64751550      1.10146522      6.99639546
O       2.86299134      0.43519008      6.92415438
C       2.95183097      0.68886541      8.37437785
H      -0.21825710      1.94590948     -0.53190801
H       1.46425735      1.77714621      0.11410919
H       0.37464265      0.35969135     -0.07115622
H      -1.06946513      1.17477053      1.73773253
H      -0.07461251      2.61055422      1.89564940
H       0.72732308     -0.27814470      2.36324771
H       1.96057118      1.14269370      2.38742664
H       0.69911474      2.14207456      4.24239171
H      -0.41504683      0.75429731      4.35520363
H       1.35773474     -0.79351633      4.86238410
H       2.60298511      0.41644460      4.57496353
H       3.88678496      0.36921900      8.73848174
H       2.13251784      0.09727314      8.89115167
H       2.68287128      1.76444757      8.60118151
23
Frame 190  Energy = -425.8825299138 Hartree
C       0.41673739      1.44109413      0.17420718
C      -0.01986361      1.58432182      1.62568730
C       0.88255081      0.81022057      2.56977507
C       0.59244833      1.08201895      4.03258424
C       1.57148008      0.28053365      4.90241364
C       1.63256861      0.70330300      6.40632812
O       0.64949192      1.09862799      6.99685788
O       2.86379008      0.43584730      6.92414725
C       2.95184833      0.68934159      8.37620203
H      -0.22297283      1.95738566     -0.53418324
H       1.46577130      1.78138260      0.10676660
H       0.36940363      0.37186340     -0.07820590
H      -1.07691664      1.17680151      1.73601016
H      -0.06977318      2.61286003      1.89080099
H       0.72622174     -0.27308967      2.35511727
H       1.95890522      1.15115483      2.39670869
H       0.69721272      2.15354302      4.23822958
H      -0.41609913      0.75526936      4.34435310
H       1.35923709     -0.79804396      4.85700160
H       2.60079358      0.40834751      4.56050078
H       3.88121246      0.36857071      8.72983109
H       2.13587922      0.09527868      8.90099261
H       2.68422440      1.76746439      8.60097709
23
Frame 195  Energy = -425.8846116713 Hartree
C       0.41854433      1.44235074      0.17788577
C      -0.02018809      1.58258796      1.62578725
C       0.88270677      0.80842074      2.56906546
C       0.59560655      1.08198380      4.03305720
C       1.57108072      0.27989240      4.90243940
C       1.63291091      0.70415457      6.40739398
O       0.65167305      1.09575250      6.99730667
O       2.86444095      0.43653891      6.92432138
C       2.95114023      0.68993935      8.37807683
H      -0.22748142      1.96927857     -0.53617454
H       1.46618705      1.78572606      0.09871612
H       0.36492383      0.38457870     -0.08540233
H      -1.08187932      1.17997654      1.73412369
H      -0.06488360      2.61690327      1.88682658
H       0.72605704     -0.26629992      2.34736119
H       1.95380942      1.15749610      2.40606039
H       0.69526800      2.16434995      4.23424963
H      -0.41657450      0.75731514      4.33273055
H       1.36069703     -0.80148758      4.85197072
H       2.59865892      0.39950281      4.54541633
H       3.87904365      0.36742056      8.72169311
H       2.14163016      0.09445926      8.90893091
H       2.68748586      1.76725334      8.59990099
23
Frame 200  Energy = -425.8801673339 Hartree
C       0.42040432      1.44357038      0.18147148
C      -0.02074386      1.58070683      1.62586442
C       0.88297309      0.80678746      2.56830730
C       0.59873394      1.08183099      4.03363785
C       1.57086057      0.27930225      4.90265213
C       1.63305463      0.70475953      6.40820740
O       0.65395990      1.09285320      6.99784048
O       2.86492894      0.43728310      6.92462973
C       2.94968855      0.69070670      8.37996869
H      -0.23132042      1.98149422     -0.53739523
H       1.46567621      1.78986878      0.08996465
H       0.36089917      0.39740698     -0.09309397
H      -1.08432505      1.18405494      1.73187124
H      -0.06031231      2.62268706      1.88355241
H       0.72726279     -0.25868376      2.33961382
H       1.94572763      1.16158823      2.41532482
H       0.69313157      2.17393353      4.23029176
H      -0.41647905      0.76040491      4.32035210
H       1.36207360     -0.80375093      4.84758065
H       2.59612913      0.39026568      4.52974689
H       3.88072706      0.36541654      8.71414117
H       2.14973086      0.09497232      8.91523522
H       2.69227027      1.76433616      8.59801826
23
Frame 205  Energy = -425.8803756576 Hartree
C       0.42229318      1.44480526      0.18485550
C      -0.02153480      1.57873592      1.62590450
C       0.88330593      0.80537946      2.56763718
C       0.60179956      1.08164119      4.03432225
C       1.57082218      0.27878510      4.90300018
C       1.63304544      0.70509039      6.40866464
O       0.65639419      1.08995830      6.99836321
O       2.86516261      0.43809394      6.92509255
C       2.94756740      0.69163054      8.38173823
H      -0.23395794      1.99392406     -0.53753470
H       1.46412829      1.79368455      0.08066977
H       0.35751919      0.40986504     -0.10142292
H      -1.08390487      1.18937821      1.72957603
H      -0.05588717      2.62961750      1.88099819
H       0.72990934     -0.25073570      2.33210498
H       1.93546860      1.16383985      2.42452700
H       0.69069692      2.18159212      4.22630041
H      -0.41577240      0.76442009      4.30724811
H       1.36307265     -0.80490542      4.84381564
H       2.59321271      0.38119256      4.51407083
H       3.88624324      0.36246851      8.70726177
H       2.15971601      0.09672431      8.91986762
H       2.69880308      1.75940384      8.59563400
23
Frame 210  Energy = -425.8796230759 Hartree
C       0.42404933      1.44610601      0.18820181
C      -0.02254412      1.57671417      1.62587218
C       0.88369384      0.80415418      2.56696979
C       0.60470473      1.08143960      4.03511159
C       1.57096689      0.27834801      4.90353757
C       1.63299157      0.70513915      6.40878343
O       0.65907012      1.08713139      6.99895903
O       2.86528824      0.43906491      6.92574507
C       2.94492525      0.69256608      8.38340977
H      -0.23541644      2.00587352     -0.53591611
H       1.46132681      1.79674841      0.07100272
H       0.35461571      0.42119587     -0.11010125
H      -1.08068411      1.19581090      1.72724559
H      -0.05179167      2.63709045      1.87904592
H       0.73394417     -0.24332088      2.32446438
H       1.92322964      1.16440873      2.43349285
H       0.68818426      2.18662360      4.22254985
H      -0.41453983      0.76888232      4.29349891
H       1.36353210     -0.80513106      4.84061935
H       2.58989186      0.37245425      4.49870781
H       3.89484801      0.35930361      8.70071638
H       2.17173059      0.09954344      8.92237954
H       2.70691127      1.75291775      8.59282797
23
Frame 215  Energy = -425.8795331498 Hartree
C       0.42569214      1.44755561      0.19155604
C      -0.02377098      1.57480105      1.62575746
C       0.88404655      0.80313030      2.56636652
C       0.60747907      1.08129506      4.03594271
C       1.57126984      0.27801844      4.90421625
C       1.63289972      0.70490494      6.40867020
O       0.66189958      1.08438264      6.99970029
O       2.86519449      0.44017718      6.92660859
C       2.94191190      0.69353840      8.38489689
H      -0.23539811      2.01711167     -0.53202435
H       1.45778462      1.79924668      0.06137166
H       0.35215956      0.43060020     -0.11922662
H      -1.07527149      1.20322516      1.72483276
H      -0.04780073      2.64445090      1.87779038
H       0.73929165     -0.23729240      2.31651477
H       1.90977684      1.16361130      2.44133654
H       0.68558283      2.18914069      4.21884506
H      -0.41312244      0.77420723      4.27964304
H       1.36374619     -0.80477585      4.83835009
H       2.58596302      0.36406986      4.48351071
H       3.90606564      0.35614350      8.69445590
H       2.18514643      0.10277997      8.92357521
H       2.71609834      1.74536505      8.58978552
23
Frame 220  Energy = -425.8792723777 Hartree
C       0.42722533      1.44916127      0.19479297
C      -0.02516081      1.57302837      1.62564824
C       0.88433219      0.80232805      2.56585951
C       0.61012250      1.08112168      4.03676525
C       1.57170883      0.27782060      4.90490931
C       1.63277939      0.70439345      6.40814544
O       0.66467546      1.08162615      7.00048372
O       2.86493007      0.44136089      6.92772350
C       2.93860110      0.69455430      8.38619030
H      -0.23365480      2.02753816     -0.52599587
H       1.45384429      1.80152252      0.05143784
H       0.35049916      0.43783649     -0.12917934
H      -1.06818128      1.21121026      1.72214579
H      -0.04363452      2.65114809      1.87662964
H       0.74576224     -0.23272142      2.30861740
H       1.89584847      1.16151126      2.44774146
H       0.68312665      2.18872573      4.21534630
H      -0.41172190      0.78050820      4.26606563
H       1.36400184     -0.80330213      4.83683001
H       2.58152904      0.35612930      4.46881371
H       3.91894403      0.35311537      8.68819073
H       2.19919030      0.10625853      8.92344539
H       2.72613575      1.73751936      8.58669213
23
Frame 225  Energy = -425.8793928261 Hartree
C       0.42862917      1.45093741      0.19781326
C      -0.02672305      1.57146505      1.62563663
C       0.88453102      0.80172610      2.56554270
C       0.61254937      1.08083351      4.03762753
C       1.57243419      0.27765819      4.90558440
C       1.63277062      0.70368978      6.40724464
O       0.66743101      1.07885912      7.00142246
O       2.86450595      0.44263585      6.92904476
C       2.93515744      0.69547424      8.38718614
H      -0.23040408      2.03684485     -0.51817189
H       1.44973569      1.80342376      0.04131212
H       0.34893179      0.44303564     -0.13951737
H      -1.05980537      1.22003191      1.71944053
H      -0.03934852      2.65669950      1.87578687
H       0.75317399     -0.22984696      2.30099805
H       1.88316613      1.15850294      2.45242003
H       0.68078561      2.18547535      4.21185533
H      -0.41075018      0.78727205      4.25292374
H       1.36394746     -0.80077211      4.83595950
H       2.57682088      0.34864024      4.45493785
H       3.93241144      0.35076926      8.68153578
H       2.21290004      0.10918761      8.92247459
H       2.73661502      1.73010920      8.58389981
23
Frame 230  Energy = -425.8791572493 Hartree
C       0.42984687      1.45289730      0.20061862
C      -0.02833072      1.57002068      1.62571624
C       0.88463675      0.80137127      2.56538047
C       0.61485079      1.08054124      4.03844827
C       1.57345217      0.27755345      4.90622881
C       1.63293906      0.70266301      6.40590635
O       0.67018730      1.07618124      7.00248653
O       2.86392260      0.44401701      6.93052071
C       2.93177633      0.69624143      8.38792233
H      -0.22582403      2.04508141     -0.50856552
H       1.44545098      1.80506068      0.03128796
H       0.34787511      0.44634506     -0.15037564
H      -1.05082866      1.22925692      1.71674957
H      -0.03477661      2.66080313      1.87537685
H       0.76162788     -0.22943838      2.29380105
H       1.87250249      1.15547370      2.45523390
H       0.67865804      2.17955334      4.20842096
H      -0.41000649      0.79431663      4.24049980
H       1.36317554     -0.79753416      4.83579968
H       2.57207303      0.34149389      4.44184287
H       3.94534182      0.34952548      8.67441849
H       2.22538201      0.11074550      8.92144635
H       2.74721481      1.72372851      8.58115837
23
Frame 235  Energy = -425.8793594912 Hartree
C       0.43084755      1.45502249      0.20303479
C      -0.02995786      1.56881755      1.62589935
C       0.88455461      0.80119153      2.56537467
C       0.61702565      1.08032574      4.03922381
C       1.57465215      0.27767865      4.90683207
C       1.63323242      0.70132863      6.40408832
O       0.67295417      1.07351804      7.00366072
O       2.86318830      0.44548392      6.93221775
C       2.92867666      0.69690826      8.38840117
H      -0.22017912      2.05248755     -0.49693350
H       1.44144014      1.80665844      0.02155833
H       0.34703325      0.44756542     -0.16172651
H      -1.04292967      1.23822173      1.71414044
H      -0.03040543      2.66296199      1.87541464
H       0.77141222     -0.23117514      2.28694531
H       1.86502389      1.15237531      2.45575649
H       0.67681435      2.17183724      4.20561429
H      -0.40973248      0.80171078      4.22923795
H       1.36165775     -0.79398120      4.83649443
H       2.56718583      0.33491328      4.43004999
H       3.95666308      0.34978281      8.66673296
H       2.23613778      0.11074762      8.92127359
H       2.75779821      1.71928875      8.57861879
23
Frame 240  Energy = -425.8794447387 Hartree
C       0.43164151      1.45728760      0.20513607
C      -0.03140480      1.56789031      1.62619299
C       0.88414556      0.80119151      2.56539788
C       0.61903035      1.08000516      4.03991369
C       1.57595390      0.27795779      4.90740773
C       1.63363422      0.69980644      6.40190587
O       0.67574686      1.07085291      7.00491859
O       2.86231067      0.44695828      6.93405060
C       2.92606324      0.69737801      8.38849318
H      -0.21319172      2.05892502     -0.48339129
H       1.43808721      1.80819491      0.01221081
H       0.34646965      0.44746452     -0.17303879
H      -1.03674288      1.24664920      1.71191799
H      -0.02606217      2.66300927      1.87578507
H       0.78223818     -0.23496210      2.28046769
H       1.86118507      1.14927054      2.45436202
H       0.67559454      2.16249273      4.20352697
H      -0.40999690      0.80873185      4.21933535
H       1.35962091     -0.79028769      4.83819819
H       2.56210865      0.32896407      4.41968272
H       3.96543974      0.35149302      8.65838102
H       2.24455263      0.10889517      8.92206298
H       2.76843430      1.71761234      8.57692172
23
Frame 245  Energy = -425.8794786506 Hartree
C       0.43227991      1.45968820      0.20690186
C      -0.03262994      1.56726807      1.62659221
C       0.88343914      0.80128086      2.56552666
C       0.62079818      1.07963555      4.04065274
C       1.57733205      0.27829625      4.90799617
C       1.63426538      0.69789903      6.39931274
O       0.67845368      1.06818002      7.00629482
O       2.86126130      0.44845521      6.93602342
C       2.92395521      0.69760115      8.38816390
H      -0.20537400      2.06463930     -0.46839834
H       1.43550268      1.80977553      0.00369002
H       0.34655803      0.44635801     -0.18413912
H      -1.03268394      1.25428761      1.71025878
H      -0.02193655      2.66080975      1.87649807
H       0.79328026     -0.24015288      2.27429214
H       1.86107571      1.14672594      2.45096983
H       0.67501439      2.15213661      4.20189863
H      -0.41103932      0.81570643      4.21083856
H       1.35720949     -0.78636223      4.84051511
H       2.55717015      0.32343207      4.41109789
H       3.97110591      0.35475316      8.64923654
H       2.25030662      0.10523699      8.92389669
H       2.77919274      1.71910436      8.57599725
23
Frame 250  Energy = -425.8795355060 Hartree
C       0.43270191      1.46212994      0.20830742
C      -0.03358666      1.56699334      1.62698335
C       0.88249141      0.80140653      2.56570516
C       0.62230563      1.07909069      4.04127587
C       1.57880712      0.27878891      4.90855028
C       1.63508144      0.69574160      6.39639829
O       0.68110394      1.06553694      7.00778512
O       2.86008568      0.45003438      6.93807384
C       2.92241039      0.69761182      8.38749397
H      -0.19733115      2.06993612     -0.45261217
H       1.43395554      1.81090902     -0.00409750
H       0.34696263      0.44512598     -0.19514831
H      -1.03162485      1.26035670      1.70881638
H      -0.01799278      2.65667934      1.87738723
H       0.80490578     -0.24645546      2.26854774
H       1.86474327      1.14473790      2.44568496
H       0.67538948      2.14194205      4.20092257
H      -0.41336712      0.82234814      4.20362802
H       1.35403653     -0.78262274      4.84325244
H       2.55226109      0.31829914      4.40395592
H       3.97399961      0.35986542      8.63969107
H       2.25322022      0.09963861      8.92738445
H       2.78941532      1.72415825      8.57577427
23
Frame 255  Energy = -425.8797333108 Hartree
C       0.43291277      1.46453432      0.20944208
C      -0.03421205      1.56705280      1.62740860
C       0.88136222      0.80164027      2.56591843
C       0.62353173      1.07835694      4.04174801
C       1.58042677      0.27945844      4.90903637
C       1.63600915      0.69332782      6.39321027
O       0.68372202      1.06292788      7.00936603
O       2.85880833      0.45165930      6.94027856
C       2.92144749      0.69735594      8.38649139
H      -0.18901628      2.07515739     -0.43662492
H       1.43367117      1.81180754     -0.01106819
H       0.34721379      0.44426046     -0.20548320
H      -1.03399998      1.26442515      1.70757169
H      -0.01397306      2.65061177      1.87864187
H       0.81709411     -0.25315580      2.26366884
H       1.87215011      1.14314994      2.43883962
H       0.67679943      2.13312919      4.20095361
H      -0.41684143      0.82841368      4.19821096
H       1.35025134     -0.77957473      4.84712290
H       2.54741533      0.31348419      4.39827797
H       3.97390198      0.36680608      8.62987072
H       2.25364111      0.09217143      8.93221687
H       2.79931361      1.73220267      8.57624544
23
Frame 260  Energy = -425.8797828008 Hartree
C       0.43303573      1.46687736      0.21022615
C      -0.03445465      1.56738686      1.62775405
C       0.88009987      0.80183557      2.56622735
C       0.62443718      1.07745667      4.04208135
C       1.58219013      0.28023298      4.90940168
C       1.63703025      0.69070625      6.38980112
O       0.68628644      1.06040668      7.01098700
O       2.85749312      0.45330423      6.94257938
C       2.92104585      0.69687192      8.38515957
H      -0.18167056      2.08087115     -0.42106183
H       1.43448723      1.81257905     -0.01668917
H       0.34780405      0.44430854     -0.21531666
H      -1.04003052      1.26706017      1.70659166
H      -0.01011682      2.64298481      1.88023019
H       0.82960517     -0.25982763      2.25991589
H       1.88253536      1.14189235      2.43050826
H       0.67919226      2.12617978      4.20218847
H      -0.42127844      0.83405949      4.19457567
H       1.34551171     -0.77717088      4.85193751
H       2.54293262      0.30894712      4.39452315
H       3.97076187      0.37522847      8.61973555
H       2.25190003      0.08314121      8.93793588
H       2.80855333      1.74217499      8.57747928
23
Frame 265  Energy = -425.8800265675 Hartree
C       0.43313866      1.46906273      0.21069180
C      -0.03441086      1.56803139      1.62818013
C       0.87879196      0.80203466      2.56650140
C       0.62513774      1.07631471      4.04217716
C       1.58402861      0.28107100      4.90973944
C       1.63820352      0.68792634      6.38625745
O       0.68877302      1.05797278      7.01263132
O       2.85605129      0.45499295      6.94492384
C       2.92119565      0.69616696      8.38354088
H      -0.17573263      2.08753985     -0.40676991
H       1.43639872      1.81332465     -0.02078477
H       0.34885489      0.44545342     -0.22434698
H      -1.04925924      1.26832294      1.70626956
H      -0.00661366      2.63444137      1.88212802
H       0.84255313     -0.26592895      2.25716251
H       1.89507393      1.14095619      2.42082578
H       0.68251778      2.12166630      4.20450058
H      -0.42629151      0.83946845      4.19216295
H       1.34047453     -0.77524102      4.85779873
H       2.53941700      0.30533624      4.39246824
H       3.96512416      0.38477064      8.60929264
H       2.24830643      0.07342038      8.94407779
H       2.81719775      1.75335669      8.57957623
23
Frame 270  Energy = -425.8799056801 Hartree
C       0.43324067      1.47103052      0.21086638
C      -0.03410820      1.56896850      1.62874974
C       0.87760207      0.80222478      2.56675761
C       0.62557530      1.07489243      4.04213769
C       1.58590104      0.28192494      4.91013889
C       1.63944479      0.68493093      6.38263516
O       0.69129460      1.05568939      7.01432696
O       2.85450943      0.45661821      6.94730831
C       2.92176027      0.69539793      8.38168298
H      -0.17168688      2.09567934     -0.39407710
H       1.43919693      1.81439060     -0.02334870
H       0.35020612      0.44788977     -0.23240760
H      -1.06070543      1.26862948      1.70625249
H      -0.00323418      2.62548476      1.88433534
H       0.85544012     -0.27117921      2.25562234
H       1.90858791      1.13980740      2.41020617
H       0.68695103      2.11961658      4.20758471
H      -0.43140384      0.84466451      4.19126952
H       1.33470014     -0.77368101      4.86444152
H       2.53766441      0.30225467      4.39190970
H       3.95749396      0.39497312      8.59958464
H       2.24329535      0.06376519      8.95056006
H       2.82484148      1.76498249      8.58246971
23
Frame 275  Energy = -425.8801163607 Hartree
C       0.43330883      1.47272927      0.21093670
C      -0.03365341      1.57003382      1.62940596
C       0.87651626      0.80243501      2.56696626
C       0.62573066      1.07322558      4.04195278
C       1.58777370      0.28282816      4.91050458
C       1.64064646      0.68172238      6.37888884
O       0.69379559      1.05346462      7.01607108
O       2.85286590      0.45832127      6.94977850
C       2.92260570      0.69460093      8.37970082
H      -0.16972863      2.10518989     -0.38347057
H       1.44280624      1.81536917     -0.02436612
H       0.35163020      0.45171848     -0.23918236
H      -1.07350447      1.26815779      1.70647332
H       0.00020173      2.61708758      1.88722978
H       0.86798440     -0.27576828      2.25538173
H       1.92175388      1.13807420      2.39902386
H       0.69210072      2.11991229      4.21160628
H      -0.43627560      0.84929281      4.19166205
H       1.32836505     -0.77246144      4.87171730
H       2.53728233      0.29985575      4.39300045
H       3.94862914      0.40561648      8.59081333
H       2.23803969      0.05484169      8.95679898
H       2.83183850      1.77590608      8.58562661
23
Frame 280  Energy = -425.8801074644 Hartree
C       0.43346328      1.47414994      0.21083395
C      -0.03308168      1.57107681      1.63014659
C       0.87553244      0.80265394      2.56709411
C       0.62560088      1.07145323      4.04169279
C       1.58955253      0.28384659      4.91081672
C       1.64192506      0.67843654      6.37512656
O       0.69621822      1.05126196      7.01789106
O       2.85109324      0.46007538      6.95227060
C       2.92361192      0.69390856      8.37756482
H      -0.17008729      2.11618851     -0.37529919
H       1.44701331      1.81611344     -0.02362194
H       0.35261291      0.45717704     -0.24452951
H      -1.08646011      1.26722681      1.70689500
H       0.00352560      2.60975058      1.89109543
H       0.88004716     -0.27902053      2.25639500
H       1.93364466      1.13594208      2.38751575
H       0.69800066      2.12245402      4.21644808
H      -0.44065167      0.85302871      4.19328523
H       1.32137581     -0.77154616      4.87957599
H       2.53830144      0.29792298      4.39515951
H       3.93955795      0.41611462      8.58258833
H       2.23308040      0.04732973      8.96210354
H       2.83815478      1.78522963      8.58901777
23
Frame 285  Energy = -425.8800910873 Hartree
C       0.43375408      1.47531514      0.21051179
C      -0.03249328      1.57208201      1.63087551
C       0.87486550      0.80273531      2.56708215
C       0.62526182      1.06942879      4.04128328
C       1.59116333      0.28489165      4.91108801
C       1.64322511      0.67506884      6.37142273
O       0.69862925      1.04903090      7.01967699
O       2.84921596      0.46183881      6.95474914
C       2.92477266      0.69334405      8.37544330
H      -0.17225494      2.12850260     -0.36933262
H       1.45164961      1.81677250     -0.02119905
H       0.35368439      0.46402598     -0.24854208
H      -1.09826547      1.26595879      1.70743852
H       0.00638337      2.60393908      1.89599877
H       0.89179744     -0.28058769      2.25896609
H       1.94361750      1.13292618      2.37599196
H       0.70455670      2.12708035      4.22193291
H      -0.44455051      0.85661964      4.19613077
H       1.31382635     -0.77085366      4.88793241
H       2.54084173      0.29665255      4.39838439
H       3.93167615      0.42622626      8.57529933
H       2.22887282      0.04160367      8.96584505
H       2.84352831      1.79243329      8.59240795
23
Frame 290  Energy = -425.8800290175 Hartree
C       0.43417570      1.47633183      0.20994903
C      -0.03195009      1.57294298      1.63153745
C       0.87461038      0.80276275      2.56696547
C       0.62479430      1.06730073      4.04080805
C       1.59272872      0.28597819      4.91132620
C       1.64444777      0.67167601      6.36786275
O       0.70098137      1.04674755      7.02140267
O       2.84728956      0.46361298      6.95716526
C       2.92594430      0.69294157      8.37327475
H      -0.17610582      2.14208850     -0.36516436
H       1.45663644      1.81736386     -0.01717660
H       0.35482016      0.47192162     -0.25124954
H      -1.10807563      1.26487465      1.70826195
H       0.00934087      2.60018946      1.90185700
H       0.90303477     -0.28043342      2.26284291
H       1.95111438      1.12867193      2.36462482
H       0.71170936      2.13306165      4.22781499
H      -0.44737171      0.85971758      4.20011492
H       1.30577491     -0.77034277      4.89712398
H       2.54529221      0.29572264      4.40288154
H       3.92551130      0.43541572      8.56957715
H       2.22583442      0.03820614      8.96776100
H       2.84759559      1.79729237      8.59569115
23
Frame 295  Energy = -425.8799441927 Hartree
C       0.43468955      1.47734721      0.20911353
C      -0.03150818      1.57358588      1.63217992
C       0.87477750      0.80273916      2.56674594
C       0.62410413      1.06519667      4.04022260
C       1.59417117      0.28699530      4.91156581
C       1.64561258      0.66832649      6.36454431
O       0.70334164      1.04439852      7.02303839
O       2.84525146      0.46538634      6.95944124
C       2.92696246      0.69267116      8.37105863
H      -0.18124381      2.15632077     -0.36241833
H       1.46090943      1.81779803     -0.01148567
H       0.35579138      0.48066394     -0.25253624
H      -1.11535895      1.26392828      1.70919375
H       0.01201641      2.59873380      1.90853504
H       0.91349110     -0.27866173      2.26787478
H       1.95513224      1.12358529      2.35335453
H       0.71966632      2.13911371      4.23379217
H      -0.44863884      0.86225097      4.20561051
H       1.29780965     -0.76987957      4.90693885
H       2.55136383      0.29527333      4.40845990
H       3.92187614      0.44337837      8.56514943
H       2.22420343      0.03749510      8.96787496
H       2.85066977      1.79912085      8.59904683
23
Frame 300  Energy = -425.8797506067 Hartree
C       0.43525001      1.47838583      0.20801318
C      -0.03118641      1.57414331      1.63285449
C       0.87543672      0.80262919      2.56631761
C       0.62317896      1.06315515      4.03946968
C       1.59555775      0.28799564      4.91172007
C       1.64676192      0.66500607      6.36153206
O       0.70575547      1.04208439      7.02467627
O       2.84311906      0.46718083      6.96170573
C       2.92777743      0.69265354      8.36886537
H      -0.18734135      2.17067918     -0.36079559
H       1.46461806      1.81759169     -0.00421898
H       0.35649092      0.48961235     -0.25289770
H      -1.11965252      1.26342004      1.71012066
H       0.01441541      2.59966822      1.91617406
H       0.92299772     -0.27496353      2.27443977
H       1.95596646      1.11823076      2.34254397
H       0.72796935      2.14463058      4.23959098
H      -0.44876849      0.86414273      4.21253735
H       1.28950152     -0.76944173      4.91719972
H       2.55860917      0.29510413      4.41510709
H       3.92152987      0.44970778      8.56189701
H       2.22386699      0.03969351      8.96612063
H       2.85248672      1.79817151      8.60228494
