23
Frame 5  Energy = -425.8827826269 Hartree
C       0.37107152      1.23836393      0.15792268
C      -0.05171577      1.60383212      1.59766470
C       0.90123731      0.85037394      2.56893087
C       0.51102301      1.11639996      4.01595240
C       1.54376215      0.44317321      4.92061341
C       1.58046058      0.78621998      6.39555194
O       0.64398896      1.31975154      6.94112187
O       2.71187013      0.37321479      6.93016703
C       2.84340712      0.69760494      8.32336542
H      -0.33179818      1.64874965     -0.57720031
H       1.37755093      1.54754718     -0.03993222
H       0.31955360      0.15953566      0.06727332
H      -1.06042436      1.35434209      1.77195249
H       0.00677688      2.72446962      1.70131317
H       0.79713784     -0.19685151      2.20451180
H       1.90551197      1.13748052      2.44831363
H       0.51674591      2.18169836      4.23472544
H      -0.48380080      0.73747322      4.19033839
H       1.43610717     -0.64140882      4.90212820
H       2.51410498      0.68808797      4.48292599
H       3.83706688      0.29025395      8.58341105
H       2.10132516      0.26855611      8.93347452
H       2.83161793      1.75967679      8.44370871
23
Frame 10  Energy = -425.8830070402 Hartree
C       0.37167070      1.24033337      0.15797346
C      -0.05068797      1.60467932      1.59890612
C       0.89956510      0.85002138      2.57033000
C       0.51150834      1.11496409      4.01894364
C       1.54697664      0.44074488      4.91869883
C       1.57739179      0.78571641      6.39393439
O       0.64176508      1.31879438      6.94338093
O       2.71449602      0.37334580      6.92899315
C       2.84342520      0.69758990      8.32149610
H      -0.32173492      1.64054082     -0.57959276
H       1.38060435      1.55737923     -0.03973909
H       0.32099346      0.15444905      0.06403690
H      -1.06203805      1.35276027      1.77139062
H       0.00974746      2.72068151      1.70436717
H       0.79102753     -0.20388094      2.20939780
H       1.90872226      1.14942264      2.44967398
H       0.52183355      2.17629496      4.23238060
H      -0.48793250      0.73716799      4.18842309
H       1.43972540     -0.64602455      4.90244572
H       2.51527031      0.67990825      4.47572739
H       3.84842112      0.27899565      8.58919257
H       2.11055826      0.27153238      8.93941583
H       2.82176735      1.75919279      8.44380642
23
Frame 15  Energy = -425.8830742415 Hartree
C       0.37194830      1.24225326      0.15813183
C      -0.04927374      1.60570994      1.60004504
C       0.89741364      0.84976318      2.57158282
C       0.51215391      1.11344101      4.02203210
C       1.55016455      0.43829146      4.91678801
C       1.57404298      0.78522186      6.39180361
O       0.63960866      1.31789997      6.94572406
O       2.71710427      0.37348516      6.92797910
C       2.84396315      0.69744909      8.31956311
H      -0.31164687      1.63260214     -0.58213297
H       1.38448049      1.56742998     -0.04020925
H       0.32234049      0.14897133      0.06056590
H      -1.06593210      1.35006850      1.77128683
H       0.01287317      2.71476283      1.70797815
H       0.78596227     -0.20977260      2.21630147
H       1.91447090      1.16199484      2.45007458
H       0.52653246      2.17116535      4.23029430
H      -0.49295777      0.73687595      4.18660588
H       1.44295838     -0.65077066      4.90220560
H       2.51681309      0.67125173      4.46923950
H       3.85716285      0.26894882      8.59438310
H       2.11725996      0.27285362      8.94650455
H       2.81216642      1.76060645      8.44445314
23
Frame 20  Energy = -425.8831004544 Hartree
C       0.37204826      1.24406853      0.15849015
C      -0.04742206      1.60680189      1.60102905
C       0.89492370      0.84955278      2.57270255
C       0.51291030      1.11181140      4.02504789
C       1.55332774      0.43581271      4.91485491
C       1.57039640      0.78481768      6.38929871
O       0.63762321      1.31709365      6.94821099
O       2.71964902      0.37364962      6.92716204
C       2.84507832      0.69720280      8.31748422
H      -0.30170854      1.62540634     -0.58520333
H       1.38871125      1.57744651     -0.04125002
H       0.32402397      0.14409395      0.05663480
H      -1.07165263      1.34650925      1.77140333
H       0.01629584      2.70681438      1.71212335
H       0.78186453     -0.21443814      2.22517732
H       1.92155536      1.17520515      2.44962001
H       0.53103971      2.16665590      4.22857118
H      -0.49846912      0.73668048      4.18510162
H       1.44593744     -0.65565568      4.90187181
H       2.51869345      0.66236587      4.46355474
H       3.86305178      0.26053135      8.59917580
H       2.12125955      0.27262819      8.95443217
H       2.80310800      1.76343460      8.44570187
23
Frame 25  Energy = -425.8831897263 Hartree
C       0.37206984      1.24575268      0.15907426
C      -0.04520098      1.60799627      1.60178470
C       0.89218610      0.84943771      2.57357791
C       0.51361880      1.10991789      4.02797770
C       1.55647566      0.43322332      4.91292441
C       1.56656189      0.78444416      6.38651581
O       0.63575289      1.31635676      6.95079031
O       2.72209754      0.37379145      6.92648599
C       2.84677692      0.69680139      8.31540984
H      -0.29227028      1.61937015     -0.58893640
H       1.39295404      1.58740778     -0.04273345
H       0.32624416      0.14033216      0.05218947
H      -1.07866361      1.34213944      1.77181879
H       0.02013367      2.69757416      1.71646972
H       0.77878657     -0.21729822      2.23597431
H       1.92871326      1.18814761      2.44845646
H       0.53505540      2.16337327      4.22694178
H      -0.50379053      0.73695017      4.18413155
H       1.44919464     -0.66023636      4.90115048
H       2.52142884      0.65324952      4.45873934
H       3.86598164      0.25412663      8.60340651
H       2.12271457      0.27068350      8.96293190
H       2.79467914      1.76730509      8.44719967
23
Frame 30  Energy = -425.8830643606 Hartree
C       0.37214720      1.24732591      0.15976960
C      -0.04274300      1.60917067      1.60239752
C       0.88920947      0.84938946      2.57419419
C       0.51426651      1.10779420      4.03087484
C       1.55955279      0.43045447      4.91106146
C       1.56251636      0.78413205      6.38344895
O       0.63408616      1.31558132      6.95350772
O       2.72449882      0.37389366      6.92593924
C       2.84898026      0.69630836      8.31348967
H      -0.28390051      1.61493024     -0.59344867
H       1.39692209      1.59710763     -0.04451296
H       0.32886765      0.13782007      0.04790790
H      -1.08601272      1.33738262      1.77259864
H       0.02435447      2.68789662      1.72129976
H       0.77703586     -0.21829892      2.24846883
H       1.93505482      1.20042405      2.44672891
H       0.53906957      2.16125625      4.22546088
H      -0.50857643      0.73763049      4.18371622
H       1.45294576     -0.66418368      4.90029796
H       2.52448267      0.64375631      4.45467920
H       3.86532708      0.24990856      8.60727042
H       2.12190437      0.26727497      8.97187616
H       2.78666846      1.77231081      8.44894485
23
Frame 35  Energy = -425.8832141713 Hartree
C       0.37230815      1.24862538      0.16069003
C      -0.04007827      1.61030428      1.60292386
C       0.88607911      0.84943033      2.57469688
C       0.51486174      1.10530135      4.03373712
C       1.56254526      0.42757931      4.90916662
C       1.55844347      0.78376916      6.38010739
O       0.63261877      1.31466758      6.95629128
O       2.72685489      0.37399746      6.92557017
C       2.85166425      0.69578326      8.31171770
H      -0.27656514      1.61229539     -0.59908074
H       1.39992063      1.60631373     -0.04679607
H       0.33221341      0.13703262      0.04403330
H      -1.09303879      1.33222619      1.77369233
H       0.02863526      2.67859864      1.72649803
H       0.77682676     -0.21764420      2.26259935
H       1.93998823      1.21156410      2.44434305
H       0.54300043      2.16055760      4.22408804
H      -0.51280930      0.73861850      4.18403056
H       1.45693878     -0.66748538      4.89906566
H       2.52831463      0.63423275      4.45139413
H       3.86106612      0.24806087      8.61048951
H       2.11913696      0.26304849      8.98040640
H       2.77916359      1.77748616      8.45115725
23
Frame 40  Energy = -425.8833199809 Hartree
C       0.37262273      1.24978472      0.16173157
C      -0.03739871      1.61132225      1.60317265
C       0.88292983      0.84962525      2.57500669
C       0.51535651      1.10249741      4.03653047
C       1.56546235      0.42478488      4.90721731
C       1.55432892      0.78344195      6.37660127
O       0.63138793      1.31367095      6.95909830
O       2.72906751      0.37416391      6.92535079
C       2.85479071      0.69512047      8.31009062
H      -0.27049579      1.61144166     -0.60596380
H       1.40150283      1.61471601     -0.04887711
H       0.33637660      0.13808277      0.04016354
H      -1.09921044      1.32735442      1.77463989
H       0.03297371      2.67008950      1.73239250
H       0.77800212     -0.21554976      2.27799724
H       1.94262368      1.22118112      2.44152015
H       0.54638440      2.16130688      4.22333955
H      -0.51621420      0.73979019      4.18501991
H       1.46101071     -0.67012201      4.89760248
H       2.53285465      0.62487447      4.44889351
H       3.85355633      0.24873634      8.61320929
H       2.11495390      0.25811385      8.98831330
H       2.77242006      1.78223936      8.45358688
23
Frame 45  Energy = -425.8832945721 Hartree
C       0.37312881      1.25077867      0.16275667
C      -0.03479996      1.61200584      1.60324956
C       0.87985126      0.85011298      2.57524145
C       0.51583830      1.09950741      4.03922665
C       1.56827566      0.42198910      4.90525913
C       1.55009313      0.78316649      6.37299765
O       0.63036424      1.31267145      6.96195353
O       2.73121000      0.37444394      6.92526188
C       2.85819326      0.69430933      8.30863617
H      -0.26612501      1.61188913     -0.61394974
H       1.40217789      1.62258209     -0.05095760
H       0.34113770      0.14074820      0.03650597
H      -1.10384972      1.32313246      1.77543726
H       0.03760001      2.66323691      1.73896320
H       0.78033209     -0.21257377      2.29431316
H       1.94275667      1.22905242      2.43826724
H       0.54955825      2.16283285      4.22326430
H      -0.51853060      0.74162466      4.18685737
H       1.46485487     -0.67240193      4.89582938
H       2.53791058      0.61573841      4.44733083
H       3.84330747      0.25167190      8.61541939
H       2.11031593      0.25273644      8.99485643
H       2.76661765      1.78621187      8.45570300
23
Frame 50  Energy = -425.8833322186 Hartree
C       0.37369445      1.25166969      0.16377402
C      -0.03219964      1.61234255      1.60329014
C       0.87689311      0.85079520      2.57532337
C       0.51639204      1.09636399      4.04182748
C       1.57098393      0.41920658      4.90335501
C       1.54576139      0.78301816      6.36933235
O       0.62950745      1.31157703      6.96473793
O       2.73323589      0.37480217      6.92521609
C       2.86176908      0.69342930      8.30744159
H      -0.26309800      1.61362258     -0.62285301
H       1.40139952      1.62946496     -0.05293841
H       0.34652454      0.14507979      0.03326834
H      -1.10626981      1.31948987      1.77601694
H       0.04224074      2.65867639      1.74600449
H       0.78381437     -0.20897674      2.31172183
H       1.93999156      1.23507159      2.43477657
H       0.55216852      2.16521501      4.22351539
H      -0.52007271      0.74392720      4.18932547
H       1.46856018     -0.67426391      4.89397845
H       2.54334298      0.60680959      4.44666381
H       3.83141487      0.25708066      8.61712100
H       2.10601335      0.24699283      8.99918156
H       2.76229378      1.78925834      8.45755423
23
Frame 55  Energy = -425.8834757842 Hartree
C       0.37431563      1.25234326      0.16478807
C      -0.02980923      1.61226596      1.60321058
C       0.87392573      0.85168404      2.57541822
C       0.51700265      1.09310163      4.04429837
C       1.57361332      0.41649253      4.90153769
C       1.54144144      0.78296579      6.36568365
O       0.62882868      1.31033415      6.96741686
O       2.73505569      0.37522761      6.92527104
C       2.86539459      0.69260355      8.30651923
H      -0.26137248      1.61664942     -0.63223286
H       1.39916954      1.63521289     -0.05464350
H       0.35255940      0.15100442      0.03023875
H      -1.10637096      1.31691325      1.77623732
H       0.04695449      2.65686220      1.75348772
H       0.78847686     -0.20519213      2.32958249
H       1.93430154      1.23953281      2.43106381
H       0.55458160      2.16823927      4.22415367
H      -0.52033182      0.74629133      4.19299343
H       1.47239501     -0.67605080      4.89192757
H       2.54909058      0.59853623      4.44695040
H       3.81853036      0.26422818      8.61859978
H       2.10226282      0.24113318      9.00124160
H       2.75931612      1.79088565      8.45938761
23
Frame 60  Energy = -425.8844837558 Hartree
C       0.37506857      1.25300555      0.16570427
C      -0.02763582      1.61181286      1.60305922
C       0.87092592      0.85285526      2.57552405
C       0.51755632      1.08973247      4.04658631
C       1.57613269      0.41381086      4.89976452
C       1.53721047      0.78294524      6.36205486
O       0.62834186      1.30905516      6.97000555
O       2.73656780      0.37578877      6.92542817
C       2.86889768      0.69177993      8.30588849
H      -0.26059516      1.62073709     -0.64131290
H       1.39524456      1.63991325     -0.05596009
H       0.35924097      0.15860353      0.02756268
H      -1.10381293      1.31510885      1.77598072
H       0.05179139      2.65770446      1.76168417
H       0.79386773     -0.20205551      2.34766702
H       1.92575651      1.24212728      2.42741217
H       0.55671699      2.17091618      4.22537868
H      -0.51933843      0.74899770      4.19770127
H       1.47642832     -0.67788380      4.88980233
H       2.55482390      0.59068144      4.44851898
H       3.80574412      0.27293965      8.61964531
H       2.09937079      0.23568304      9.00040287
H       2.75760431      1.79083194      8.46090011
23
Frame 65  Energy = -425.8867676410 Hartree
C       0.37601736      1.25362266      0.16664337
C      -0.02573036      1.61098052      1.60277097
C       0.86798926      0.85434440      2.57565062
C       0.51810854      1.08643060      4.04874500
C       1.57864297      0.41114181      4.89800193
C       1.53300634      0.78296777      6.35844798
O       0.62815891      1.30764369      6.97253880
O       2.73787992      0.37644713      6.92573488
C       2.87205748      0.69088596      8.30553752
H      -0.26035777      1.62585158     -0.64943513
H       1.38983021      1.64377040     -0.05673958
H       0.36609033      0.16750319      0.02575024
H      -1.09860148      1.31410634      1.77548985
H       0.05675525      2.66082244      1.77027291
H       0.79987278     -0.19987385      2.36563053
H       1.91474537      1.24304411      2.42367476
H       0.55880084      2.17301119      4.22698858
H      -0.51714580      0.75198776      4.20325072
H       1.48024053     -0.68020932      4.88739818
H       2.56041502      0.58344943      4.45130771
H       3.79466596      0.28233718      8.62079500
H       2.09780569      0.23041861      8.99651691
H       2.75716116      1.78856778      8.46175158
23
Frame 70  Energy = -425.8868837489 Hartree
C       0.37703472      1.25438829      0.16744040
C      -0.02412803      1.60996780      1.60237694
C       0.86519805      0.85607799      2.57578543
C       0.51871430      1.08325362      4.05074232
C       1.58112499      0.40849341      4.89625446
C       1.52898920      0.78306218      6.35488273
O       0.62830255      1.30604911      6.97490579
O       2.73897829      0.37721924      6.92604738
C       2.87496995      0.69017918      8.30546571
H      -0.26061281      1.63137616     -0.65633359
H       1.38311417      1.64649751     -0.05697939
H       0.37349041      0.17682195      0.02426658
H      -1.09140203      1.31378356      1.77434913
H       0.06172317      2.66596623      1.77904313
H       0.80681185     -0.19854152      2.38304940
H       1.90186334      1.24240200      2.41984263
H       0.56031196      2.17428217      4.22876103
H      -0.51420400      0.75501991      4.20963414
H       1.48369651     -0.68245460      4.88466250
H       2.56595393      0.57667440      4.45524050
H       3.78618875      0.29182125      8.62253421
H       2.09743809      0.22543620      8.98964393
H       2.75810140      1.78435739      8.46253236
23
Frame 75  Energy = -425.8866204108 Hartree
C       0.37806592      1.25518808      0.16807385
C      -0.02259947      1.60874950      1.60187041
C       0.86252396      0.85801016      2.57596656
C       0.51932577      1.08019017      4.05245952
C       1.58352880      0.40581356      4.89445029
C       1.52519178      0.78313576      6.35132340
O       0.62869672      1.30430022      6.97718182
O       2.73976395      0.37819098      6.92626180
C       2.87744389      0.68958068      8.30555156
H      -0.26082715      1.63725438     -0.66148688
H       1.37570225      1.64823006     -0.05666507
H       0.38140739      0.18616675      0.02332981
H      -1.08254442      1.31418041      1.77267979
H       0.06655589      2.67271842      1.78801295
H       0.81459458     -0.19851092      2.39945660
H       1.88788620      1.24004567      2.41602073
H       0.56111921      2.17465434      4.23088205
H      -0.51063021      0.75829308      4.21700870
H       1.48722909     -0.68469087      4.88180763
H       2.57141570      0.57015291      4.45998235
H       3.78154591      0.30058441      8.62511687
H       2.09876594      0.22117418      8.97984789
H       2.75958485      1.77837645      8.46354474
23
Frame 80  Energy = -425.8868002009 Hartree
C       0.37910916      1.25606084      0.16845047
C      -0.02121817      1.60740522      1.60126035
C       0.85999570      0.86012820      2.57627316
C       0.51994357      1.07732189      4.05395074
C       1.58580734      0.40297694      4.89268938
C       1.52156261      0.78317027      6.34782737
O       0.62940009      1.30243818      6.97940521
O       2.74023724      0.37921153      6.92644309
C       2.87922666      0.68916025      8.30573487
H      -0.26086901      1.64307033     -0.66463185
H       1.36806329      1.64939516     -0.05591338
H       0.38988625      0.19446659      0.02250880
H      -1.07255569      1.31544856      1.77082971
H       0.07127001      2.68012408      1.79668175
H       0.82273602     -0.19996033      2.41463737
H       1.87328176      1.23668188      2.41225865
H       0.56182552      2.17402686      4.23349758
H      -0.50639646      0.76127357      4.22536623
H       1.49042576     -0.68720565      4.87882020
H       2.57672933      0.56415920      4.46547870
H       3.78167320      0.30827685      8.62860474
H       2.10146046      0.21757006      8.96722199
H       2.76195020      1.77086537      8.46428974
23
Frame 85  Energy = -425.8864301100 Hartree
C       0.38013400      1.25719295      0.16862099
C      -0.02002285      1.60596647      1.60066321
C       0.85745766      0.86235989      2.57671506
C       0.52060570      1.07464548      4.05528194
C       1.58795301      0.39997441      4.89098438
C       1.51813875      0.78316871      6.34449768
O       0.63023556      1.30049400      6.98162771
O       2.74050601      0.38030902      6.92660102
C       2.88036928      0.68891319      8.30599324
H      -0.26028006      1.64879283     -0.66564036
H       1.36062098      1.65003856     -0.05508275
H       0.39889939      0.20103884      0.02213900
H      -1.06163599      1.31740588      1.76853567
H       0.07550850      2.68679218      1.80499011
H       0.83119253     -0.20287541      2.42842349
H       1.85891384      1.23229457      2.40853231
H       0.56225186      2.17203847      4.23661264
H      -0.50212121      0.76362737      4.23446704
H       1.49301001     -0.68991613      4.87598587
H       2.58178695      0.55844079      4.47172175
H       3.78676656      0.31472369      8.63314327
H       2.10500708      0.21433427      8.95239575
H       2.76533194      1.76240896      8.46458310
23
Frame 90  Energy = -425.8862191911 Hartree
C       0.38094022      1.25863643      0.16865248
C      -0.01892748      1.60454641      1.60010377
C       0.85482155      0.86461393      2.57721515
C       0.52128704      1.07221224      4.05653895
C       1.58995341      0.39693914      4.88940209
C       1.51492454      0.78312033      6.34138327
O       0.63122011      1.29848760      6.98375187
O       2.74055241      0.38140058      6.92674092
C       2.88097572      0.68884232      8.30629324
H      -0.25914491      1.65428051     -0.66419304
H       1.35442834      1.65064566     -0.05410305
H       0.40836225      0.20548396      0.02197297
H      -1.05100345      1.31998534      1.76606665
H       0.07936258      2.69275267      1.81250241
H       0.83970254     -0.20708778      2.44120533
H       1.84551447      1.22709492      2.40441559
H       0.56244088      2.16861619      4.24035385
H      -0.49798204      0.76544238      4.24450122
H       1.49509416     -0.69307800      4.87298601
H       2.58685504      0.55313885      4.47869856
H       3.79666969      0.32006517      8.63861767
H       2.10879697      0.21100090      8.93600144
H       2.76929607      1.75348776      8.46478672
23
Frame 95  Energy = -425.8868613288 Hartree
C       0.38152701      1.26034342      0.16850279
C      -0.01781877      1.60317183      1.59950329
C       0.85221286      0.86680024      2.57788868
C       0.52204471      1.07011680      4.05760334
C       1.59182416      0.39385644      4.88798013
C       1.51204780      0.78295039      6.33856016
O       0.63234264      1.29629564      6.98575445
O       2.74027947      0.38256054      6.92683770
C       2.88119305      0.68883163      8.30660155
H      -0.25773960      1.65913262     -0.66013722
H       1.34996083      1.65153046     -0.05276040
H       0.41780143      0.20750765      0.02211137
H      -1.04136143      1.32269391      1.76357246
H       0.08305826      2.69750929      1.81893789
H       0.84826929     -0.21225334      2.45265163
H       1.83390748      1.22183871      2.40016695
H       0.56256776      2.16381511      4.24451986
H      -0.49429163      0.76635177      4.25538820
H       1.49682739     -0.69605804      4.86999296
H       2.59197923      0.54867313      4.48611911
H       3.81100827      0.32448058      8.64484292
H       2.11283872      0.20766707      8.91837472
H       2.77388696      1.74460957      8.46534799
23
Frame 100  Energy = -425.8870082880 Hartree
C       0.38184995      1.26227344      0.16826073
C      -0.01673638      1.60191123      1.59888967
C       0.84962200      0.86885632      2.57880014
C       0.52292245      1.06830891      4.05853429
C       1.59351004      0.39077048      4.88663042
C       1.50954434      0.78271606      6.33608323
O       0.63356366      1.29400453      6.98756625
O       2.73976893      0.38380618      6.92678265
C       2.88117876      0.68880844      8.30689533
H      -0.25602797      1.66363607     -0.65395687
H       1.34765159      1.65312416     -0.05103757
H       0.42715430      0.20704150      0.02251659
H      -1.03298552      1.32498899      1.76125098
H       0.08636492      2.70041362      1.82457048
H       0.85654856     -0.21746295      2.46293146
H       1.82536659      1.21672723      2.39602653
H       0.56273399      2.15781891      4.24891568
H      -0.49074040      0.76627676      4.26714336
H       1.49802704     -0.69909177      4.86710316
H       2.59694543      0.54525154      4.49372143
H       3.82869475      0.32792679      8.65116623
H       2.11615505      0.20388038      8.90011147
H       2.77903483      1.73669652      8.46609336
23
Frame 105  Energy = -425.8867789520 Hartree
C       0.38200321      1.26440293      0.16795098
C      -0.01552026      1.60076908      1.59822407
C       0.84690191      0.87066633      2.57986228
C       0.52386031      1.06680394      4.05930005
C       1.59506223      0.38760787      4.88537841
C       1.50742435      0.78236760      6.33385848
O       0.63499391      1.29164792      6.98925653
O       2.73908587      0.38511358      6.92659602
C       2.88099172      0.68869589      8.30717406
H      -0.25415035      1.66809757     -0.64545481
H       1.34756959      1.65519003     -0.04978180
H       0.43634107      0.20447798      0.02291206
H      -1.02668654      1.32688129      1.75892750
H       0.08934081      2.70084698      1.82910924
H       0.86456532     -0.22267967      2.47192344
H       1.82044060      1.21231829      2.39177798
H       0.56270943      2.15045011      4.25409400
H      -0.48762258      0.76526850      4.27983985
H       1.49851373     -0.70185121      4.86422222
H       2.60208222      0.54263516      4.50160647
H       3.84760458      0.33105700      8.65685760
H       2.11849992      0.19968076      8.88202910
H       2.78487759      1.73058120      8.46681981
23
Frame 110  Energy = -425.8867711472 Hartree
C       0.38189243      1.26675568      0.16746501
C      -0.01415622      1.59977312      1.59757970
C       0.84401731      0.87213023      2.58102265
C       0.52485424      1.06554698      4.05981802
C       1.59648700      0.38440259      4.88426104
C       1.50565990      0.78194055      6.33193056
O       0.63659420      1.28922674      6.99083138
O       2.73826167      0.38651365      6.92635303
C       2.88079043      0.68848090      8.30739548
H      -0.25232978      1.67261356     -0.63517429
H       1.34980767      1.65782659     -0.04861425
H       0.44536042      0.20050038      0.02303471
H      -1.02285047      1.32886131      1.75663991
H       0.09192959      2.69885048      1.83271667
H       0.87216075     -0.22746367      2.47943751
H       1.81956547      1.20876714      2.38756792
H       0.56278650      2.14241320      4.25946684
H      -0.48465560      0.76333010      4.29336268
H       1.49836067     -0.70442751      4.86154756
H       2.60736352      0.54064722      4.50978727
H       3.86619900      0.33418538      8.66178229
H       2.11970203      0.19480343      8.86465043
H       2.79077328      1.72689389      8.46780554
23
Frame 115  Energy = -425.8867698937 Hartree
C       0.38171364      1.26922677      0.16680626
C      -0.01272238      1.59902109      1.59696897
C       0.84097846      0.87318312      2.58234572
C       0.52596602      1.06459008      4.06003735
C       1.59785656      0.38118882      4.88317802
C       1.50437419      0.78132287      6.33041229
O       0.63831132      1.28677004      6.99222876
O       2.73727375      0.38801111      6.92606836
C       2.88079687      0.68803183      8.30767784
H      -0.25063027      1.67692429     -0.62349094
H       1.35403538      1.66116790     -0.04748435
H       0.45406791      0.19553799      0.02320194
H      -1.02197720      1.33074215      1.75466434
H       0.09381441      2.69494001      1.83506440
H       0.87912637     -0.23143667      2.48546196
H       1.82241156      1.20610872      2.38332951
H       0.56297816      2.13402820      4.26528647
H      -0.48175720      0.76023035      4.30761188
H       1.49797372     -0.70702714      4.85895637
H       2.61234401      0.53957409      4.51808492
H       3.88315620      0.33736443      8.66562333
H       2.11943142      0.18900773      8.84832204
H       2.79637341      1.72606181      8.46904795
23
Frame 120  Energy = -425.8876205450 Hartree
C       0.38152569      1.27176242      0.16609224
C      -0.01127713      1.59847388      1.59628298
C       0.83786638      0.87393592      2.58390415
C       0.52714183      1.06382494      4.06012825
C       1.59906947      0.37803485      4.88226772
C       1.50352599      0.78063782      6.32921662
O       0.64006525      1.28428338      6.99354557
O       2.73603958      0.38960951      6.92578652
C       2.88106756      0.68738161      8.30796387
H      -0.24940627      1.68089579     -0.61072857
H       1.36000913      1.66498045     -0.04623984
H       0.46262878      0.19017197      0.02338527
H      -1.02406989      1.33230962      1.75305071
H       0.09543989      2.68889009      1.83660477
H       0.88569720     -0.23427472      2.49013080
H       1.82868957      1.20392199      2.37924701
H       0.56323766      2.12575062      4.27172811
H      -0.47946368      0.75642501      4.32196483
H       1.49679216     -0.70985450      4.85678611
H       2.61692332      0.53950903      4.52638933
H       3.89725800      0.34118756      8.66765477
H       2.11732788      0.18228070      8.83363370
H       2.80168163      1.72823376      8.47063885
23
Frame 125  Energy = -425.8872477604 Hartree
C       0.38139896      1.27432419      0.16543553
C      -0.00989300      1.59809242      1.59552558
C       0.83481279      0.87429677      2.58561349
C       0.52832845      1.06320862      4.05999205
C       1.60016993      0.37482834      4.88141762
C       1.50315779      0.77980475      6.32847673
O       0.64180125      1.28165194      6.99471304
O       2.73472613      0.39125828      6.92535366
C       2.88161679      0.68653337      8.30827394
H      -0.24953827      1.68517998     -0.59713702
H       1.36742423      1.66952116     -0.04440530
H       0.47087702      0.18538935      0.02322395
H      -1.02929610      1.33370369      1.75148723
H       0.09667121      2.68127375      1.83707768
H       0.89148506     -0.23573173      2.49311377
H       1.83791536      1.20199300      2.37532629
H       0.56368038      2.11833607      4.27855481
H      -0.47716300      0.75219660      4.33652931
H       1.49535854     -0.71248700      4.85464588
H       2.62127268      0.54000464      4.53457353
H       3.90814771      0.34532804      8.66806585
H       2.11343273      0.17411156      8.82116642
H       2.80683515      1.73337761      8.47254543
23
Frame 130  Energy = -425.8873647564 Hartree
C       0.38145844      1.27678002      0.16485064
C      -0.00862921      1.59781126      1.59486360
C       0.83189909      0.87433908      2.58747801
C       0.52952906      1.06283318      4.05975234
C       1.60120981      0.37163011      4.88060435
C       1.50315214      0.77887106      6.32816942
O       0.64352871      1.27901879      6.99572380
O       2.73332162      0.39298803      6.92479070
C       2.88253034      0.68550808      8.30878820
H      -0.25094853      1.68989082     -0.58386224
H       1.37584629      1.67460890     -0.04240995
H       0.47840082      0.18192728      0.02291332
H      -1.03703849      1.33482380      1.74973514
H       0.09725476      2.67235616      1.83625556
H       0.89624237     -0.23570119      2.49467912
H       1.84902992      1.20025682      2.37164983
H       0.56404488      2.11242321      4.28598333
H      -0.47482839      0.74746507      4.35125422
H       1.49362032     -0.71475223      4.85248301
H       2.62550620      0.54099951      4.54274673
H       3.91567674      0.34990531      8.66678581
H       2.10777968      0.16504489      8.81083912
H       2.81162580      1.74083820      8.47458789
23
Frame 135  Energy = -425.8873516090 Hartree
C       0.38181261      1.27911269      0.16435050
C      -0.00748480      1.59757991      1.59419129
C       0.82914615      0.87402305      2.58939711
C       0.53084421      1.06257013      4.05944645
C       1.60224942      0.36835560      4.87988111
C       1.50361456      0.77781401      6.32824324
O       0.64524747      1.27645535      6.99667213
O       2.73184950      0.39478991      6.92407216
C       2.88375413      0.68435657      8.30929315
H      -0.25395041      1.69494948     -0.57144669
H       1.38444421      1.67982367     -0.04048493
H       0.48523163      0.17972154      0.02226564
H      -1.04679509      1.33622144      1.74813381
H       0.09780671      2.66286407      1.83444321
H       0.90010110     -0.23400914      2.49446790
H       1.86055258      1.19857722      2.36852462
H       0.56468296      2.10827967      4.29383666
H      -0.47241767      0.74228413      4.36600022
H       1.49155375     -0.71704023      4.85077365
H       2.62894469      0.54238079      4.55061439
H       3.91942386      0.35497501      8.66393938
H       2.10074807      0.15524931      8.80272035
H       2.81591429      1.74974788      8.47674686
23
Frame 140  Energy = -425.8873948628 Hartree
C       0.38251542      1.28134463      0.16394697
C      -0.00652864      1.59739022      1.59359557
C       0.82664395      0.87343474      2.59144207
C       0.53214071      1.06239807      4.05905416
C       1.60315338      0.36504301      4.87923991
C       1.50456516      0.77659436      6.32875183
O       0.64692933      1.27387204      6.99742644
O       2.73031126      0.39666186      6.92324964
C       2.88532251      0.68320864      8.30973483
H      -0.25882144      1.70037800     -0.56023934
H       1.39273118      1.68480066     -0.03811010
H       0.49099336      0.17936894      0.02148341
H      -1.05767886      1.33763540      1.74666523
H       0.09808652      2.65309980      1.83205982
H       0.90321677     -0.23090306      2.49261009
H       1.87159971      1.19687384      2.36616278
H       0.56557413      2.10584201      4.30176667
H      -0.46925518      0.73655256      4.37998899
H       1.48914196     -0.71968509      4.84922295
H       2.63175977      0.54426756      4.55799055
H       3.91965247      0.36050486      8.65931582
H       2.09250614      0.14529606      8.79673483
H       2.81983706      1.75935391      8.47892601
23
Frame 145  Energy = -425.8875596311 Hartree
C       0.38348854      1.28340457      0.16364393
C      -0.00583762      1.59715916      1.59301349
C       0.82446950      0.87263088      2.59357997
C       0.53351304      1.06233818      4.05858417
C       1.60397007      0.36190499      4.87871329
C       1.50594031      0.77522481      6.32955755
O       0.64856045      1.27131324      6.99800492
O       2.72876577      0.39857193      6.92234066
C       2.88715623      0.68208537      8.31022462
H      -0.26580073      1.70655474     -0.55059545
H       1.39976678      1.68962680     -0.03524139
H       0.49572022      0.18093394      0.02070376
H      -1.06888267      1.33938461      1.74515339
H       0.09798623      2.64417218      1.82923548
H       0.90586213     -0.22649550      2.48907314
H       1.88110408      1.19502876      2.36443033
H       0.56656694      2.10518134      4.31001138
H      -0.46480930      0.73043406      4.39264852
H       1.48633000     -0.72251439      4.84806278
H       2.63399990      0.54646663      4.56500137
H       3.91645703      0.36614904      8.65290425
H       2.08388746      0.13545793      8.79236849
H       2.82315718      1.76869225      8.48098303
23
Frame 150  Energy = -425.8854583903 Hartree
C       0.38483024      1.28517706      0.16348928
C      -0.00530727      1.59690721      1.59235802
C       0.82277998      0.87159664      2.59576835
C       0.53498228      1.06235701      4.05806317
C       1.60465821      0.35889450      4.87830721
C       1.50783196      0.77371918      6.33069502
O       0.65019357      1.26868518      6.99846872
O       2.72712271      0.40049050      6.92133794
C       2.88910950      0.68099754      8.31072459
H      -0.27461798      1.71359384     -0.54270672
H       1.40523957      1.69396620     -0.03206865
H       0.49932781      0.18449031      0.01969496
H      -1.07936988      1.34129471      1.74379630
H       0.09713203      2.63654409      1.82585658
H       0.90726145     -0.22100923      2.48396132
H       1.88869553      1.19299574      2.36401151
H       0.56775374      2.10625373      4.31810589
H      -0.45936917      0.72411548      4.40403284
H       1.48348437     -0.72532653      4.84706325
H       2.63579774      0.54887281      4.57134465
H       3.91017028      0.37191518      8.64526356
H       2.07577412      0.12599428      8.78969967
H       2.82573924      1.77705383      8.48316351
23
Frame 155  Energy = -425.8853684308 Hartree
C       0.38654484      1.28674984      0.16345072
C      -0.00507931      1.59650219      1.59169044
C       0.82155477      0.87043227      2.59788879
C       0.53641131      1.06240391      4.05763428
C       1.60527883      0.35594913      4.87806989
C       1.51009637      0.77203914      6.33207536
O       0.65172403      1.26604610      6.99882780
O       2.72547121      0.40235298      6.92028239
C       2.89105938      0.68005947      8.31124725
H      -0.28511842      1.72141036     -0.53685168
H       1.40889629      1.69783432     -0.02864702
H       0.50201120      0.19003528      0.01852278
H      -1.08878696      1.34361727      1.74229235
H       0.09585704      2.63079760      1.82198733
H       0.90742633     -0.21500832      2.47721048
H       1.89386259      1.19027080      2.36457534
H       0.56884672      2.10888836      4.32611001
H      -0.45271170      0.71784902      4.41412616
H       1.48026707     -0.72821250      4.84603749
H       2.63724599      0.55178727      4.57699219
H       3.90135535      0.37770169      8.63615751
H       2.06869528      0.11727972      8.78872218
H       2.82757649      1.78411987      8.48564671
23
Frame 160  Energy = -425.8857181574 Hartree
C       0.38867978      1.28815798      0.16349555
C      -0.00529288      1.59585295      1.59112225
C       0.82077439      0.86920091      2.59995350
C       0.53772697      1.06246306      4.05732770
C       1.60582899      0.35301806      4.87794304
C       1.51278411      0.77009599      6.33379494
O       0.65323198      1.26345310      6.99909258
O       2.72383066      0.40421822      6.91911416
C       2.89288442      0.67916316      8.31170298
H      -0.29664173      1.72949744     -0.53242813
H       1.41061300      1.70135217     -0.02506286
H       0.50377438      0.19729434      0.01705397
H      -1.09615182      1.34635558      1.74030374
H       0.09441026      2.62766473      1.81790433
H       0.90673304     -0.20901036      2.46886560
H       1.89639482      1.18656793      2.36649679
H       0.56992042      2.11263060      4.33360238
H      -0.44533762      0.71174476      4.42255743
H       1.47679665     -0.73103374      4.84518611
H       2.63796579      0.55478195      4.58196708
H       3.89092681      0.38264058      8.62608513
H       2.06290556      0.11009969      8.78901399
H       2.82852456      1.78897346      8.48801515
23
Frame 165  Energy = -425.8858879831 Hartree
C       0.39122439      1.28947302      0.16358629
C      -0.00592881      1.59496620      1.59059276
C       0.82057311      0.86798083      2.60191262
C       0.53901584      1.06257346      4.05709895
C       1.60632932      0.35017502      4.87792893
C       1.51603949      0.76800894      6.33576871
O       0.65461755      1.26094898      6.99923862
O       2.72212951      0.40611264      6.91775410
C       2.89440490      0.67836020      8.31205880
H      -0.30871261      1.73759441     -0.52888179
H       1.41064582      1.70453911     -0.02169739
H       0.50457498      0.20571001      0.01518924
H      -1.10058280      1.34957288      1.73800523
H       0.09292203      2.62715879      1.81348724
H       0.90483461     -0.20362123      2.45963157
H       1.89621968      1.18267583      2.36923818
H       0.57104860      2.11732029      4.34062854
H      -0.43696077      0.70591278      4.42930036
H       1.47352792     -0.73368033      4.84439901
H       2.63794024      0.55813466      4.58661027
H       3.88029223      0.38645778      8.61528479
H       2.05942117      0.10479838      8.79008394
H       2.82879158      1.79132359      8.49048720
23
Frame 170  Energy = -425.8860122086 Hartree
C       0.39401242      1.29070536      0.16368434
C      -0.00699608      1.59389754      1.59000356
C       0.82088702      0.86672450      2.60372068
C       0.54028248      1.06278136      4.05710629
C       1.60667444      0.34742091      4.87811437
C       1.51958057      0.76570079      6.33804745
O       0.65588603      1.25840058      6.99931066
O       2.72048306      0.40799398      6.91624912
C       2.89541655      0.67780221      8.31239798
H      -0.32091835      1.74544451     -0.52605343
H       1.40923094      1.70691710     -0.01841824
H       0.50453024      0.21520314      0.01312553
H      -1.10216851      1.35323069      1.73517196
H       0.09143675      2.62933148      1.80918568
H       0.90242401     -0.19920827      2.44962669
H       1.89336830      1.17861873      2.37293407
H       0.57216319      2.12236590      4.34759981
H      -0.42802139      0.70039796      4.43450001
H       1.47040527     -0.73613050      4.84399442
H       2.63721093      0.56181982      4.59063493
H       3.87055331      0.38894291      8.60433891
H       2.05807548      0.10124099      8.79219466
H       2.82873876      1.79123551      8.49288096
23
Frame 175  Energy = -425.8860097038 Hartree
C       0.39691437      1.29197003      0.16375166
C      -0.00836785      1.59267606      1.58942172
C       0.82160907      0.86548502      2.60536003
C       0.54160876      1.06308958      4.05724673
C       1.60679640      0.34482578      4.87857366
C       1.52344804      0.76318171      6.34048974
O       0.65716219      1.25579992      6.99932813
O       2.71882276      0.40991430      6.91462192
C       2.89589778      0.67733694      8.31265388
H      -0.33284312      1.75286171     -0.52309659
H       1.40669816      1.70867419     -0.01511534
H       0.50361585      0.22495014      0.01057715
H      -1.10131153      1.35707799      1.73175331
H       0.08982544      2.63433043      1.80505502
H       0.89897545     -0.19609997      2.43884028
H       1.88800502      1.17424550      2.37795990
H       0.57302669      2.12710894      4.35388853
H      -0.41890276      0.69480275      4.43799039
H       1.46727061     -0.73830361      4.84408994
H       2.63616025      0.56568028      4.59365135
H       3.86279658      0.38947805      8.59356491
H       2.05976883      0.09996460      8.79486488
H       2.82819391      1.78827044      8.49490254
23
Frame 180  Energy = -425.8860778604 Hartree
C       0.39989289      1.29333434      0.16379306
C      -0.00999381      1.59127301      1.58894393
C       0.82266805      0.86419587      2.60682880
C       0.54298244      1.06348203      4.05755706
C       1.60686630      0.34238755      4.87920303
C       1.52768501      0.76043807      6.34304580
O       0.65835352      1.25326081      6.99932506
O       2.71730629      0.41188619      6.91296660
C       2.89582930      0.67703714      8.31291673
H      -0.34380399      1.75942814     -0.51985428
H       1.40311467      1.71002018     -0.01196489
H       0.50203346      0.23440013      0.00750231
H      -1.09828152      1.36095707      1.72815356
H       0.08803591      2.64168351      1.80064473
H       0.89468990     -0.19455837      2.42720500
H       1.88060083      1.17001442      2.38372261
H       0.57361070      2.13073113      4.35909892
H      -0.40987939      0.68962673      4.43994228
H       1.46411746     -0.74062340      4.84428456
H       2.63497229      0.56947540      4.59582787
H       3.85784326      0.38762568      8.58320428
H       2.06457806      0.10083301      8.79806722
H       2.82676142      1.78257432      8.49662076
23
Frame 185  Energy = -425.8847006676 Hartree
C       0.40300852      1.29480914      0.16382857
C      -0.01193929      1.58993167      1.58856391
C       0.82406020      0.86288610      2.60819696
C       0.54442847      1.06400444      4.05809041
C       1.60681739      0.34005684      4.88002924
C       1.53218900      0.75746387      6.34578577
O       0.65937851      1.25078254      6.99923304
O       2.71582938      0.41391828      6.91135285
C       2.89511578      0.67707160      8.31303907
H      -0.35317252      1.76435047     -0.51616874
H       1.39845197      1.71155278     -0.00898654
H       0.49972939      0.24279379      0.00364888
H      -1.09305340      1.36506924      1.72443017
H       0.08645562      2.65060361      1.79593651
H       0.88916235     -0.19471199      2.41464294
H       1.87203277      1.16613454      2.39023753
H       0.57439795      2.13330916      4.36319639
H      -0.40124598      0.68504555      4.44037936
H       1.46134764     -0.74280384      4.84446861
H       2.63345360      0.57315627      4.59722064
H       3.85624408      0.38358759      8.57353667
H       2.07204674      0.10362262      8.80171086
H       2.82512721      1.77461298      8.49803065
23
Frame 190  Energy = -425.8849999707 Hartree
C       0.40603453      1.29648163      0.16387096
C      -0.01411378      1.58869121      1.58837489
C       0.82568612      0.86156587      2.60937942
C       0.54603140      1.06466553      4.05886577
C       1.60668750      0.33788378      4.88104516
C       1.53688409      0.75429854      6.34860245
O       0.66030346      1.24836376      6.99905015
O       2.71453318      0.41596019      6.90980275
C       2.89383850      0.67742999      8.31304821
H      -0.36063290      1.76783577     -0.51198294
H       1.39346090      1.71346484     -0.00669084
H       0.49661108      0.24923270     -0.00116987
H      -1.08627539      1.36920901      1.72065450
H       0.08498587      2.66000219      1.79112798
H       0.88214738     -0.19608123      2.40167673
H       1.86274289      1.16289310      2.39759530
H       0.57496399      2.13455750      4.36622873
H      -0.39353361      0.68082007      4.43983054
H       1.45916515     -0.74497301      4.84445432
H       2.63171030      0.57655424      4.59718551
H       3.85845629      0.37722036      8.56468602
H       2.08175568      0.10822245      8.80600444
H       2.82321360      1.76473561      8.49927498
23
Frame 195  Energy = -425.8850054469 Hartree
C       0.40882605      1.29846436      0.16397573
C      -0.01648803      1.58748981      1.58834804
C       0.82751560      0.86020541      2.61040922
C       0.54776366      1.06549184      4.05983595
C       1.60646815      0.33588437      4.88228514
C       1.54171043      0.75101990      6.35139642
O       0.66113759      1.24602416      6.99886217
O       2.71338076      0.41801695      6.90831537
C       2.89199162      0.67791809      8.31288027
H      -0.36602574      1.76962995     -0.50719024
H       1.38887964      1.71546254     -0.00518329
H       0.49303011      0.25351399     -0.00664201
H      -1.07869855      1.37326660      1.71729233
H       0.08357531      2.66867966      1.78613386
H       0.87414241     -0.19863643      2.38834842
H       1.85317333      1.16036523      2.40551356
H       0.57529103      2.13467999      4.36823643
H      -0.38695948      0.67675831      4.43814963
H       1.45735270     -0.74674875      4.84455483
H       2.62993791      0.57961383      4.59626709
H       3.86402176      0.36894381      8.55684980
H       2.09345542      0.11444826      8.81089682
H       2.82090172      1.75354970      8.50060337
23
Frame 200  Energy = -425.8851809039 Hartree
C       0.41137046      1.30078850      0.16420553
C      -0.01892671      1.58647016      1.58848920
C       0.82948190      0.85883737      2.61122782
C       0.54956673      1.06642543      4.06108686
C       1.60617351      0.33404906      4.88379336
C       1.54669024      0.74764044      6.35415747
O       0.66192777      1.24372554      6.99867141
O       2.71238632      0.42001536      6.90689290
C       2.88979721      0.67844958      8.31260097
H      -0.36855427      1.76980630     -0.50148272
H       1.38491513      1.71796883     -0.00446927
H       0.48902682      0.25528150     -0.01277245
H      -1.07083109      1.37729787      1.71394920
H       0.08157440      2.67608455      1.78102986
H       0.86511375     -0.20228200      2.37492042
H       1.84417030      1.15857674      2.41353432
H       0.57535661      2.13364043      4.36909928
H      -0.38195236      0.67302644      4.43545176
H       1.45594402     -0.74820986      4.84458047
H       2.62806686      0.58233143      4.59425621
H       3.87231856      0.35928375      8.54975875
H       2.10664180      0.12193541      8.81685894
H       2.81835071      1.74195057      8.50197069
23
Frame 205  Energy = -425.8846851730 Hartree
C       0.41364328      1.30338730      0.16444543
C      -0.02127269      1.58553905      1.58864240
C       0.83146732      0.85743426      2.61191986
C       0.55157218      1.06746662      4.06255839
C       1.60581246      0.33236217      4.88556188
C       1.55168187      0.74413070      6.35691276
O       0.66262094      1.24146827      6.99840669
O       2.71157287      0.42193989      6.90558054
C       2.88740856      0.67900104      8.31225197
H      -0.36820186      1.76837926     -0.49513937
H       1.38209611      1.72122509     -0.00467820
H       0.48453809      0.25509385     -0.01960925
H      -1.06345576      1.38084076      1.71055857
H       0.07929719      2.68210878      1.77574168
H       0.85486374     -0.20647890      2.36177333
H       1.83646646      1.15777871      2.42126631
H       0.57545036      2.13166852      4.36909552
H      -0.37852376      0.66972743      4.43155903
H       1.45485382     -0.74976464      4.84452602
H       2.62573796      0.58455233      4.59128024
H       3.88245787      0.34860130      8.54302953
H       2.12053758      0.12984907      8.82371949
H       2.81535319      1.73112644      8.50330085
23
Frame 210  Energy = -425.8868398451 Hartree
C       0.41565971      1.30621899      0.16459283
C      -0.02354505      1.58478232      1.58884661
C       0.83339820      0.85594266      2.61249932
C       0.55370104      1.06853391      4.06424735
C       1.60545998      0.33092680      4.88753626
C       1.55657485      0.74057470      6.35972685
O       0.66330079      1.23917335      6.99809630
O       2.71093199      0.42388430      6.90433714
C       2.88500765      0.67954202      8.31179309
H      -0.36554728      1.76566544     -0.48804075
H       1.38065480      1.72550318     -0.00598791
H       0.48005178      0.25290517     -0.02701192
H      -1.05745481      1.38340735      1.70764077
H       0.07692582      2.68672224      1.76998633
H       0.84366037     -0.21084249      2.34861317
H       1.83088328      1.15809446      2.42890279
H       0.57535370      2.12882836      4.36807325
H      -0.37673734      0.66659919      4.42656018
H       1.45370835     -0.75128800      4.84456288
H       2.62304532      0.58604478      4.58754633
H       3.89328282      0.33698612      8.53640539
H       2.13401616      0.13741605      8.83178371
H       2.81204949      1.72185155      8.50487380
23
Frame 215  Energy = -425.8868391352 Hartree
C       0.41739416      1.30921769      0.16472492
C      -0.02567535      1.58435704      1.58931126
C       0.83517181      0.85428258      2.61292367
C       0.55595134      1.06948913      4.06604914
C       1.60509241      0.32963060      4.88968814
C       1.56132719      0.73694982      6.36252865
O       0.66393750      1.23684753      6.99780154
O       2.71051227      0.42575983      6.90322688
C       2.88267275      0.67993751      8.31106300
H      -0.36077030      1.76227114     -0.48077986
H       1.38065167      1.73077561     -0.00848914
H       0.47538903      0.24890383     -0.03475249
H      -1.05425823      1.38482576      1.70545348
H       0.07383562      2.68920846      1.76387972
H       0.83202184     -0.21480869      2.33627706
H       1.82820956      1.15960956      2.43592323
H       0.57533088      2.12534673      4.36602913
H      -0.37662765      0.66370063      4.42028122
H       1.45271985     -0.75245808      4.84461657
H       2.62003524      0.58710861      4.58312599
H       3.90370974      0.32530785      8.53034793
H       2.14632902      0.14398922      8.84128516
H       2.80810010      1.71488436      8.50687840
23
Frame 220  Energy = -425.8870071740 Hartree
C       0.41874615      1.31230065      0.16480592
C      -0.02749575      1.58432681      1.59001474
C       0.83668870      0.85255083      2.61314501
C       0.55831564      1.07037899      4.06795149
C       1.60475033      0.32858714      4.89201988
C       1.56585535      0.73320684      6.36519726
O       0.66454856      1.23449703      6.99746934
O       2.71036864      0.42759405      6.90226870
C       2.88059640      0.68019071      8.31014050
H      -0.35400870      1.75809886     -0.47373283
H       1.38198336      1.73706318     -0.01154750
H       0.47078501      0.24399330     -0.04294701
H      -1.05432876      1.38500198      1.70370356
H       0.07063360      2.68972258      1.75782404
H       0.82013249     -0.21831910      2.32504263
H       1.82873521      1.16230458      2.44246129
H       0.57570133      2.12149561      4.36310179
H      -0.37802138      0.66103714      4.41313126
H       1.45232988     -0.75348536      4.84451942
H       2.61701927      0.58743855      4.57829597
H       3.91302749      0.31385911      8.52449483
H       2.15691366      0.14932330      8.85273604
H       2.80369713      1.71061476      8.50932890
23
Frame 225  Energy = -425.8843769380 Hartree
C       0.41979710      1.31533429      0.16491336
C      -0.02898008      1.58461467      1.59082296
C       0.83797612      0.85067025      2.61309644
C       0.56073726      1.07118624      4.07000266
C       1.60448436      0.32788439      4.89447631
C       1.57009321      0.72938318      6.36751256
O       0.66506954      1.23217067      6.99709547
O       2.71044902      0.42942414      6.90145807
C       2.87896811      0.68020464      8.30901433
H      -0.34604675      1.75379596     -0.46712794
H       1.38453903      1.74406027     -0.01561917
H       0.46641745      0.23908761     -0.05127719
H      -1.05760642      1.38409375      1.70223243
H       0.06730937      2.68865171      1.75167546
H       0.80811297     -0.22137653      2.31485164
H       1.83302568      1.16632466      2.44811114
H       0.57655340      2.11809341      4.35943359
H      -0.38109547      0.65843024      4.40534730
H       1.45256407     -0.75424099      4.84487520
H       2.61387290      0.58700983      4.57290318
H       3.92017882      0.30316979      8.51876360
H       2.16522238      0.15322163      8.86570199
H       2.79920440      1.70937704      8.51264767
23
Frame 230  Energy = -425.8838436652 Hartree
C       0.42063197      1.31817334      0.16512898
C      -0.03017158      1.58520444      1.59176957
C       0.83914926      0.84874819      2.61280591
C       0.56324746      1.07184272      4.07222940
C       1.60414189      0.32730154      4.89718140
C       1.57403279      0.72556052      6.36964389
O       0.66552927      1.22986914      6.99668519
O       2.71089657      0.43115766      6.90085480
C       2.87775625      0.68013912      8.30765086
H      -0.33762412      1.74929145     -0.46151714
H       1.38822540      1.75173545     -0.02047222
H       0.46215838      0.23504719     -0.05960415
H      -1.06383633      1.38189524      1.70129270
H       0.06369462      2.68583185      1.74604984
H       0.79582734     -0.22385058      2.30605794
H       1.84053921      1.17103223      2.45306568
H       0.57750673      2.11508141      4.35509910
H      -0.38568956      0.65654387      4.39654789
H       1.45339716     -0.75474596      4.84537892
H       2.61067361      0.58593454      4.56682044
H       3.92453483      0.29363265      8.51314880
H       2.17108814      0.15527456      8.88028390
H       2.79466547      1.71141916      8.51682678
23
Frame 235  Energy = -425.8840073434 Hartree
C       0.42139541      1.32083519      0.16545154
C      -0.03098165      1.58607900      1.59284692
C       0.84013959      0.84676051      2.61239341
C       0.56574020      1.07230576      4.07454678
C       1.60378290      0.32689577      4.90001929
C       1.57761421      0.72170304      6.37155654
O       0.66597378      1.22754372      6.99620908
O       2.71167092      0.43290529      6.90050696
C       2.87700497      0.67987785      8.30609565
H      -0.32938605      1.74520523     -0.45783591
H       1.39273061      1.75966183     -0.02610410
H       0.45782959      0.23255313     -0.06770568
H      -1.07247194      1.37852206      1.70081475
H       0.06007992      2.68135527      1.74097189
H       0.78359199     -0.22546197      2.29848870
H       1.85055870      1.17621584      2.45758304
H       0.57861472      2.11254971      4.35014642
H      -0.39137797      0.65541684      4.38668953
H       1.45461588     -0.75496450      4.84582071
H       2.60775454      0.58408848      4.55998712
H       3.92579722      0.28565611      8.50753191
H       2.17454783      0.15550726      8.89624415
H       2.79022219      1.71630203      8.52131473
23
Frame 240  Energy = -425.8840252862 Hartree
C       0.42199824      1.32318726      0.16579389
C      -0.03150540      1.58709095      1.59401988
C       0.84103719      0.84485123      2.61186045
C       0.56820987      1.07254760      4.07678919
C       1.60337865      0.32664074      4.90283438
C       1.58073864      0.71787033      6.37321754
O       0.66636924      1.22520785      6.99564712
O       2.71279636      0.43457393      6.90037353
C       2.87674808      0.67941659      8.30437965
H      -0.32176268      1.74204190     -0.45627633
H       1.39742797      1.76774855     -0.03254807
H       0.45377083      0.23189430     -0.07539265
H      -1.08265335      1.37433879      1.70045519
H       0.05647011      2.67566696      1.73625419
H       0.77164981     -0.22623089      2.29249157
H       1.86194609      1.18138376      2.46138458
H       0.57975808      2.11146344      4.34506057
H      -0.39764793      0.65490824      4.37614693
H       1.45626964     -0.75513619      4.84619839
H       2.60491231      0.58119114      4.55274840
H       3.92357933      0.27950605      8.50177170
H       2.17625861      0.15434464      8.91314781
H       2.78598037      1.72333141      8.52623754
23
Frame 245  Energy = -425.8836586331 Hartree
C       0.42260508      1.32523476      0.16624513
C      -0.03192983      1.58819501      1.59524140
C       0.84199570      0.84291492      2.61119686
C       0.57065490      1.07261550      4.07916386
C       1.60297046      0.32644000      4.90570216
C       1.58341891      0.71419485      6.37469387
O       0.66684500      1.22287027      6.99503213
O       2.71430367      0.43612293      6.90049717
C       2.87692568      0.67878190      8.30270814
H      -0.31531302      1.74022525     -0.45725438
H       1.40219387      1.77563380     -0.03934338
H       0.44983186      0.23305901     -0.08246787
H      -1.09389284      1.36942170      1.70025138
H       0.05260396      2.66907479      1.73234271
H       0.76017370     -0.22594421      2.28771725
H       1.87387560      1.18644469      2.46467234
H       0.58080005      2.11176921      4.34005720
H      -0.40407979      0.65562247      4.36486180
H       1.45816016     -0.75515243      4.84669143
H       2.60195255      0.57709160      4.54527197
H       3.91799440      0.27541027      8.49545934
H       2.17660592      0.15215695      8.93015111
H       2.78217082      1.73183013      8.53100418
23
Frame 250  Energy = -425.8836809340 Hartree
C       0.42320928      1.32701762      0.16684678
C      -0.03218026      1.58934599      1.59645048
C       0.84291668      0.84094075      2.61035302
C       0.57302600      1.07251497      4.08164323
C       1.60251372      0.32638768      4.90862345
C       1.58554394      0.71064541      6.37603438
O       0.66730504      1.22048281      6.99436393
O       2.71620592      0.43758661      6.90090661
C       2.87746966      0.67799868      8.30113444
H      -0.31032881      1.73989332     -0.46120947
H       1.40662004      1.78325345     -0.04630392
H       0.44649227      0.23592097     -0.08868664
H      -1.10496378      1.36384705      1.70017210
H       0.04840784      2.66225001      1.72934545
H       0.74909028     -0.22457396      2.28439472
H       1.88587511      1.19111322      2.46762102
H       0.58161817      2.11350800      4.33499554
H      -0.41068394      0.65717795      4.35308281
H       1.46051762     -0.75538798      4.84739331
H       2.59899242      0.57224337      4.53740641
H       3.90943588      0.27313000      8.48923613
H       2.17614691      0.14922327      8.94650656
H       2.77886178      1.74126564      8.53553171
23
Frame 255  Energy = -425.8836234334 Hartree
C       0.42389699      1.32858741      0.16754597
C      -0.03240630      1.59047048      1.59776477
C       0.84387920      0.83908521      2.60927955
C       0.57524626      1.07219588      4.08413408
C       1.60207900      0.32644365      4.91155285
C       1.58710777      0.70727523      6.37722869
O       0.66779156      1.21804923      6.99363798
O       2.71836832      0.43887243      6.90155764
C       2.87826161      0.67711316      8.29952097
H      -0.30707075      1.74119212     -0.46796379
H       1.41003206      1.78997964     -0.05296355
H       0.44380785      0.24081281     -0.09407285
H      -1.11506651      1.35799524      1.70060112
H       0.04398092      2.65590251      1.72734085
H       0.73894813     -0.22203394      2.28261233
H       1.89663360      1.19454307      2.47009485
H       0.58215948      2.11644799      4.33002059
H      -0.41676984      0.65964607      4.34076540
H       1.46306012     -0.75569091      4.84834901
H       2.59581654      0.56670346      4.52935402
H       3.89827268      0.27269682      8.48329248
H       2.17536189      0.14613982      8.96126668
H       2.77601702      1.75049725      8.53941798
23
Frame 260  Energy = -425.8833286848 Hartree
C       0.42467367      1.32999862      0.16821295
C      -0.03273979      1.59150132      1.59910719
C       0.84498064      0.83734755      2.60811699
C       0.57713821      1.07151745      4.08659270
C       1.60156989      0.32667668      4.91457314
C       1.58812701      0.70400924      6.37822237
O       0.66833218      1.21553335      6.99282092
O       2.72084182      0.43997963      6.90253281
C       2.87925518      0.67611291      8.29800000
H      -0.30512346      1.74424069     -0.47744403
H       1.41236513      1.79553690     -0.05927484
H       0.44115563      0.24790582     -0.09856556
H      -1.12356766      1.35196768      1.70130397
H       0.03911318      2.65094547      1.72610475
H       0.72958079     -0.21850673      2.28231952
H       1.90579639      1.19610121      2.47208012
H       0.58268034      2.12050560      4.32522084
H      -0.42237032      0.66351116      4.32838435
H       1.46556161     -0.75600768      4.84924442
H       2.59220630      0.56059281      4.52118031
H       3.88552901      0.27399622      8.47771242
H       2.17480806      0.14272303      8.97405689
H       2.77367681      1.75871219      8.54282821
23
Frame 265  Energy = -425.8833622351 Hartree
C       0.42561721      1.33123504      0.16876669
C      -0.03319015      1.59241715      1.60040471
C       0.84620049      0.83582004      2.60682580
C       0.57871911      1.07053052      4.08901118
C       1.60109678      0.32712104      4.91766817
C       1.58856246      0.70086402      6.37897338
O       0.66887919      1.21297522      6.99196016
O       2.72372651      0.44090001      6.90377182
C       2.88042465      0.67506866      8.29672008
H      -0.30441020      1.74873089     -0.48921663
H       1.41340889      1.79989259     -0.06500993
H       0.43902843      0.25667654     -0.10214717
H      -1.12981566      1.34615589      1.70213340
H       0.03414988      2.64769867      1.72614226
H       0.72136508     -0.21484419      2.28334658
H       1.91293492      1.19595912      2.47338841
H       0.58298401      2.12527395      4.32096967
H      -0.42777574      0.66844476      4.31572526
H       1.46804855     -0.75620163      4.85028516
H       2.58867379      0.55426928      4.51323942
H       3.87180919      0.27627165      8.47287314
H       2.17510117      0.13942797      8.98426148
H       2.77230197      1.76525476      8.54574116
23
Frame 270  Energy = -425.8834147515 Hartree
C       0.42660434      1.33231364      0.16929710
C      -0.03373685      1.59309847      1.60158516
C       0.84746492      0.83445981      2.60539461
C       0.58003896      1.06932791      4.09127010
C       1.60073524      0.32764026      4.92068849
C       1.58837585      0.69788065      6.37952438
O       0.66956806      1.21038614      6.99104084
O       2.72693446      0.44172823      6.90517853
C       2.88152321      0.67404779      8.29588280
H      -0.30432322      1.75434456     -0.50266425
H       1.41282164      1.80291207     -0.07019913
H       0.43750410      0.26666002     -0.10462412
H      -1.13336680      1.34046184      1.70340389
H       0.02940228      2.64697769      1.72774157
H       0.71439647     -0.21116264      2.28567411
H       1.91751917      1.19367244      2.47401567
H       0.58323040      2.13072214      4.31738380
H      -0.43254886      0.67443212      4.30307522
H       1.47028400     -0.75640074      4.85157701
H       2.58537982      0.54737771      4.50592531
H       3.85836528      0.27934816      8.46890914
H       2.17586449      0.13679432      8.99196818
H       2.77167251      1.76908282      8.54781020
23
Frame 275  Energy = -425.8836984636 Hartree
C       0.42756814      1.33332987      0.16977427
C      -0.03441986      1.59366132      1.60259504
C       0.84889355      0.83331724      2.60374087
C       0.58115189      1.06789181      4.09330527
C       1.60044176      0.32827221      4.92368532
C       1.58758389      0.69514949      6.37990147
O       0.67030747      1.20777164      6.99005404
O       2.73038780      0.44237357      6.90677040
C       2.88245909      0.67321610      8.29540581
H      -0.30465026      1.76053754     -0.51697137
H       1.41033685      1.80446182     -0.07485586
H       0.43674280      0.27745488     -0.10629782
H      -1.13405720      1.33463134      1.70497473
H       0.02474216      2.64895123      1.73086154
H       0.70847886     -0.20728521      2.28918126
H       1.91942988      1.18941629      2.47389990
H       0.58330034      2.13645998      4.31407936
H      -0.43664964      0.68152856      4.29056877
H       1.47281229     -0.75627659      4.85290332
H       2.58286134      0.54011989      4.49941100
H       3.84645249      0.28324345      8.46621145
H       2.17756356      0.13476771      8.99662347
H       2.77179100      1.76993474      8.54869651
23
Frame 280  Energy = -425.8877029630 Hartree
C       0.42842373      1.33446018      0.17016446
C      -0.03522347      1.59395521      1.60350900
C       0.85045201      0.83241784      2.60200739
C       0.58204801      1.06631967      4.09513245
C       1.60032316      0.32895315      4.92653927
C       1.58632839      0.69279995      6.38009317
O       0.67101976      1.20508667      6.98899555
O       2.73410971      0.44292583      6.90855223
C       2.88319173      0.67257808      8.29497467
H      -0.30472726      1.76694331     -0.53116301
H       1.40641526      1.80496164     -0.07854913
H       0.43649334      0.28816891     -0.10720486
H      -1.13168126      1.32865631      1.70654753
H       0.02013426      2.65281492      1.73531813
H       0.70381515     -0.20350957      2.29353465
H       1.91858856      1.18329457      2.47278420
H       0.58333101      2.14211407      4.31118653
H      -0.43993888      0.68940097      4.27883947
H       1.47527729     -0.75606361      4.85410736
H       2.58071856      0.53259060      4.49345578
H       3.83749987      0.28712286      8.46457753
H       2.18016064      0.13375832      8.99804671
H       2.77245338      1.76814901      8.54868415
23
Frame 285  Energy = -425.8875906854 Hartree
C       0.42919271      1.33562204      0.17032950
C      -0.03606178      1.59404757      1.60438474
C       0.85214397      0.83177937      2.60025949
C       0.58270764      1.06462996      4.09678070
C       1.60019789      0.32960100      4.92924487
C       1.58473383      0.69059725      6.38011653
O       0.67180032      1.20234020      6.98787282
O       2.73816162      0.44338177      6.91042839
C       2.88370732      0.67222013      8.29478431
H      -0.30439688      1.77378288     -0.54507831
H       1.40080528      1.80442899     -0.08151577
H       0.43675958      0.29823386     -0.10735156
H      -1.12637926      1.32295730      1.70821528
H       0.01516454      2.65843777      1.74107339
H       0.70046747     -0.20036147      2.29871247
H       1.91504096      1.17573641      2.47052252
H       0.58384138      2.14676495      4.30855156
H      -0.44214278      0.69804849      4.26801021
H       1.47765303     -0.75606642      4.85551066
H       2.57888489      0.52494257      4.48819843
H       3.83237045      0.29051753      8.46419282
H       2.18358855      0.13368782      8.99619069
H       2.77387400      1.76352863      8.54787970
23
Frame 290  Energy = -425.8875863459 Hartree
C       0.42976502      1.33694390      0.17026648
C      -0.03699728      1.59402471      1.60529004
C       0.85395601      0.83139856      2.59861341
C       0.58310403      1.06302736      4.09825103
C       1.60002349      0.33022004      4.93173581
C       1.58280714      0.68856196      6.37999432
O       0.67265270      1.19955891      6.98669301
O       2.74237695      0.44380800      6.91247587
C       2.88393319      0.67214762      8.29492690
H      -0.30318531      1.78081849     -0.55798003
H       1.39421648      1.80308833     -0.08375886
H       0.43759547      0.30702543     -0.10695228
H      -1.11814779      1.31732234      1.70981353
H       0.01013037      2.66535788      1.74808803
H       0.69801136     -0.19806908      2.30470016
H       1.90918163      1.16683390      2.46723795
H       0.58480426      2.15029692      4.30588150
H      -0.44359036      0.70731287      4.25843559
H       1.47945008     -0.75596975      4.85727072
H       2.57720984      0.51735062      4.48404998
H       3.83178990      0.29300823      8.46557203
H       2.18777902      0.13435367      8.99104935
H       2.77603991      1.75646726      8.54587792
23
Frame 295  Energy = -425.8876011240 Hartree
C       0.43019359      1.33860350      0.17003662
C      -0.03792279      1.59391357      1.60626887
C       0.85577566      0.83129703      2.59692822
C       0.58322020      1.06145487      4.09947258
C       1.59981311      0.33071589      4.93407934
C       1.58055663      0.68674717      6.37972175
O       0.67352442      1.19674940      6.98547254
O       2.74676261      0.44415426      6.91461112
C       2.88380963      0.67232981      8.29537658
H      -0.30065581      1.78756995     -0.56928700
H       1.38753447      1.80107972     -0.08550192
H       0.43909967      0.31389454     -0.10630352
H      -1.10753622      1.31194184      1.71140140
H       0.00537722      2.67261120      1.75596665
H       0.69650915     -0.19725534      2.31112491
H       1.90159603      1.15638991      2.46322143
H       0.58586289      2.15203309      4.30353748
H      -0.44439142      0.71699472      4.24983411
H       1.48092609     -0.75584162      4.85929326
H       2.57594849      0.50981009      4.48095062
H       3.83600717      0.29468083      8.46874544
H       2.19203333      0.13567389      8.98316182
H       2.77894272      1.74750219      8.54268391
23
Frame 300  Energy = -425.8888510861 Hartree
C       0.43041803      1.34050574      0.16964815
C      -0.03891748      1.59377196      1.60729937
C       0.85762526      0.83144610      2.59535036
C       0.58299902      1.06001965      4.10047397
C       1.59966387      0.33112516      4.93622899
C       1.57811438      0.68514158      6.37930037
O       0.67447006      1.19391290      6.98423618
O       2.75128302      0.44441703      6.91675140
C       2.88337021      0.67268764      8.29613123
H      -0.29672960      1.79378801     -0.57863999
H       1.38109831      1.79870235     -0.08647249
H       0.44114377      0.31803554     -0.10557459
H      -1.09512302      1.30633034      1.71338673
H       0.00089223      2.67977765      1.76452780
H       0.69631994     -0.19783654      2.31802733
H       1.89313525      1.14485980      2.45827232
H       0.58729350      2.15228974      4.30178411
H      -0.44488748      0.72671230      4.24235771
H       1.48219515     -0.75559828      4.86154703
H       2.57485621      0.50244711      4.47896231
H       3.84433754      0.29600375      8.47396724
H       2.19647108      0.13722964      8.97311322
H       2.78267751      1.73707591      8.53868142
