11
maple-route1-mmgb-reference-mlip-reweighting-v1 phase=gas replicate=repeat-0 sample=0
C 0.608275319927728 -1.970725942795683 -0.318551017449743
C 0.534229323012804 -1.084886315296739 -1.609499946114332
C -0.881950345153731 -1.036305265097956 -2.292691172422004
O -1.819898235901166 -0.473608723000456 -1.744184595397102
O -0.997987796560955 -1.948101817514984 -3.311701537534024
H 1.017872122979583 -1.557574234178773 0.620178029922296
H -0.388821332284139 -2.219989226607861 -0.093599497521779
H 1.168766672920115 -2.904196649839848 -0.591419193807891
H 0.608789477122247 -0.093813609759358 -1.263671665583323
H 1.211980740292771 -1.428016886859036 -2.385120327123854
H -0.166842658573871 -2.384296310584306 -3.295686810979160
11
maple-route1-mmgb-reference-mlip-reweighting-v1 phase=gas replicate=repeat-0 sample=1
C 0.456097385719291 -1.932916430203463 -0.311658343921018
C 0.574290380177739 -1.180967684479091 -1.665080374831452
C -0.839990440158325 -1.118212719024508 -2.213419350126532
O -1.703159000241933 -0.469189266537346 -1.762826761034472
O -1.038381170885271 -1.865588705065529 -3.295149673074086
H 1.181128346319710 -1.629485827726594 0.442636783107995
H -0.468046534237758 -1.788892256091333 0.142059572356887
H 0.615219249005941 -3.041492622497391 -0.484600749501730
H 0.788690460818798 -0.089491998462409 -1.458814566859042
H 1.160053112716573 -1.698950721765829 -2.405070433956591
H -0.187943088350809 -2.051280354906294 -3.592260576741187
11
maple-route1-mmgb-reference-mlip-reweighting-v1 phase=gas replicate=repeat-0 sample=2
C 0.462566820620895 -1.948123152268332 -0.250313646967492
C 0.558426916384878 -1.290512927473771 -1.595960599378894
C -0.855952606202613 -1.117202097669225 -2.230626877783994
O -1.696105687343181 -0.362720696417475 -1.758843295759116
O -1.052028197830957 -1.845887599992245 -3.408801898416388
H 1.492295029698961 -2.097566429332740 -0.031183129562381
H 0.067110297302131 -1.252790136754300 0.575775536244870
H -0.012092634285949 -2.906148653061264 -0.239370325031553
H 1.023343165818442 -0.268309098033366 -1.465280490472757
H 1.134751383811169 -1.928679678010948 -2.302434843557944
H -0.213626436810123 -2.374909968967707 -3.501169541945464
11
maple-route1-mmgb-reference-mlip-reweighting-v1 phase=gas replicate=repeat-0 sample=3
C 0.511660599588630 -1.991378732054927 -0.145901697361541
C 0.534458650437796 -1.391632607949175 -1.621322486189507
C -0.857025110050477 -1.137815238551981 -2.234441968606369
O -1.677072666551557 -0.297380361170224 -1.858141617718660
O -1.090193323343351 -1.763893790248743 -3.385885465299041
H 1.313977004410819 -2.735223693690209 -0.047764251119589
H 0.788148285840122 -1.154488939679158 0.573400047116816
H -0.442880915595487 -2.424235084537806 0.172564482567276
H 1.020638310946524 -0.415755012744309 -1.614517023708237
H 1.124930107720993 -2.066104639666645 -2.339837501013875
H -0.316733455776463 -2.406713004664623 -3.383702522345917
11
maple-route1-mmgb-reference-mlip-reweighting-v1 phase=gas replicate=repeat-0 sample=4
C 0.496233616414598 -1.974430385011193 -0.172110908137392
C 0.481727898292488 -1.420136024603570 -1.620714441359691
C -0.903018762864844 -1.179551047264793 -2.186357710803015
O -1.551327022426843 -0.208668664133650 -1.877232355388138
O -1.102143309460828 -1.813346719955767 -3.365436524663569
H 0.880794482009538 -3.062409762810633 -0.072733438668902
H 1.003273826107443 -1.331800929537798 0.494811553981527
H -0.605106342281484 -1.954507920008796 0.112972524601989
H 1.011744857574187 -0.464666165678809 -1.720070155486118
H 1.027788038067588 -2.147647101184974 -2.243080739873775
H -0.261463434417130 -2.232023636170148 -3.499754265768369
11
maple-route1-mmgb-reference-mlip-reweighting-v1 phase=gas replicate=repeat-0 sample=5
C 0.412899495872040 -1.977260126745816 -0.219266411207474
C 0.497965143219997 -1.443304286328859 -1.593562014917031
C -0.876897862661553 -1.142444771988545 -2.190391526793608
O -1.474062442944939 -0.170388718399527 -1.886836899763907
O -1.128521400300810 -1.840562737940636 -3.346225445816405
H 0.390562602443058 -3.090008056199971 -0.229659832112379
H 1.239451578197423 -1.637373699034502 0.403527262383472
H -0.547832595950741 -1.571430367966557 0.166715791214935
H 1.094792558628130 -0.496201588955318 -1.658082382216941
H 1.090436013276097 -2.143740208515617 -2.138195422239316
H -0.531553248054672 -2.547698838380358 -3.348346420711427
11
maple-route1-mmgb-reference-mlip-reweighting-v1 phase=gas replicate=repeat-0 sample=6
C 0.326381408541353 -2.037048319057596 -0.151657305363581
C 0.562877920595041 -1.434366042720094 -1.620811481292563
C -0.781005294345147 -1.044602335092301 -2.294758003796427
O -1.492139744494838 -0.144280328905851 -1.939535390729496
O -1.172103978223760 -1.881901318695232 -3.261679550054474
H -0.302840195494366 -2.861580223043530 -0.212505846935845
H 1.334858422871388 -2.442888928350524 0.203963694967274
H -0.072789156009775 -1.306104355538801 0.531329610697255
H 1.179775378943818 -0.531794718619741 -1.612582384226366
H 1.243297746237730 -2.036989064867417 -2.223336159045840
H -0.540517287360706 -2.629091959248064 -3.243965936903221
11
maple-route1-mmgb-reference-mlip-reweighting-v1 phase=gas replicate=repeat-0 sample=7
C 0.240272686438786 -2.089249302340948 -0.218326737939801
C 0.525528188867044 -1.401033243341540 -1.595990379541197
C -0.728239787780683 -0.998762242976536 -2.345367093648630
O -1.461921334446485 -0.058014458310914 -1.959730426455291
O -1.135621076247788 -1.977434471777865 -3.153033247209423
H -0.785430720834811 -2.483174625870832 -0.168667503702036
H 0.874709118498349 -2.961788667260581 -0.182147556491337
H 0.449615421799137 -1.432290261295867 0.611233026293308
H 1.185631430932598 -0.590948957772772 -1.461608567205513
H 1.212597711969326 -2.005730862455200 -2.229650036548262
H -0.317725187973725 -2.504064736547649 -3.442804072056798
11
maple-route1-mmgb-reference-mlip-reweighting-v1 phase=gas replicate=repeat-0 sample=8
C 0.166244129453735 -2.116059641672770 -0.320506755965963
C 0.558407316285875 -1.348086273818843 -1.519124866090698
C -0.713049485499278 -1.039909154094395 -2.306331984756617
O -1.388117541605146 -0.051602248377705 -2.035183213047858
O -1.144105238024799 -1.976442098070139 -3.121404445431449
H -0.958973088979582 -1.989730639356515 -0.096417322961599
H 0.357265263184387 -3.144073841192721 -0.392413879396187
H 0.703629465347646 -1.640875124430541 0.519251936244867
H 1.157714617802050 -0.491695556506367 -1.211851224631576
H 1.248228072048150 -1.874783878341140 -2.140743668164693
H -0.617695486045591 -2.771349210026191 -3.017772686354927
11
maple-route1-mmgb-reference-mlip-reweighting-v1 phase=gas replicate=repeat-0 sample=9
C 0.147194743482859 -2.229232581398072 -0.245086110975726
C 0.527297808004779 -1.296050948608748 -1.492773778442722
C -0.704243391120447 -0.965961835081061 -2.380891627435723
O -1.364989463282022 0.008790346733222 -2.136703858333722
O -1.132634446475036 -2.029828460074097 -3.068658010360966
H -0.654926294565581 -1.770954621176665 0.345237679346481
H -0.249123319549379 -3.260584294328753 -0.494020556227517
H 1.044132380066486 -2.284046746861967 0.444480518572732
H 1.026097527102984 -0.363116517979186 -1.142659132413197
H 1.236577487159855 -1.749489025154383 -2.146772802101273
H -0.577126562895531 -2.750677746315566 -2.908321944906965
11
maple-route1-mmgb-reference-mlip-reweighting-v1 phase=gas replicate=repeat-0 sample=10
C 0.148926662595570 -2.251440543995279 -0.244503788957309
C 0.510634855586531 -1.310113354471421 -1.392578836645929
C -0.719718305788399 -0.969095165033848 -2.333843300554314
O -1.366503752705032 0.038221343135748 -2.304679388592564
O -1.113060823203567 -2.016275757400956 -3.004611573535227
H -0.183192703912688 -1.745084889923550 0.627381105103747
H -0.770853701893026 -2.856948154968917 -0.590443673773961
H 1.014409600539052 -2.911052461337000 0.017094599221478
H 0.939913422841895 -0.393322959298820 -0.972132852097868
H 1.269100560231259 -1.821917920129689 -2.050576088360092
H -0.375484523782165 -2.659350634395557 -3.042556044990615
11
maple-route1-mmgb-reference-mlip-reweighting-v1 phase=gas replicate=repeat-0 sample=11
C 0.102869142138850 -2.225190586976070 -0.253299112117699
C 0.444060229470397 -1.307291901429212 -1.379921684180067
C -0.730409573578520 -1.011559370699191 -2.301804188825649
O -1.302820202910270 0.092178109469070 -2.307843550523426
O -1.054890390103429 -2.061023001024941 -3.064759139114245
H 0.058417251664088 -1.717972597512885 0.733150413198759
H -0.895062805905485 -2.597127123994481 -0.439789225582479
H 0.831186302971642 -3.008669739969927 -0.213712903986695
H 0.836363309721328 -0.361724236813906 -0.934607489635806
H 1.219781726290673 -1.855912617204853 -2.020257637033079
H -0.619909534026794 -2.845074745021540 -2.567523062342944
11
maple-route1-mmgb-reference-mlip-reweighting-v1 phase=gas replicate=repeat-0 sample=12
C 0.000716086469732 -2.225400672152412 -0.113076170668316
C 0.487634131526831 -1.333905707284474 -1.406321788382499
C -0.650122430125877 -1.008257703575516 -2.338255792554204
O -1.280717283292868 0.040523511241700 -2.320536652171953
O -1.100119492543657 -2.002502386240359 -3.117705385833587
H 0.055177889625234 -1.637479797101107 0.832350272048343
H -0.975937757835530 -2.576793507644260 -0.192714136236893
H 0.698542258714591 -3.036842847374968 0.030949148701312
H 0.957161684044382 -0.357362568906461 -1.089715102773374
H 1.196793710029576 -1.953167833650397 -1.946297776031558
H -0.404578555238472 -2.645520067083451 -2.949373800762749
11
maple-route1-mmgb-reference-mlip-reweighting-v1 phase=gas replicate=repeat-0 sample=13
C -0.073268394117204 -2.113498468672010 -0.117796231292891
C 0.495858757912185 -1.475464574848399 -1.389852913106622
C -0.626182931765659 -0.976887801192785 -2.340091769787866
O -1.255933887833149 0.040703869589120 -2.241711702757704
O -1.078610657194407 -2.009077279411077 -3.191417517387048
H -0.134893877691229 -1.319120572756345 0.571387432049805
H -1.072335133766074 -2.564641723660691 -0.223156320100933
H 0.682672777302466 -2.807173414263772 0.314335944294766
H 1.098068347446761 -0.615700869525828 -1.118844033199615
H 1.065237182701301 -2.263158825850632 -1.822214824226310
H -0.348650839827775 -2.560618487219144 -3.230713011208406
11
maple-route1-mmgb-reference-mlip-reweighting-v1 phase=gas replicate=repeat-0 sample=14
C -0.184141646559389 -1.957332146160389 -0.126014416975218
C 0.467492059841386 -1.591097738420019 -1.455875974942221
C -0.613703388099201 -1.030200750500833 -2.306611546822114
O -1.157155652762946 -0.012773746936321 -2.128618890058011
O -1.015954220443495 -1.938346558788797 -3.272006667914209
H -0.720399802693788 -1.123224853401762 0.302093140838919
H -0.957135869289502 -2.777640001990274 -0.373862564294600
H 0.558721234528467 -2.320967341300226 0.614181707325251
H 1.100873702191559 -0.759525895485173 -1.342917099637491
H 0.941918718455794 -2.511978851549052 -1.833389708703254
H -0.699905278557841 -2.763429213038040 -2.894947127022429
11
maple-route1-mmgb-reference-mlip-reweighting-v1 phase=gas replicate=repeat-0 sample=15
C -0.256133482074524 -1.907972123338874 -0.002434699168839
C 0.473671204238263 -1.686015074472208 -1.416331531447198
C -0.553849809652188 -1.064617792561579 -2.376468718253235
O -1.111323575591138 0.001501778158689 -2.167046612633933
O -1.065376469894381 -1.898806180550844 -3.313659835526095
H -1.115957949377587 -1.179325433582657 0.221062325256192
H -0.733363039491907 -2.880883221213342 -0.057385060971667
H 0.413748546082922 -1.896317739796340 0.866714230856028
H 1.239316219923398 -0.898864237147194 -1.344103933908932
H 0.913958070477948 -2.644175350950184 -1.766895688552849
H -0.379166766816308 -2.651863262688670 -3.276470840321433
11
maple-route1-mmgb-reference-mlip-reweighting-v1 phase=gas replicate=repeat-0 sample=16
C -0.261074350816800 -1.935761094501298 0.055128022459011
C 0.318554014414845 -1.709490956182762 -1.306413194696744
C -0.563037795855300 -1.074769755756799 -2.396860072786957
O -1.037020177438815 0.076380617977687 -2.270836881362644
O -1.018713814791101 -1.924518774237386 -3.354670525751693
H -1.022459616254779 -1.153920586351656 0.359394713897780
H -0.650785671965760 -2.916907903060022 0.205478870938170
H 0.586844377907078 -1.839830525395308 0.763510368880736
H 1.185434072145871 -0.967991344770327 -1.128509677885581
H 0.703899646189357 -2.675138731736961 -1.662786494129247
H -0.370562473686213 -2.651736573286199 -3.343188113660057
11
maple-route1-mmgb-reference-mlip-reweighting-v1 phase=gas replicate=repeat-0 sample=17
C -0.323888184800548 -1.934279148650148 0.071299868361003
C 0.335536387697896 -1.651171180466240 -1.307903447076210
C -0.735596223637627 -1.111183478555778 -2.287769461550456
O -0.932776792331937 0.076049503813569 -2.420057718843839
O -0.902059879750903 -1.929726027434800 -3.312731228655053
H -0.784683629151078 -1.047835434366678 0.402204859011240
H -1.081100990070028 -2.763129274890419 0.108556401345637
H 0.435113500933353 -2.198888881654584 0.849627159186061
H 1.210614948236020 -0.966603701892805 -1.196494878969257
H 0.648156716272264 -2.617050385680082 -1.734110184036958
H -0.906539629709153 -2.801458300153254 -2.999663407063793
11
maple-route1-mmgb-reference-mlip-reweighting-v1 phase=gas replicate=repeat-0 sample=18
C -0.385210932580759 -1.922194132399234 0.091746378911434
C 0.266633743106652 -1.568486647459266 -1.270391179295814
C -0.708404376553876 -1.090805634214829 -2.340174773710686
O -0.831928796378463 0.074623932355624 -2.490383888117337
O -0.922236934304009 -2.027036570155895 -3.256126480642485
H -0.526342356921413 -1.010107077188769 0.651396403195251
H -1.377831677520909 -2.421317255162983 -0.062955926550410
H 0.192513901837896 -2.612447589636004 0.711505632778277
H 0.998079078100297 -0.830395564308726 -1.083767961523081
H 0.771569890082889 -2.444040953240426 -1.692865458264860
H -0.594014025772634 -2.883147369585060 -2.949759570966386
11
maple-route1-mmgb-reference-mlip-reweighting-v1 phase=gas replicate=repeat-0 sample=19
C -0.466939446057039 -1.877389472463125 0.090297817997106
C 0.333290818795394 -1.602169654272485 -1.161292988009322
C -0.498434719943323 -1.071404206762427 -2.437805994694955
O -0.884423679002583 0.081762721662761 -2.604889809586885
O -1.013543843603048 -2.055154271692495 -3.166856245208911
H -0.544877013855798 -0.971308583018887 0.784381307958365
H -1.430675889336323 -2.196016852852310 -0.246478956375513
H -0.078949212714164 -2.709562076507496 0.623902138891430
H 1.100688736972569 -0.950090112011277 -0.783583482800953
H 0.854623788534910 -2.506113864989002 -1.460863422166809
H -0.475481333835726 -2.897798417669362 -3.074268013619057
11
maple-route1-mmgb-reference-mlip-reweighting-v1 phase=gas replicate=repeat-0 sample=20
C -0.630530554672978 -1.764439063908588 -0.023575545706370
C 0.358414969687884 -1.576478906696682 -1.280009914363093
C -0.421319786841759 -1.134640480359672 -2.439677426889274
O -0.782868275471873 0.047201993496123 -2.534812690276548
O -1.014251345163049 -2.114224194166327 -3.068575824582409
H -0.803480478880110 -0.812472770800820 0.524709803525358
H -1.557017665687885 -2.212786206042414 -0.337980925757954
H -0.208430580622729 -2.486755495456410 0.687867719579400
H 1.116692243025201 -0.804782691307291 -0.926485605238271
H 0.956208381825583 -2.455212103362944 -1.526194018098870
H -0.929113155561313 -2.867256372632625 -2.453482856358774
11
maple-route1-mmgb-reference-mlip-reweighting-v1 phase=gas replicate=repeat-0 sample=21
C -0.707072705180663 -1.717978891394701 -0.106163461710468
C 0.363547930822097 -1.590807190530979 -1.215103398094715
C -0.387006983464429 -1.124778862862656 -2.413346222701461
O -0.673681819863252 0.040930617351754 -2.586016925959306
O -1.089723608952010 -2.138753399447628 -3.010051924039549
H -1.113307626726892 -0.742776529497141 0.002267119589034
H -1.466740528099592 -2.523737330332656 -0.326108710083029
H -0.234419797747305 -1.960172217436140 0.879893617064820
H 1.179398839309385 -0.932094249096508 -0.833401746985082
H 0.844195141790497 -2.582099450708770 -1.335199922339546
H -0.728077392475110 -2.912692494418699 -2.641806908866100
11
maple-route1-mmgb-reference-mlip-reweighting-v1 phase=gas replicate=repeat-0 sample=22
C -0.744792936649142 -1.718288456665432 0.039474456707062
C 0.254121155549164 -1.634156530303025 -1.126901983384964
C -0.309641592194479 -1.120762763949036 -2.477399541494739
O -0.547139625923598 0.004611567097917 -2.699327552757979
O -1.135023684559803 -2.066367730716310 -3.050000670490536
H -1.444078028456353 -0.903978629447883 -0.153470744468171
H -1.201970712397740 -2.738765944920778 0.059554041245863
H -0.274345719436617 -1.509277806511045 1.011850789940014
H 1.071885636647238 -1.023471380016113 -0.833032635830019
H 0.642013012006342 -2.677245241439492 -1.145462602192188
H -0.772213085583496 -2.912515057923875 -2.791443638321465
11
maple-route1-mmgb-reference-mlip-reweighting-v1 phase=gas replicate=repeat-0 sample=23
C -0.808736336182726 -1.700687149342050 0.117641761917077
C 0.189201742662029 -1.663877593510318 -1.156083225337975
C -0.470089707550175 -1.115584112248946 -2.385473010787713
O -0.317447738119197 0.015978829928267 -2.761503231123768
O -1.092349460622666 -2.091442657820584 -3.124132282769558
H -1.649718035914806 -0.959846798342039 -0.024430197608628
H -1.181059881119631 -2.701988817329692 0.187345144846862
H -0.312642936649785 -1.457271620384861 1.057936831108099
H 0.960944855687092 -0.920385672540320 -0.958500711094499
H 0.637332551259181 -2.640733336820285 -1.191818290073038
H -1.301328881162479 -2.788111242339986 -2.440020646693466
11
maple-route1-mmgb-reference-mlip-reweighting-v1 phase=gas replicate=repeat-0 sample=24
C -0.851945039741919 -1.666476846238261 0.123631432686362
C 0.123216926799301 -1.671819556105521 -1.071831497958166
C -0.538815786785417 -1.102772377346828 -2.334530967274501
O -0.181398556882431 -0.057370144441031 -2.887742833600155
O -1.086720031059804 -2.028257185559822 -3.116135623958819
H -1.587742503922839 -0.847125242335173 0.114656608788996
H -1.346906541323167 -2.623707306988958 0.097393836486954
H -0.297170568874047 -1.659072085527315 1.065428892262140
H 1.045146596346353 -1.083827913150463 -0.817168165455041
H 0.313334877241423 -2.724489097156991 -1.105167558222088
H -1.107438882881729 -2.819279458915425 -2.535108658460701
11
maple-route1-mmgb-reference-mlip-reweighting-v1 phase=gas replicate=repeat-0 sample=25
C -0.906666634286532 -1.591824603910422 0.145337749712614
C 0.063986403150851 -1.673533523635391 -1.050643648294451
C -0.363635494776240 -1.190348813821920 -2.446355336445018
O -0.111242942852711 -0.022099056523828 -2.853326656958888
O -1.174617258131696 -2.072557609030945 -3.106861390428103
H -1.103457797688616 -0.554048330945052 0.334393918211218
H -1.892332625470643 -2.126703862876233 0.047719556508090
H -0.397005642305915 -1.987517260562308 1.043475603950069
H 0.953740765572154 -1.101353476829988 -0.739151043230404
H 0.218486640324118 -2.786749096491222 -1.114429806295226
H -1.202705270363817 -2.877506726411142 -2.622051540357301
11
maple-route1-mmgb-reference-mlip-reweighting-v1 phase=gas replicate=repeat-0 sample=26
C -0.986399094055480 -1.444765133225802 0.001558037252318
C 0.167976493245658 -1.788847171600644 -1.050280093584506
C -0.308917857711114 -1.245063263677139 -2.408765119396380
O -0.132376456262650 -0.136671916858729 -2.778739069589127
O -1.172242365976987 -1.982890367591610 -3.063539721322260
H -0.802567954917921 -0.405045148384312 0.356772339006351
H -2.032989198715160 -1.317946765939382 -0.397957439610986
H -1.076326682715668 -2.113888853253388 0.893799471760773
H 1.100450963432742 -1.275755664027825 -0.766117331063149
H 0.205326564067203 -2.914674682596490 -1.193975733252862
H -1.459025229110551 -2.720912495806711 -2.557161736240430
11
maple-route1-mmgb-reference-mlip-reweighting-v1 phase=gas replicate=repeat-0 sample=27
C -0.982123387534658 -1.338820384978989 -0.119525972892497
C 0.031632882648895 -1.878213994770283 -1.082423567455224
C -0.238784035716282 -1.265075286292620 -2.457446663921484
O -0.021186918662679 -0.080942570350641 -2.643397578659046
O -1.223953145477204 -2.027646351077236 -3.023192877002406
H -0.699195060544993 -0.345524354775914 0.363698290766668
H -1.911724361121983 -1.059317268625673 -0.611650108612859
H -1.293862752831955 -2.086971180411600 0.621455963470120
H 1.012067539585380 -1.534951660446828 -0.695815839990229
H -0.107618166553660 -2.933610259620019 -1.148116327933186
H -1.259511127203854 -2.919409999173099 -2.585508922759306
11
maple-route1-mmgb-reference-mlip-reweighting-v1 phase=gas replicate=repeat-0 sample=28
C -1.004961185535027 -1.283547382086385 -0.026881339514078
C -0.057496491566405 -1.962172320954760 -1.041992416713772
C -0.242334422373008 -1.324638258430503 -2.420010191967655
O 0.025056983996731 -0.162646363368216 -2.663040249654729
O -1.165031151881390 -1.883455737080839 -3.149272520539870
H -0.660355393095177 -0.333343403019299 0.367568910242933
H -1.967092512469238 -1.038292013062942 -0.471412276858970
H -1.255235725313467 -1.996557735379442 0.757732434139397
H 0.925444273971579 -1.680720236892223 -0.671106982149076
H -0.232583130032276 -3.012769619100784 -1.059935651694022
H -1.351628244998151 -2.754492004983939 -2.701543833199021
11
maple-route1-mmgb-reference-mlip-reweighting-v1 phase=gas replicate=repeat-0 sample=29
C -1.046468830316353 -1.294594383873775 0.109288002442167
C -0.163793201601697 -1.979511792814362 -1.061416599072930
C -0.335494763373399 -1.255865758862102 -2.389491056796991
O 0.231249033653253 -0.181813495821509 -2.641914500515239
O -1.159309429596925 -1.890226253044333 -3.301553647604961
H -0.743667701175891 -0.297741048909963 0.213701137415557
H -2.122943916100135 -1.215216411649112 -0.058515208219314
H -0.926078331613934 -1.813352595830749 1.045878995885566
H 0.871247420395196 -1.985019604693124 -0.748199723638327
H -0.531891680610218 -3.032647806045543 -1.124717042320738
H -1.573807416397472 -2.553697225642670 -2.783336267281863
11
maple-route1-mmgb-reference-mlip-reweighting-v1 phase=gas replicate=repeat-0 sample=30
C -1.028056441280964 -1.320056668988762 0.106637279200635
C -0.357123690329307 -1.943568146959250 -1.060472993684801
C -0.447756030150474 -1.140804081890729 -2.328760698458337
O 0.381944137369291 -0.344473959993079 -2.634875370409378
O -1.087970956162363 -1.812257776037587 -3.340467916227517
H -0.870987103913680 -0.241419683614527 -0.022536519971378
H -2.094714170496792 -1.452082480477117 0.152721482920512
H -0.562224052379979 -1.683988972642939 1.014420155922561
H 0.715056207165651 -2.127350107380394 -0.781598506800879
H -0.909947715509703 -2.935883100263401 -1.075656342825105
H -1.402790238883350 -2.605374671670615 -2.934167533139092
11
maple-route1-mmgb-reference-mlip-reweighting-v1 phase=gas replicate=repeat-0 sample=31
C -1.064702962529944 -1.241468946437839 0.168603507142622
C -0.484441092096838 -2.020292136956365 -1.090672834874897
C -0.358390233677429 -1.204658928404993 -2.374456451054577
O 0.479853888002854 -0.391839400222720 -2.583277306766063
O -1.090372740025928 -1.732099055624139 -3.386690084519912
H -0.937173869821470 -0.113460344549655 0.074976425797048
H -2.150491532239797 -1.337607903952853 0.189345554546572
H -0.685625174518065 -1.647672423459748 1.134043113051219
H 0.581713991938423 -2.282430774295745 -0.863435841681621
H -1.023486076146787 -2.948227295622433 -1.146333222999043
H -1.552307150870238 -2.504175301013153 -2.952799925469281
11
maple-route1-mmgb-reference-mlip-reweighting-v1 phase=gas replicate=repeat-0 sample=32
C -1.086481457458628 -1.170569807102228 0.095891316882542
C -0.553844814287575 -2.102342010239099 -1.076247027401067
C -0.267390649880043 -1.330309493926891 -2.394223798660406
O 0.515205076385832 -0.392419629910245 -2.466510563330672
O -1.083607603118935 -1.650348435131503 -3.426218746999778
H -0.629824734532630 -0.184060814943844 0.160099228654688
H -2.162720367253497 -0.885504036515232 -0.132740199177644
H -1.077046547539514 -1.723343468122350 1.084949735689124
H 0.379808099896590 -2.530542675264705 -0.786220086517828
H -1.183928149696659 -2.933923508425595 -1.198062276455446
H -1.752884558776808 -2.246008381226480 -2.988837832877665
11
maple-route1-mmgb-reference-mlip-reweighting-v1 phase=gas replicate=repeat-0 sample=33
C -1.119419976346197 -1.178176724860019 -0.097717922587729
C -0.588485560897650 -2.119997756867958 -1.070397445624826
C -0.282163867452025 -1.349317846152108 -2.338862204648855
O 0.562309758277460 -0.448505869275806 -2.368367696437624
O -1.077083686698781 -1.552373198414179 -3.380287201763677
H -0.324464343841776 -0.565291062425860 0.277849148587430
H -1.853155837186301 -0.428767934797092 -0.494530169549540
H -1.528378476344421 -1.794046157132382 0.730377559911614
H 0.245052794325619 -2.597230939854475 -0.647376530185092
H -1.324487396634890 -2.916473255764483 -1.278802216451755
H -1.506186200468441 -2.352717544861893 -3.162431666216672
11
maple-route1-mmgb-reference-mlip-reweighting-v1 phase=gas replicate=repeat-0 sample=34
C -1.277828129354212 -1.147863412130687 -0.069648901742041
C -0.632208404406878 -2.138573961605461 -1.152388071695422
C -0.208505591611044 -1.343710529342010 -2.365639850816278
O 0.689883601956745 -0.510921598975042 -2.305489954952812
O -1.075260963192735 -1.515930923167858 -3.376058531918193
H -0.421446588417619 -0.704959838848519 0.487146020979429
H -1.721070022511794 -0.276201426962077 -0.479757068201190
H -1.893046541274569 -1.659975801316626 0.643270345055285
H 0.243211221062412 -2.690928397070254 -0.731268177359135
H -1.325619681190423 -2.940835425693177 -1.509360107836534
H -1.687060565053315 -2.173261939709768 -3.095177676766400
11
maple-route1-mmgb-reference-mlip-reweighting-v1 phase=gas replicate=repeat-0 sample=35
C -1.401796187312492 -1.207597457982108 -0.029915039664706
C -0.730744012683237 -2.110960747126919 -1.078135880022415
C -0.168516996379786 -1.350238275507952 -2.357172558111013
O 0.772231306160036 -0.633988535070271 -2.360778139520881
O -0.961909814560719 -1.374936519241412 -3.420062524612657
H -0.678438216007506 -0.583298100016189 0.516537094420034
H -1.985645939736137 -0.528086011319842 -0.594045369256303
H -1.952842770306878 -1.843550044302336 0.642030081907553
H 0.148091790979076 -2.620305457534478 -0.530755014287166
H -1.424139404759270 -2.897008875872725 -1.403231464728941
H -1.829949619867013 -1.791173311370324 -3.197201207805138
11
maple-route1-mmgb-reference-mlip-reweighting-v1 phase=gas replicate=repeat-0 sample=36
C -1.514007175363386 -1.231998983338388 -0.095377901537222
C -0.776047776782770 -2.070288511060131 -1.153287419445247
C -0.188313485289803 -1.241023996010301 -2.313857426515343
O 0.959049501434632 -0.801056345823221 -2.258361524757067
O -0.982316604952947 -1.290548173981958 -3.416105405278786
H -0.948906367672118 -0.411841357722222 0.250683035543936
H -2.388906106396767 -0.834299460644898 -0.678427812218718
H -1.769230237170067 -1.943739160386763 0.714284786772283
H 0.075126991475912 -2.519170885979146 -0.628254162444857
H -1.473436744423245 -2.815651610972671 -1.520691375184182
H -1.747188411170550 -1.915614553514661 -3.232649179194253
11
maple-route1-mmgb-reference-mlip-reweighting-v1 phase=gas replicate=repeat-0 sample=37
C -1.647236543913157 -1.224076354539862 -0.172041700740596
C -0.800988425007658 -2.143795299710572 -1.210765763426347
C -0.191746164204417 -1.226838987865171 -2.244532509825981
O 1.001373376338520 -0.930549632330043 -2.244847496916446
O -0.874074915632567 -1.153782497512890 -3.363090468009501
H -1.093635270257914 -0.294652852030303 -0.008269592581804
H -2.647536395187559 -0.946936948873855 -0.595693023580967
H -1.672825236157325 -1.792769365384663 0.785097287365566
H -0.041640062741295 -2.670645145591319 -0.736851287539751
H -1.526853365162233 -2.812920129742272 -1.697781570724950
H -1.745622146306041 -1.414575517482895 -3.120764707197967
11
maple-route1-mmgb-reference-mlip-reweighting-v1 phase=gas replicate=repeat-0 sample=38
C -1.728470049240605 -1.266531264337225 -0.246529870447796
C -0.885571483060063 -2.114120756413551 -1.185541774359173
C -0.092070699464392 -1.392129569908679 -2.298479677922074
O 1.057374892756420 -0.988164789324404 -2.153821039974308
O -0.854897618251212 -0.969280630334455 -3.373056464772006
H -1.096647782198302 -0.328112690325533 -0.036603700791071
H -2.678301773133212 -0.980414053413799 -0.660107912886117
H -1.774688866540224 -1.841349699722447 0.672916222428136
H -0.198003029597838 -2.728927880778050 -0.602483483231149
H -1.673110854482549 -2.698214312338756 -1.653350539605570
H -1.711875769354674 -1.242904641311361 -3.154122638331440
11
maple-route1-mmgb-reference-mlip-reweighting-v1 phase=gas replicate=repeat-0 sample=39
C -1.758868892401801 -1.236780923225430 -0.355939229250054
C -0.919681551840351 -2.177209680549676 -1.283300723814397
C -0.055313057431160 -1.437533654570425 -2.296649635459703
O 1.042559404753487 -1.055776530519885 -2.057748980323268
O -0.811666093005749 -0.837596541229016 -3.272383141781463
H -1.142633061315424 -0.430978613304475 0.064425804273197
H -2.531639305205235 -0.713884555872184 -0.946211105738175
H -2.202185553362337 -1.770142859401127 0.487051117942824
H -0.126253344702349 -2.733230900680527 -0.655497480230275
H -1.615541153771423 -2.863606026377747 -1.765265763566927
H -1.639573375578762 -1.389859129361024 -3.282933477178766
11
maple-route1-mmgb-reference-mlip-reweighting-v1 phase=gas replicate=repeat-0 sample=40
C -1.772293683828849 -1.234337755832255 -0.499291147012383
C -0.966459226114479 -2.250898743324403 -1.353610394474316
C -0.060268324926383 -1.403903942666203 -2.227975986568908
O 1.068923950217818 -1.081775732117180 -1.986405098754473
O -0.759322132020605 -0.798960640336984 -3.213315949422650
H -1.206756160907800 -0.674958807445988 0.198288446305969
H -2.285487992005706 -0.472101273990126 -1.161311701776407
H -2.608543411411314 -1.712676700275437 0.100750323601042
H -0.273452884827466 -2.789091999834614 -0.699384165930502
H -1.648815697156697 -2.939805320309575 -1.927599113110295
H -1.701817879698235 -1.055854668152733 -2.948677726697547
11
maple-route1-mmgb-reference-mlip-reweighting-v1 phase=gas replicate=repeat-0 sample=41
C -1.871909418339978 -1.290918334129175 -0.516235038753316
C -1.030167363216906 -2.158956143879177 -1.368500124006817
C -0.018247751392769 -1.462634156485945 -2.280509481849673
O 1.097094447053594 -1.132599602125712 -1.872122452307145
O -0.659831433076862 -0.718325794081527 -3.238647405674710
H -1.402334570067822 -0.877152297353680 0.392690551384172
H -2.322320385917374 -0.447262521256779 -1.070425303198462
H -2.759888295704529 -1.875412998410422 -0.167862215538035
H -0.558681721589093 -2.866426444780408 -0.750619954123211
H -1.737588530971010 -2.675254071747545 -2.045177265076348
H -1.527064000915067 -1.090959630873440 -3.201513547952132
11
maple-route1-mmgb-reference-mlip-reweighting-v1 phase=gas replicate=repeat-0 sample=42
C -2.010564074895123 -1.319881561161273 -0.523913245274321
C -1.105252857392632 -2.214896576544039 -1.460830912936899
C -0.057525179609576 -1.338870793965159 -2.187861933667856
O 1.084043696885325 -1.200079849766261 -1.793933410474465
O -0.460554198218834 -0.679157012820672 -3.291787140385605
H -1.368323289294765 -0.913073470025428 0.329207437368463
H -2.452740691206469 -0.449231026481079 -0.979904223079501
H -2.818523334062375 -1.784992941767259 0.003129546882807
H -0.626553086215166 -2.990066743175940 -0.866166208729084
H -1.669196575196775 -2.682621189736008 -2.223685072181757
H -1.314827585029881 -1.027976424785766 -3.414912189326223
11
maple-route1-mmgb-reference-mlip-reweighting-v1 phase=gas replicate=repeat-0 sample=43
C -2.040621620677123 -1.372793266503070 -0.573237079182793
C -1.206942095767236 -2.089777523636278 -1.624683885921054
C -0.029413523538992 -1.260807042453978 -2.123632950950690
O 1.075374816258819 -1.281677957173525 -1.626382906998998
O -0.343530226916404 -0.715282091295614 -3.306445291789139
H -1.415743663348863 -0.941241834552358 0.209059191824184
H -2.681746165557697 -0.614944788724103 -0.964907330791967
H -2.698990895604055 -2.016979009413279 -0.024417790435265
H -0.808727147325081 -3.040734477151049 -1.167214274757327
H -1.805590208269306 -2.341236130810439 -2.479513879615492
H -1.324091852216124 -0.815167414223989 -3.369641101091770
11
maple-route1-mmgb-reference-mlip-reweighting-v1 phase=gas replicate=repeat-0 sample=44
C -2.065701339224194 -1.394389331525752 -0.596243640022262
C -1.321117390397464 -2.099287901335331 -1.677023135030076
C -0.038442987332738 -1.290076930207290 -2.134800633903657
O 0.990366412588221 -1.311541160822517 -1.515227769700713
O -0.128997858091324 -0.634137910467562 -3.299987993372743
H -1.458801950249471 -1.001423912319394 0.143397221707101
H -2.697529495376072 -0.655973650340514 -1.129557101496256
H -2.796358009516953 -2.067417009944281 -0.119462685209367
H -1.021182608782762 -3.082501839545076 -1.271794449146549
H -2.018963193160238 -2.243694210874891 -2.561983954345198
H -1.035312766498895 -0.810177026107963 -3.696809416019634
11
maple-route1-mmgb-reference-mlip-reweighting-v1 phase=gas replicate=repeat-0 sample=45
C -2.134067594598710 -1.353406747808358 -0.616443485934862
C -1.312997993288410 -2.083124240964317 -1.839823959826600
C -0.003721154385106 -1.356466694320850 -2.172192548168388
O 0.911115093529132 -1.337810806313185 -1.361053718245977
O -0.044754797240272 -0.608318025985875 -3.267454739079176
H -1.440721094166399 -1.263442612503444 0.250668439720176
H -2.581412353824255 -0.382315783978063 -0.949200222105266
H -2.983506154268616 -1.990474165733367 -0.268037363441701
H -0.989601180883390 -3.077100820257109 -1.512910295688552
H -1.938966572995448 -2.234308702252768 -2.770868653785357
H -0.862407047808169 -0.790405070244362 -3.723997067567535
11
maple-route1-mmgb-reference-mlip-reweighting-v1 phase=gas replicate=repeat-0 sample=46
C -2.092801974254601 -1.368923378250458 -0.779883560259157
C -1.359728543590830 -2.055732907557795 -1.894405304458886
C -0.029675918221548 -1.358933284691922 -2.096983559211205
O 0.877995120601257 -1.343168773813324 -1.276268623230792
O 0.011240106939605 -0.624252150718488 -3.210309420978618
H -1.442740495458423 -1.668727102520771 0.154589184486812
H -2.186416094886204 -0.295484644935195 -1.034326002775820
H -3.090142360576333 -1.823896269709968 -0.680045890471831
H -1.222041194647791 -3.114759832297636 -1.660838950545262
H -1.992385432017495 -1.983835216303735 -2.744703222263027
H -0.851863359973199 -0.616050977834793 -3.567432889418331
11
maple-route1-mmgb-reference-mlip-reweighting-v1 phase=gas replicate=repeat-0 sample=47
C -2.171000935459094 -1.375928427144020 -0.814618091562543
C -1.346897724714220 -2.054670685443654 -1.931434275937105
C -0.016236647510166 -1.332665797841829 -2.066170893354488
O 0.850007564510562 -1.424926794142329 -1.242825231654194
O 0.087907594669906 -0.554899296037261 -3.180667820639488
H -1.799057978206405 -1.774891209310877 0.124081611417603
H -2.086039656671035 -0.297946499902604 -0.979168254729223
H -3.243453734295192 -1.621465682055749 -0.943467257850148
H -1.186907159000825 -3.099980810613383 -1.681106843124037
H -1.963593481608650 -1.965426051717843 -2.800218233234009
H -0.654711138827277 -0.787624883856223 -3.769583173613125
11
maple-route1-mmgb-reference-mlip-reweighting-v1 phase=gas replicate=repeat-0 sample=48
C -2.332122088589475 -1.374045097741674 -0.831247109749892
C -1.347980057831685 -2.025566045511608 -1.989254944499735
C 0.021060907775161 -1.333956027587215 -2.059371693017794
O 0.884560988958475 -1.492029927273121 -1.252542271834919
O 0.179596464019520 -0.522768022999799 -3.120494587165230
H -2.004182143041692 -1.638981258192578 0.093627170747589
H -2.392759257017305 -0.302996565292077 -0.979787377237148
H -3.359727080558211 -1.714327412796663 -0.933571284566458
H -1.128118590449883 -3.038137367182388 -1.652322109786646
H -1.901417031750772 -2.067219064426596 -2.961244811463075
H -0.684994798721871 -0.583314324357288 -3.620677732086289
11
maple-route1-mmgb-reference-mlip-reweighting-v1 phase=gas replicate=repeat-0 sample=49
C -2.318607888133609 -1.392694462210485 -0.985834187110188
C -1.383481533475942 -1.961049444036028 -1.989676373787380
C -0.015573519947127 -1.295201982948019 -1.973723536694496
O 0.930386556668091 -1.584528267196577 -1.239303763892625
O 0.191809626137617 -0.518651718840181 -3.065611703328635
H -1.877576357383654 -1.399821858518059 0.011947107954597
H -2.647870784454206 -0.426614330032115 -1.289297547386253
H -3.190418685712988 -1.964063623087104 -0.929576054269159
H -1.350075145578692 -3.050239929424327 -1.770751701831948
H -1.927703862807638 -1.774994798753530 -2.966107108059079
H -0.699598642012259 -0.326221037061397 -3.366550550874431
11
maple-route1-mmgb-reference-mlip-reweighting-v1 phase=gas replicate=repeat-0 sample=50
C -2.343247741233744 -1.349102017194437 -1.044482838460215
C -1.340468957378214 -1.982646351206813 -2.044249197687439
C -0.020691876626015 -1.289886194582776 -1.970389862277109
O 0.857256116908397 -1.706846440982373 -1.230215611019916
O 0.234705176334528 -0.415594792055255 -2.978365085252370
H -1.841206333902548 -1.164836321990932 -0.005575956997314
H -2.779011067878407 -0.401304771034021 -1.344389975290402
H -3.214036091040688 -1.949060093681509 -0.802730072253323
H -1.274263834231048 -3.074371004288406 -1.787411486351914
H -1.767995108768067 -1.835543463937624 -3.042078634029910
H -0.495177451476174 -0.526550048010227 -3.546700454569989
11
maple-route1-mmgb-reference-mlip-reweighting-v1 phase=gas replicate=repeat-0 sample=51
C -2.379803010858655 -1.313996562792816 -1.088622158138552
C -1.384005302849407 -1.999822534643027 -2.101243451472634
C 0.047540454781565 -1.407396755555519 -2.037800031773065
O 0.850883184417541 -1.711936991345504 -1.218919049109027
O 0.269415209501464 -0.369964697644775 -2.863756731928790
H -1.917296837122773 -1.202592032899348 -0.075482086616903
H -2.707247609806570 -0.244182169487470 -1.355706844398040
H -3.409562639004434 -1.821804381836024 -0.882082802988976
H -1.301841187711064 -3.016428311330902 -1.757143919282138
H -1.768978130899582 -1.904672176111250 -3.093453677283526
H -0.559032975243883 -0.215723298340222 -3.358202435606573
11
maple-route1-mmgb-reference-mlip-reweighting-v1 phase=gas replicate=repeat-0 sample=52
C -2.305601521314027 -1.311388839067925 -1.171881263661009
C -1.392747545979800 -1.960465017791333 -2.134385472335861
C 0.084946349001069 -1.462861036900585 -2.051117355083947
O 0.845717610394177 -1.759610278434316 -1.166529608496310
O 0.208288582095659 -0.330089971033258 -2.788115312593189
H -2.065107343365840 -1.409967157571526 -0.150082066639638
H -2.462912981858536 -0.209149813494450 -1.385533733148007
H -3.348910632987985 -1.712368534748027 -1.352841126620328
H -1.437797473890581 -2.980732336685818 -1.880869743487543
H -1.802153585043512 -1.701109903397528 -3.102963165463804
H -0.722055743163837 -0.101605984842004 -3.127133967647305
11
maple-route1-mmgb-reference-mlip-reweighting-v1 phase=gas replicate=repeat-0 sample=53
C -2.288164952865250 -1.258789473427026 -1.201239709907197
C -1.343766734063099 -2.038553779769839 -2.238823023152968
C -0.009114159716058 -1.391639702005550 -1.991718128797493
O 0.804163231197352 -1.834773586775324 -1.195862768715087
O 0.219899236706474 -0.273426058167227 -2.681328962130049
H -2.112286597410281 -1.550217346519713 -0.167448524841076
H -2.154568200382960 -0.202250879119281 -1.231485228835448
H -3.288103604602761 -1.427212026633524 -1.412024726034650
H -1.307989569779499 -3.099328232708993 -1.916248460778328
H -1.690684438562776 -1.820336822947936 -3.271003001154397
H -0.473395022862288 -0.263680482713857 -3.345687045196934
11
maple-route1-mmgb-reference-mlip-reweighting-v1 phase=gas replicate=repeat-0 sample=54
C -2.416513966910851 -1.296683131049742 -1.249696600707240
C -1.364517151295199 -1.939859749964421 -2.227178944788172
C 0.060800381427331 -1.435057363383355 -2.050965609083530
O 0.837031618698236 -1.894416166985584 -1.187143600586550
O 0.273306381007389 -0.227746304731819 -2.624416123732086
H -2.144088793545312 -1.679435098978850 -0.244747012764810
H -2.299151373905732 -0.244535538033026 -1.217337267278948
H -3.387733588102694 -1.655716217745906 -1.472848107570353
H -1.390560465414883 -3.047344144635931 -1.985160964944863
H -1.726754425945140 -1.674901917668894 -3.241131621260566
H -0.503729595286851 -0.050447383336631 -3.075240379147324
11
maple-route1-mmgb-reference-mlip-reweighting-v1 phase=gas replicate=repeat-0 sample=55
C -2.466962785656313 -1.383872457815699 -1.286832042503958
C -1.383595044109039 -1.879698876118814 -2.237565921125929
C 0.054363430481872 -1.400070727766139 -1.988613267654727
O 0.851324274180291 -1.920753638975656 -1.248279980826630
O 0.336146250380217 -0.219811729958609 -2.552544754778279
H -2.151739400088564 -1.545491919644570 -0.268583741034671
H -2.554613599723785 -0.273486130713771 -1.460061652956703
H -3.379418330551600 -2.036078125662569 -1.528639623600004
H -1.430681940984772 -2.976677518977339 -2.225742829561830
H -1.759567577944212 -1.443522761926873 -3.178919744521842
H -0.490342642891672 0.121497506168559 -2.939234861194043
11
maple-route1-mmgb-reference-mlip-reweighting-v1 phase=gas replicate=repeat-0 sample=56
C -2.478047876847048 -1.445326644351081 -1.269903749723017
C -1.315335656628149 -1.879997832023968 -2.361128988332114
C 0.010283308558857 -1.290014701557961 -1.850204709436297
O 0.790631593787520 -2.001323057126090 -1.287572559739089
O 0.361450153888722 -0.157473084893172 -2.513669407937714
H -2.129942318877303 -1.561360746795467 -0.227006063841492
H -2.685604207464053 -0.330345889710762 -1.366871572788954
H -3.364137197674984 -2.149399879757709 -1.422589189614569
H -1.194823729603300 -2.931652890894493 -2.386038226722653
H -1.635394743011363 -1.542932712748120 -3.359950266551902
H -0.347111305967974 0.061635897561485 -3.216053066065277
11
maple-route1-mmgb-reference-mlip-reweighting-v1 phase=gas replicate=repeat-0 sample=57
C -2.442130488148166 -1.561632568828361 -1.333171149444903
C -1.370892371422905 -1.782026752183885 -2.342244864564505
C 0.034893902718042 -1.335405609888091 -1.948745784754580
O 0.793049809838323 -1.962524120047217 -1.243103488580380
O 0.366452533858870 -0.142553138591529 -2.454440783883815
H -2.148773679107974 -1.914592325634937 -0.295511789760318
H -2.593161048994370 -0.475121957895561 -1.261495474849506
H -3.266856403268521 -2.148072787491221 -1.689202702295812
H -1.362000400968598 -2.863641970415916 -2.551715349470021
H -1.746333218645041 -1.386564167840647 -3.268036858458776
H -0.408117725749100 0.245054213689751 -2.862976078707327
11
maple-route1-mmgb-reference-mlip-reweighting-v1 phase=gas replicate=repeat-0 sample=58
C -2.438820313770285 -1.650358838634008 -1.340147677366281
C -1.338134277721801 -1.828038401199763 -2.414736741481066
C 0.041044980558437 -1.318101399739994 -1.992995574298319
O 0.773147700637369 -1.941205984322704 -1.221603859158621
O 0.344331140753293 -0.063440923114664 -2.375160249993788
H -2.212567418534196 -2.205063367949239 -0.425451879190837
H -2.384881175446664 -0.631773691358928 -0.999246839445233
H -3.408124138855690 -1.959485123803572 -1.658935175062498
H -1.307789425853841 -2.873710244504266 -2.816634982228935
H -1.678179612492495 -1.341311625062260 -3.318969113557820
H -0.373054641511696 0.256733643356241 -2.855914481567921
11
maple-route1-mmgb-reference-mlip-reweighting-v1 phase=gas replicate=repeat-0 sample=59
C -2.368714414613881 -1.696123239896964 -1.382451631941672
C -1.262912435394677 -1.807373201817715 -2.497430171840933
C -0.009347199252629 -1.272762582781033 -1.915776133583629
O 0.734224292889175 -1.955321134904434 -1.231968642130391
O 0.288128852515294 -0.038963393755024 -2.311056483639892
H -2.209074090334180 -2.443442372752659 -0.654681234414605
H -2.355968852613825 -0.827906297544831 -0.735902358925426
H -3.390733257491683 -1.918893857301923 -1.713188848582080
H -1.117409857973843 -2.827456837243765 -2.793949520719981
H -1.549029996941081 -1.342885367234623 -3.460888618909523
H -0.367808975031757 0.209977652119501 -2.992502361482848
11
maple-route1-mmgb-reference-mlip-reweighting-v1 phase=gas replicate=repeat-0 sample=60
C -2.365689060330329 -1.796653574278402 -1.519910861680447
C -1.312294450152211 -1.804061580209112 -2.500515068606343
C 0.038862831961015 -1.294078741452244 -1.915007629863143
O 0.752941710913873 -1.921682824039558 -1.179549022755205
O 0.302776248580007 0.000245820922515 -2.240468110889693
H -2.318532422112618 -2.499362585084690 -0.699181606738222
H -2.470674561109635 -0.847646232125136 -0.980372624340256
H -3.317024571712434 -1.998321470148190 -2.060555435611616
H -1.246917025760258 -2.779479210813494 -2.928072949969979
H -1.668993157477284 -1.151463270768196 -3.296687053271872
H -0.527359831663476 0.376875947281533 -2.676364890362477
11
maple-route1-mmgb-reference-mlip-reweighting-v1 phase=gas replicate=repeat-0 sample=61
C -2.482404203487042 -1.901856165707707 -1.574839810817673
C -1.237431524107623 -1.767049953142721 -2.573412855836927
C 0.056822344646313 -1.241733813653495 -1.907424356663223
O 0.738500712501300 -1.933372981330896 -1.186571291435751
O 0.322461361121947 0.054568977418812 -2.132686458099790
H -2.299451222211427 -2.447800737985424 -0.607777267564371
H -2.799591864880933 -0.951402063860431 -1.126908268741868
H -3.390054785244430 -2.328896624197879 -2.012221532315459
H -0.972703317739961 -2.822005778788110 -2.890596575541371
H -1.501923510645409 -1.173019897427565 -3.446240963591665
H -0.385505183767698 0.325850857480962 -2.720857769636030
11
maple-route1-mmgb-reference-mlip-reweighting-v1 phase=gas replicate=repeat-0 sample=62
C -2.413666836987883 -1.958850751377630 -1.692312648923572
C -1.200008356368530 -1.738383217245348 -2.601397703050038
C -0.016015992608063 -1.211728544835314 -1.823212470778337
O 0.727833071317710 -1.946335048440273 -1.187948472906175
O 0.285994916023512 0.071037042721822 -2.056683685277156
H -2.106668679541097 -2.417700948430288 -0.747895639374998
H -2.863272376506816 -1.030966876899253 -1.330983554162854
H -3.203805449768913 -2.539932472592292 -2.162756827679562
H -0.919504879539144 -2.778017178744634 -2.992223662955666
H -1.524913459069836 -0.989620445944386 -3.383092781738320
H -0.383487425023060 0.280387354696030 -2.651282382687584
11
maple-route1-mmgb-reference-mlip-reweighting-v1 phase=gas replicate=repeat-0 sample=63
C -2.378084590358322 -2.001696642491609 -1.813695847015280
C -1.167409236080656 -1.745993567704066 -2.637861880594915
C -0.024097973798755 -1.229561809434023 -1.785511072415364
O 0.722812489971843 -1.934055886000903 -1.138169211961376
O 0.249412049788535 0.101548128672237 -1.990835223242206
H -2.117084940859467 -2.623733856446189 -0.987327223351184
H -2.772287776817233 -1.079458877474736 -1.377804251466538
H -3.116560290196830 -2.475553658743709 -2.493620881119252
H -0.933539315919392 -2.685060506695546 -3.128404979847148
H -1.541875816595057 -0.869158097575785 -3.247289075811417
H -0.563573452953532 0.403449546585706 -2.444334497691449
11
maple-route1-mmgb-reference-mlip-reweighting-v1 phase=gas replicate=repeat-0 sample=64
C -2.471393084162918 -2.075383640332728 -1.866508937300337
C -1.090329753250317 -1.713676842685662 -2.733675792331875
C 0.030728682975330 -1.221288556804554 -1.816446322131581
O 0.691695131125965 -1.915230286177103 -1.115957437908351
O 0.234699857321641 0.131173394782044 -1.853471475985242
H -2.243571317062449 -2.934950546338004 -1.209929620099758
H -2.812381550364380 -1.277794260916038 -1.183738175397472
H -3.278209081001373 -2.338534947277505 -2.570412153668669
H -0.748122676133358 -2.652445343981376 -3.073103049754899
H -1.302658462947422 -0.961051131386988 -3.451616122623025
H -0.385227646401130 0.445823722734889 -2.588590322698312
11
maple-route1-mmgb-reference-mlip-reweighting-v1 phase=gas replicate=repeat-0 sample=65
C -2.379994835547050 -2.086028994238586 -1.986959414006882
C -1.110759291551995 -1.678179528365054 -2.757171719843765
C 0.036315771626495 -1.235267420900206 -1.813076404055078
O 0.678035575324707 -1.938835856117141 -1.071785494210277
O 0.182343391338947 0.128121610089589 -1.768314014157207
H -2.224815581747834 -3.049497590500443 -1.405629374571957
H -2.615488692274077 -1.254812887698258 -1.277412700964412
H -3.173979530741956 -2.160667486063886 -2.741937125110024
H -0.809005457547271 -2.565557623198395 -3.296817550782720
H -1.380946844974965 -0.859036814592438 -3.318462518890184
H -0.430878134499553 0.472393798406693 -2.414288284267637
11
maple-route1-mmgb-reference-mlip-reweighting-v1 phase=gas replicate=repeat-0 sample=66
C -2.306596250967187 -2.049660288465597 -2.072485773085111
C -1.033637005494906 -1.653442342933519 -2.774095157069387
C -0.005976495908338 -1.215344869626718 -1.778445490806620
O 0.631161377568773 -2.004038927589233 -1.083728591549902
O 0.126382899287203 0.123302045668808 -1.696472925158288
H -2.099436056267332 -2.977958970287279 -1.489606558597023
H -2.584693677895951 -1.224127784883153 -1.380176594488437
H -3.117451547214579 -2.205254734736295 -2.808278909373887
H -0.628209653161459 -2.541848398594878 -3.305545876346938
H -1.278173023087328 -0.781118758341060 -3.418226572212476
H -0.580774984278098 0.456800342418354 -2.190423137342613
11
maple-route1-mmgb-reference-mlip-reweighting-v1 phase=gas replicate=repeat-0 sample=67
C -2.389243602687593 -2.024515824051434 -2.146137155009824
C -0.980735377275967 -1.656241737735109 -2.854538859451569
C 0.003462802869824 -1.203475564669525 -1.757508419958234
O 0.650366639602133 -2.013424674902447 -1.094019537290360
O 0.119075512708555 0.108067773164983 -1.550070438763502
H -2.182760285209162 -2.828831417765201 -1.464833386838580
H -2.820530486804753 -1.186827134555891 -1.601335101102020
H -3.172647278167029 -2.390175114984927 -2.855332374735908
H -0.499756284798388 -2.567420896419492 -3.302583061287078
H -1.154787778270685 -0.819782735617279 -3.678868350420943
H -0.399473283594456 0.499157556688181 -2.280144673314934
11
maple-route1-mmgb-reference-mlip-reweighting-v1 phase=gas replicate=repeat-0 sample=68
C -2.364206073166049 -1.944570822316432 -2.283544767709661
C -1.007866000182936 -1.649121493590408 -2.784056030472080
C 0.059284102039224 -1.243497236500043 -1.733554902490529
O 0.684494013091982 -2.049094736252259 -1.088237940635002
O 0.068974396470701 0.087094471805977 -1.492142409191374
H -2.396617684662194 -2.718486903579981 -1.529777534264284
H -2.903862927089559 -1.058739553501415 -2.004315118695120
H -2.913386430261673 -2.325832158468488 -3.134941331956906
H -0.585236091984003 -2.496884571646500 -3.390088003677400
H -1.211432048959117 -0.812704681776525 -3.493096882228830
H -0.606804817216303 0.466084987309427 -2.129170342172738
11
maple-route1-mmgb-reference-mlip-reweighting-v1 phase=gas replicate=repeat-0 sample=69
C -2.379953029244906 -1.875109960967404 -2.379418626271536
C -0.931617520113864 -1.646957231164642 -2.858427306424853
C -0.008532470867873 -1.277206944995094 -1.666663636287793
O 0.710559743620492 -2.042322548369921 -1.087708818353829
O 0.035549948649798 0.044941312498328 -1.418469875602358
H -2.424055821631567 -2.635764638370143 -1.582607292635942
H -2.845775985404393 -0.962360549683546 -2.015711080891098
H -3.077699198344904 -2.224643990740794 -3.102581729119651
H -0.476343338614325 -2.511469852620082 -3.361202019767189
H -0.917887467247456 -0.916050555868244 -3.600653659264855
H -0.668190308692173 0.415992842543552 -1.949525634409746
11
maple-route1-mmgb-reference-mlip-reweighting-v1 phase=gas replicate=repeat-0 sample=70
C -2.359562909343164 -1.829011353577454 -2.458056502993606
C -0.867605266315659 -1.634940016924872 -2.837863479892853
C 0.029325681531091 -1.260644997596732 -1.691842094293927
O 0.669997468974206 -2.099583450535289 -1.086555294264229
O -0.036139324478073 0.038338382394986 -1.333207021067993
H -2.464405640088784 -2.638876097854477 -1.725852359297515
H -2.828562596055300 -0.915853221833242 -2.053054869874224
H -3.055824441516354 -2.098363945626120 -3.263918990409327
H -0.482969578213991 -2.498093192478225 -3.279962055401420
H -0.710350025138409 -0.983894014635977 -3.654904255919701
H -0.544559384818121 0.417609958469453 -2.009906279611180
11
maple-route1-mmgb-reference-mlip-reweighting-v1 phase=gas replicate=repeat-0 sample=71
C -2.266866245015318 -1.786377904453187 -2.481059600868968
C -0.878470709832193 -1.608687377602250 -2.907412091314541
C 0.085855115417041 -1.285304848721748 -1.749098729639660
O 0.601925226325216 -2.115952496345898 -1.002651692194403
O -0.072115293760707 -0.016752009164670 -1.278739058855023
H -2.405003881416055 -2.654869122335987 -1.826499852089589
H -2.654839454812848 -0.843530582644504 -2.049161800424190
H -2.914009661158259 -1.900370397534226 -3.376092535691113
H -0.588273617322427 -2.350457685055197 -3.606015385048950
H -0.854463194187441 -0.768679539808476 -3.612241676355079
H -0.658445810605066 0.411228110518015 -1.925028728335083
11
maple-route1-mmgb-reference-mlip-reweighting-v1 phase=gas replicate=repeat-0 sample=72
C -2.265279957860087 -1.763347522300152 -2.505503611205516
C -0.758363422532927 -1.505797932191079 -2.945413686816246
C 0.048709918635116 -1.283578027910274 -1.698675240964902
O 0.490518797842327 -2.184102379178838 -1.031837938255296
O -0.063517192858609 -0.032260775231444 -1.246468651399860
H -2.286484156359948 -2.733527222216217 -1.961276455805651
H -2.676404308659500 -0.938198674738825 -1.893850947180978
H -2.932849557031151 -1.862829645112640 -3.390524400144527
H -0.357463359479091 -2.446610430678891 -3.421628349264361
H -0.553184870307608 -0.763322856441332 -3.722500705893865
H -0.647364067904012 0.458329837546525 -1.910641886229458
11
maple-route1-mmgb-reference-mlip-reweighting-v1 phase=gas replicate=repeat-0 sample=73
C -2.259416938572514 -1.772492597239333 -2.611657617389262
C -0.778447338670503 -1.497783965426079 -2.938194089128759
C 0.051443545232903 -1.286466693562747 -1.665960730518419
O 0.450506481189262 -2.211891146430780 -1.019876970813406
O -0.032450160856573 -0.025004879283226 -1.189723258796284
H -2.317891758133066 -2.734150913602047 -2.030910826064702
H -2.635498935390836 -0.920422375787698 -2.023866924405024
H -2.831466666807362 -1.836569253753831 -3.550295981821828
H -0.319665849349515 -2.366506349149055 -3.545445489443830
H -0.686091966074395 -0.597797370663933 -3.573146297956340
H -0.388515061942055 0.537821380244104 -1.881564884785980
11
maple-route1-mmgb-reference-mlip-reweighting-v1 phase=gas replicate=repeat-0 sample=74
C -2.263015039132849 -1.792226122679925 -2.720713335797526
C -0.815293310220755 -1.462782606750909 -2.957447573543003
C 0.002286082316835 -1.288216661885508 -1.619897363812126
O 0.470704250232790 -2.206523874563408 -0.979702127351478
O 0.026103238046512 -0.053075105264949 -1.153126275077459
H -2.282485857951299 -2.696987248992716 -2.085221230251046
H -2.657680086273063 -0.910182269701315 -2.210689956377061
H -2.712373705191662 -1.923586842318052 -3.731812876675220
H -0.376977152427434 -2.217669268473125 -3.604262702867403
H -0.872427522802300 -0.424106509829069 -3.444709565543074
H -0.448320039290536 0.452592488897501 -1.780018108457737
11
maple-route1-mmgb-reference-mlip-reweighting-v1 phase=gas replicate=repeat-0 sample=75
C -2.322438066349924 -1.816920223842932 -2.780783349405397
C -0.716345036835314 -1.412293590280089 -2.922219580932399
C -0.078740791733941 -1.269102171316603 -1.529413929353087
O 0.466034030519651 -2.256550277482783 -1.026176023729725
O 0.057195014790127 -0.017386722280243 -1.156083779265665
H -2.352110395250428 -2.705227749266198 -2.187692804162211
H -2.918443559225514 -1.031034715887214 -2.287917951312088
H -2.668406608240577 -2.029044505723848 -3.810824752190231
H -0.182604695046798 -2.261808573145809 -3.331073676655110
H -0.618879289645255 -0.437359147541901 -3.454916601989498
H -0.524580228951722 0.440917721004821 -1.786204355634877
11
maple-route1-mmgb-reference-mlip-reweighting-v1 phase=gas replicate=repeat-0 sample=76
C -2.220415778348122 -1.810966489407803 -2.834591036156216
C -0.766318059901973 -1.418529438968313 -2.985209703405388
C -0.105692418869851 -1.285762686687699 -1.545558051403038
O 0.425549169415864 -2.212286790425074 -0.974661722096164
O 0.060391560295182 -0.061765028528943 -1.088433601410458
H -2.304325784365264 -2.758154465057312 -2.297437610698240
H -2.748375900579565 -1.033410274153726 -2.272493728721781
H -2.501537540215493 -1.865103580916261 -3.857059252912809
H -0.267761599687119 -2.235278585426588 -3.547182270946565
H -0.850252619026284 -0.451451048852360 -3.372916248857796
H -0.292885601419529 0.515186400477136 -1.820809640219890
11
maple-route1-mmgb-reference-mlip-reweighting-v1 phase=gas replicate=repeat-0 sample=77
C -2.205251456697099 -1.819492965547386 -2.896281892399819
C -0.711562268527836 -1.354248868233517 -2.941501648318514
C 0.008713981003486 -1.295701863660271 -1.565789424585382
O 0.334368427425573 -2.291358648723536 -0.960964633381469
O 0.008937710755972 -0.021604885287029 -1.076916887902611
H -2.266500550304337 -2.819894426662131 -2.410752689084403
H -2.740809644579818 -1.178628663674193 -2.227735456959990
H -2.568866362655520 -1.801824192834671 -3.908884608859254
H -0.151851686319395 -2.095279298349278 -3.497670891792712
H -0.712636676912459 -0.357647572436541 -3.319687282697896
H -0.454703764536396 0.486741746854396 -1.744835164058416
11
maple-route1-mmgb-reference-mlip-reweighting-v1 phase=gas replicate=repeat-0 sample=78
C -2.154495502624387 -1.820533815463563 -2.897902749668209
C -0.642343263108671 -1.321732983902908 -3.002481399673861
C -0.060391812992529 -1.299405900700717 -1.593007673344220
O 0.276163789731313 -2.246072868656658 -0.943135903624302
O -0.001884146345448 -0.087636755088862 -1.029904633020377
H -2.133574834941568 -2.850820615862284 -2.534197460119337
H -2.685489181732813 -1.361054150075979 -2.056515202428664
H -2.721909675564426 -1.721108456601283 -3.862085551795507
H -0.041872389309493 -2.073001724685476 -3.480440112734435
H -0.522530253779947 -0.267252252399002 -3.433867378953861
H -0.310909155976534 0.502459306070550 -1.689614997312204
11
maple-route1-mmgb-reference-mlip-reweighting-v1 phase=gas replicate=repeat-0 sample=79
C -2.051805498222684 -1.798034803777247 -2.937458102375903
C -0.675787281755929 -1.370704682564332 -2.941074860392285
C -0.093680703488540 -1.315248895636392 -1.579153804980067
O 0.249085301658560 -2.315861226941136 -0.961514571163787
O -0.009397318058894 -0.012302451602954 -1.013713807249109
H -2.189649639871196 -2.853579986740139 -2.668609421457838
H -2.642767246839536 -1.258183685979821 -2.138299969603747
H -2.451494343367250 -1.513736336243791 -3.959040312078525
H -0.057420358745429 -2.021334089587079 -3.625274046071664
H -0.677439144036700 -0.301391272487551 -3.313367155122311
H -0.285067407370506 0.593359383310691 -1.735168691208522
11
maple-route1-mmgb-reference-mlip-reweighting-v1 phase=gas replicate=repeat-0 sample=80
C -2.138452304152315 -1.771129344181193 -3.033191046942616
C -0.643880144799988 -1.269693588804146 -2.971642768806797
C -0.103610713474255 -1.324884042781677 -1.550798301805335
O 0.267950291228826 -2.297046957241680 -0.896658458995032
O 0.032428811763058 -0.101231779814299 -0.987833175298688
H -2.219366120858384 -2.782964290933098 -2.616199348173097
H -2.867921779113591 -1.246209623568991 -2.380322656998798
H -2.543549827578095 -1.741014359762372 -4.050844270516171
H 0.003453729640910 -2.026159178628765 -3.546670752777830
H -0.460312535933209 -0.317470598898757 -3.443576776272051
H -0.397314957710580 0.466604689069005 -1.674346842700518
11
maple-route1-mmgb-reference-mlip-reweighting-v1 phase=gas replicate=repeat-0 sample=81
C -2.130263915467544 -1.738521218795374 -3.084722388975507
C -0.634043349417223 -1.313280266155696 -2.936904736272179
C -0.125388975839296 -1.316852849523156 -1.505551283253568
O 0.252567484297070 -2.327974104567458 -0.968942291424751
O 0.038876404213545 -0.091423444628509 -0.929179842283568
H -2.392199746330404 -2.638662571422274 -2.529717526816406
H -2.781118295698168 -1.058352763168589 -2.639322341125546
H -2.433687858606623 -1.805389745714535 -4.095511843851766
H 0.007582458275151 -1.955964481242368 -3.516063334840050
H -0.487996677406390 -0.329420268044449 -3.400558011829300
H -0.219813596822071 0.498959212286201 -1.639262042028813
11
maple-route1-mmgb-reference-mlip-reweighting-v1 phase=gas replicate=repeat-0 sample=82
C -2.036894216961711 -1.686679508513891 -3.068539211632137
C -0.655799769221847 -1.301981582540134 -2.958172322213334
C -0.144790257658558 -1.346640364925016 -1.484215728004487
O 0.221063068768826 -2.359128234300383 -0.975224857831159
O 0.022805357556796 -0.106063050274300 -0.931413598009566
H -2.252305521356238 -2.566651546964545 -2.523910381690212
H -2.673220031146080 -0.940648396822814 -2.665827412808031
H -2.270534343834436 -1.797905015032748 -4.120989650339521
H -0.051948046006485 -1.865293173139293 -3.589140553620167
H -0.631816322584062 -0.275354996193640 -3.363075084929466
H -0.289078474827532 0.477261510341043 -1.603820482677347
11
maple-route1-mmgb-reference-mlip-reweighting-v1 phase=gas replicate=repeat-0 sample=83
C -2.119342361034210 -1.660935859726649 -3.092906447437011
C -0.556888791281168 -1.224526511874116 -2.973005888212483
C -0.087225528500745 -1.329286472148685 -1.490344233580817
O 0.185365178989098 -2.363849196674163 -0.948123285805030
O 0.004985543446041 -0.175818484930803 -0.922234880331701
H -2.232713188762944 -2.661792591835384 -2.717016670768962
H -2.863592502325619 -1.058588722261935 -2.502503024152731
H -2.468351907512639 -1.688653203472957 -4.141569072713149
H 0.076396650271274 -1.954059458196206 -3.502930028179938
H -0.304946264960131 -0.259968066122371 -3.434349892180230
H -0.405873373045127 0.398093301845814 -1.595763444634086
11
maple-route1-mmgb-reference-mlip-reweighting-v1 phase=gas replicate=repeat-0 sample=84
C -2.051943979363450 -1.617649258709375 -3.094281478921483
C -0.586690966290171 -1.314560484573704 -2.975853343592934
C -0.060233761344428 -1.317783283463531 -1.510536139785362
O 0.168694515269711 -2.404627412315690 -0.978397795321137
O -0.045418536338634 -0.134709873388651 -0.868685266784507
H -2.309304910091905 -2.724770349102190 -2.945834674779757
H -2.603337167103311 -1.031167371009728 -2.295732512673649
H -2.398445465457825 -1.324820522405788 -4.128356945992353
H 0.020092981156145 -1.979727748150156 -3.694442287444157
H -0.457478768061865 -0.287693155116328 -3.328179841993226
H -0.152192707131717 0.532240795196673 -1.592872625208277
11
maple-route1-mmgb-reference-mlip-reweighting-v1 phase=gas replicate=repeat-0 sample=85
C -2.021862863370046 -1.567194775862546 -3.103086902833824
C -0.562803274544618 -1.246759320168699 -2.982022264927516
C -0.105935836167825 -1.358983853533897 -1.515765964977021
O 0.184186786831605 -2.392954612836601 -0.937548078042562
O -0.064822925639683 -0.206428533360099 -0.903255331300541
H -2.189578540027210 -2.721377527489542 -2.991097970427506
H -2.564925449971718 -1.066560868506490 -2.273341007607481
H -2.377837942871625 -1.280615354655366 -4.136354344118495
H -0.017540283750080 -1.952884030855969 -3.616657218928603
H -0.357993002475480 -0.204346537372631 -3.302744358361422
H -0.421948506415023 0.444364604470414 -1.519457072528458
11
maple-route1-mmgb-reference-mlip-reweighting-v1 phase=gas replicate=repeat-0 sample=86
C -2.095302052980656 -1.531931239459201 -3.153635988805480
C -0.489773367208888 -1.235414878491967 -2.950975724589366
C -0.071344009100248 -1.385889085554365 -1.502802899174749
O 0.186963403978253 -2.444347335055765 -0.979290634989249
O -0.096292230653720 -0.176329890931159 -0.861294138521010
H -2.307427788323639 -2.576025426921565 -2.909605174327090
H -2.679339443269920 -0.913039377166393 -2.459860396216111
H -2.391412495218571 -1.409387948232375 -4.199752546092228
H 0.037328623536809 -2.014891254050213 -3.434092418175251
H -0.149261418296449 -0.243040335326099 -3.296135553611116
H -0.399181224503677 0.472653884909862 -1.472211396597793
11
maple-route1-mmgb-reference-mlip-reweighting-v1 phase=gas replicate=repeat-0 sample=87
C -2.004576209674932 -1.470972241139173 -3.175197955179736
C -0.525468803767701 -1.289611250830232 -3.003283036430469
C -0.103315145792832 -1.397993736744114 -1.534890473580077
O 0.192430589511030 -2.409175566066432 -0.977815874412580
O -0.142411149469885 -0.237954300027849 -0.772120643397263
H -2.324499082215191 -2.364041504688572 -2.770308695550296
H -2.433531404932980 -0.590500722691576 -2.676390869937145
H -2.111875643148791 -1.435566616150837 -4.229682848745660
H -0.036994164015181 -2.065944272815938 -3.615987187137056
H -0.375790839117163 -0.274628536787066 -3.297885847363524
H -0.240258083973315 0.527993202078385 -1.361656281194272
11
maple-route1-mmgb-reference-mlip-reweighting-v1 phase=gas replicate=repeat-0 sample=88
C -2.008342685834619 -1.389360501768693 -3.214069170513856
C -0.431010700655297 -1.244637294399070 -2.960300403752158
C -0.062499227128695 -1.411007579996432 -1.506941322034310
O 0.163993577914302 -2.493786819487979 -0.939674700428440
O -0.207654633787554 -0.225358320183359 -0.827182451953145
H -2.264484690949516 -2.301118031328758 -2.689962472561093
H -2.505751713682752 -0.535004728738626 -2.812622171286888
H -2.136932763516802 -1.538035218602549 -4.271404283694893
H 0.036991011971568 -2.137419389561400 -3.464802639290876
H -0.114072253006080 -0.255349036234202 -3.306978184287178
H -0.622231270324525 0.371663959104048 -1.518143770858128
11
maple-route1-mmgb-reference-mlip-reweighting-v1 phase=gas replicate=repeat-0 sample=89
C -1.977475580302233 -1.349177854500934 -3.216116457959181
C -0.385570103123865 -1.327065951952864 -2.976170004078529
C -0.076569594457123 -1.397123545161010 -1.508133899468700
O 0.131708378607649 -2.433314111498132 -0.915150915816729
O -0.243352849642202 -0.267663098206549 -0.830424651672088
H -2.320861175135179 -2.296350897876632 -2.697488209105287
H -2.373929268643480 -0.471296721906280 -2.775064453554901
H -2.164188121831180 -1.373758600687550 -4.307123576798439
H 0.085481760702971 -2.222252891267326 -3.417739518111305
H -0.031042532901195 -0.326832409140256 -3.425700925070321
H -0.463887927102342 0.342842337727470 -1.552047926562152
11
maple-route1-mmgb-reference-mlip-reweighting-v1 phase=gas replicate=repeat-0 sample=90
C -1.895812924733025 -1.342745035394421 -3.220490002868310
C -0.417643290008984 -1.393552735982464 -3.000084949011784
C -0.053547669315039 -1.416406564259165 -1.473629003141358
O 0.096195590827487 -2.450334354548163 -0.880827934971483
O -0.269835121448577 -0.206906122829729 -0.850271562832957
H -2.322476760879017 -2.269265090408336 -2.829180352538521
H -2.267669837094299 -0.381773624759307 -2.751732255825944
H -2.040612274456726 -1.220877132066057 -4.322268696820348
H 0.040457481795615 -2.225013978225093 -3.562713645599921
H -0.211173769968859 -0.408005088657269 -3.449388961259989
H -0.352423869655465 0.393137862930147 -1.569031737582145
11
maple-route1-mmgb-reference-mlip-reweighting-v1 phase=gas replicate=repeat-0 sample=91
C -1.922045784727373 -1.339869097102497 -3.255190835369987
C -0.347509541023028 -1.359677439428877 -2.965548727884974
C -0.082251287252287 -1.413868961811173 -1.451683552282976
O 0.049664122072850 -2.428821242955990 -0.841693147274721
O -0.227655546569747 -0.228945399659552 -0.905430891260964
H -2.298160174870849 -2.276404489362859 -2.921863005778904
H -2.522518838413205 -0.466876600813018 -2.813303755390542
H -2.151754018479412 -1.293657982037065 -4.323603770110072
H 0.070357847599398 -2.307360149423107 -3.347737359907728
H 0.151634637248673 -0.542827664754063 -3.445809629193213
H -0.536084385734954 0.316976595471394 -1.635640615982165
11
maple-route1-mmgb-reference-mlip-reweighting-v1 phase=gas replicate=repeat-0 sample=92
C -1.869983670883929 -1.393742627874780 -3.295647383148967
C -0.383083132915263 -1.400437516961264 -2.984887081456847
C -0.111631510655502 -1.394268755474275 -1.455812730802350
O 0.005169459657636 -2.410409412057899 -0.803959328715665
O -0.197494241010151 -0.199587518574105 -0.883785128033954
H -2.414444649689560 -2.311252333127299 -2.921390599153042
H -2.327176448511036 -0.510486948014474 -2.878319827345695
H -2.113300599906143 -1.307051218951226 -4.367302471436556
H 0.138200926882114 -2.241480925444101 -3.499216949531004
H 0.108349077482468 -0.507710026018598 -3.391251075545107
H -0.299817825539590 0.444893324094104 -1.628713653048968
11
maple-route1-mmgb-reference-mlip-reweighting-v1 phase=gas replicate=repeat-0 sample=93
C -1.825397581055004 -1.464111086745270 -3.315012639965365
C -0.414045047993300 -1.398880605638133 -2.952495875640961
C -0.130351351676069 -1.381744520669119 -1.459773432775742
O -0.047242260038977 -2.418943793288691 -0.778735100601206
O -0.153319067229048 -0.144134298617624 -0.910051825457879
H -2.397212988157925 -2.343845593396357 -2.902963456556749
H -2.302063037030339 -0.572896716788194 -2.999014425464784
H -2.011347744149108 -1.442396052482839 -4.392226262325217
H 0.125027061850685 -2.176986712311651 -3.516840412700792
H 0.098920617722501 -0.473752371173448 -3.323805879526871
H -0.226227663212390 0.491747560266482 -1.633136958334816
11
maple-route1-mmgb-reference-mlip-reweighting-v1 phase=gas replicate=repeat-0 sample=94
C -1.860754721410632 -1.519901618408070 -3.317226920877501
C -0.321969858821758 -1.350972120457366 -2.962268226846763
C -0.174263693717698 -1.369694660158343 -1.459867151008323
O -0.103938565020831 -2.363450859369474 -0.762605921689651
O -0.102221778909224 -0.168060082754949 -0.929569243723073
H -2.204934206391801 -2.415113953344139 -2.908142776448210
H -2.571956344513248 -0.713862748098848 -3.008225172501398
H -2.055164709874167 -1.611202873320991 -4.363532357577398
H 0.158391697375403 -2.250493598628101 -3.325961015567114
H 0.286077488579733 -0.536989995354765 -3.366136395863788
H -0.386512566001429 0.447750521035962 -1.593804683952082
11
maple-route1-mmgb-reference-mlip-reweighting-v1 phase=gas replicate=repeat-0 sample=95
C -1.824166585725328 -1.552754938102128 -3.335945830004032
C -0.369452366573086 -1.426863724610903 -2.971224744558312
C -0.158537360847196 -1.373935402849966 -1.438216902927477
O -0.142938636128241 -2.370177404049977 -0.770033439430514
O -0.093171717435979 -0.093282063985396 -0.903214266085876
H -2.224110003815585 -2.458480190241877 -2.972400109287554
H -2.423266849653007 -0.707562414322157 -2.972427200659451
H -1.930625922818913 -1.506294718441795 -4.403935788926046
H 0.245531157140446 -2.173991858753283 -3.465638637626812
H -0.063852098751944 -0.484359535576128 -3.329810383779626
H 0.027967900960731 0.517033132294205 -1.646523548785213
11
maple-route1-mmgb-reference-mlip-reweighting-v1 phase=gas replicate=repeat-0 sample=96
C -1.821496740524859 -1.572773945914793 -3.340391642140332
C -0.357350400949743 -1.393360032290889 -2.972905084005181
C -0.135196557790910 -1.357199646034071 -1.444279041603875
O -0.174354251235195 -2.319400082163641 -0.729451067075364
O -0.081168968244155 -0.142850780609136 -0.932498615397106
H -2.141686719119126 -2.614516245113858 -2.995113288246023
H -2.424188486373667 -0.840055110981899 -2.843117442312782
H -1.948965092935720 -1.428255659903456 -4.442140773476443
H 0.238857098065819 -2.232662894752037 -3.341890311398161
H -0.036678715251881 -0.459966351444410 -3.445190231939912
H -0.194633688061231 0.380256674059037 -1.751256460095297
11
maple-route1-mmgb-reference-mlip-reweighting-v1 phase=gas replicate=repeat-0 sample=97
C -1.854196444128343 -1.587044930075342 -3.333535407506580
C -0.292490159226047 -1.403862941822733 -2.966446863578511
C -0.153395093364329 -1.340552431237359 -1.429877167061582
O -0.205498432709180 -2.354707253771348 -0.732819209664298
O -0.057834487155044 -0.089804369748097 -0.954302274412216
H -2.165207761280935 -2.642160741847260 -2.995493279732156
H -2.486925254465179 -0.861057834441334 -2.772959910141152
H -2.033658860115952 -1.419472144617451 -4.457122517209863
H 0.296771966710590 -2.330257771014316 -3.191843749630897
H 0.076403946258967 -0.484489781360415 -3.535062705036803
H -0.232403364481437 0.362713442799360 -1.791406759674527
11
maple-route1-mmgb-reference-mlip-reweighting-v1 phase=gas replicate=repeat-0 sample=98
C -1.808961499854797 -1.571093905500674 -3.319876867881777
C -0.361166019677667 -1.467715312016269 -2.967478246750876
C -0.158626887437300 -1.360781751258478 -1.455796400632598
O -0.207335235585843 -2.296065714201426 -0.702039172298743
O -0.060178047894000 -0.114327782416226 -0.967941986744954
H -2.240797632395797 -2.499473319867927 -2.953489097432364
H -2.391527541094201 -0.645557572431152 -2.907548405507611
H -1.779133281237585 -1.482680125662802 -4.433439489599618
H 0.238513398377348 -2.340968714374840 -3.360741971410437
H -0.166127609778843 -0.488785785367589 -3.450240454841037
H 0.204708776478508 0.354581883036318 -1.755611403628828
11
maple-route1-mmgb-reference-mlip-reweighting-v1 phase=gas replicate=repeat-0 sample=99
C -1.839079310402903 -1.534958093254613 -3.386061613990954
C -0.316603671378988 -1.456438826305169 -2.962778240304665
C -0.174565344364709 -1.376442171110738 -1.421375876586206
O -0.240039413324250 -2.324617829063291 -0.675102104410564
O -0.003071630596602 -0.094705643619990 -0.979313184033230
H -2.213533113972113 -2.362243046802567 -2.836798028529052
H -2.454067529268031 -0.660208412218073 -3.105729270157853
H -1.906411673101588 -1.759262384661834 -4.434618696028938
H 0.151211270283740 -2.403746270296359 -3.217219068384226
H 0.119181101349092 -0.604482723587256 -3.418852676743415
H -0.202765766138625 0.448176630683690 -1.760038235552733
