11
Frame 5  Energy = -268.5594314417 Hartree
C       0.72640585     -0.61660615     -0.37643178
C       0.46763288     -1.02741436     -1.85349593
C      -0.84161152     -1.65796177     -2.12276836
O      -1.68729066     -1.88845126     -1.31621437
O      -1.10898524     -1.88369197     -3.48772318
H       1.67457284     -0.12138597     -0.20617992
H      -0.00001201      0.11149962     -0.02855809
H       0.74739871     -1.44868880      0.33879825
H       0.45729645     -0.13798632     -2.43728148
H       1.22475055     -1.68331782     -2.27289653
H      -0.33545753     -1.54047823     -3.95508814
11
Frame 10  Energy = -268.5595464277 Hartree
C       0.72564297     -0.61763950     -0.37347095
C       0.46728119     -1.03038932     -1.85149700
C      -0.83966673     -1.66069341     -2.12268309
O      -1.68731050     -1.88778806     -1.31824500
O      -1.11041388     -1.88510524     -3.48881106
H       1.67282841     -0.11231125     -0.20842253
H       0.01106593      0.12237668     -0.03863157
H       0.76093748     -1.45851757      0.34200533
H       0.44678504     -0.14546376     -2.43651605
H       1.23399460     -1.67490722     -2.26359371
H      -0.33979409     -1.53847211     -3.95589005
11
Frame 15  Energy = -268.5595286329 Hartree
C       0.72486080     -0.61875665     -0.37041857
C       0.46711207     -1.03339608     -1.84922653
C      -0.83799154     -1.66349586     -2.12266517
O      -1.68734819     -1.88709272     -1.32026280
O      -1.11164737     -1.88644364     -3.48963293
H       1.67155635     -0.10332809     -0.21243291
H       0.02073448      0.13233535     -0.04861588
H       0.77345822     -1.46747040      0.34418301
H       0.43694732     -0.15053423     -2.43772636
H       1.24376401     -1.66671974     -2.25397194
H      -0.34453908     -1.53685138     -3.95757546
11
Frame 20  Energy = -268.5593170419 Hartree
C       0.72412169     -0.62007305     -0.36732295
C       0.46715418     -1.03636374     -1.84666834
C      -0.83661161     -1.66642139     -2.12278934
O      -1.68740889     -1.88636927     -1.32228914
O      -1.11274859     -1.88772588     -3.49024666
H       1.67064400     -0.09499635     -0.21812622
H       0.02902258      0.14151693     -0.05820422
H       0.78509350     -1.47522692      0.34520795
H       0.42795615     -0.15318199     -2.44052074
H       1.25476385     -1.65840296     -2.24454826
H      -0.34932208     -1.53541377     -3.96009412
11
Frame 25  Energy = -268.5593464431 Hartree
C       0.72352109     -0.62154756     -0.36421765
C       0.46743218     -1.03919032     -1.84388846
C      -0.83550874     -1.66947876     -2.12314845
O      -1.68759724     -1.88570399     -1.32424616
O      -1.11376917     -1.88893081     -3.49063533
H       1.66990431     -0.08736284     -0.22533334
H       0.03573380      0.15015007     -0.06711965
H       0.79539858     -1.48147810      0.34442933
H       0.41945755     -0.15357414     -2.44467276
H       1.26677937     -1.65036381     -2.23557220
H      -0.35411346     -1.53464067     -3.96326890
11
Frame 30  Energy = -268.5591643549 Hartree
C       0.72309053     -0.62314915     -0.36120272
C       0.46786421     -1.04197918     -1.84091607
C      -0.83467104     -1.67260969     -2.12368423
O      -1.68781547     -1.88511631     -1.32615545
O      -1.11472040     -1.89012334     -3.49079060
H       1.66950840     -0.08050577     -0.23433289
H       0.04050954      0.15797874     -0.07551157
H       0.80440070     -1.48585213      0.34189490
H       0.41130394     -0.15206637     -2.45007221
H       1.27940118     -1.64310454     -2.22706482
H      -0.35901916     -1.53413631     -3.96752401
11
Frame 35  Energy = -268.5592205098 Hartree
C       0.72284587     -0.62483472     -0.35812539
C       0.46848809     -1.04458238     -1.83781118
C      -0.83401176     -1.67577340     -2.12445261
O      -1.68809965     -1.88450503     -1.32801217
O      -1.11564477     -1.89134520     -3.49078054
H       1.66924139     -0.07440803     -0.24464292
H       0.04317101      0.16489021     -0.08304686
H       0.81161734     -1.48834524      0.33798863
H       0.40387295     -0.14918009     -2.45592307
H       1.29262263     -1.63636667     -2.21897350
H      -0.36419772     -1.53391019     -3.97292386
11
Frame 40  Energy = -268.5593124498 Hartree
C       0.72281156     -0.62660046     -0.35528432
C       0.46924647     -1.04690696     -1.83458696
C      -0.83349764     -1.67906908     -2.12541908
O      -1.68845519     -1.88393236     -1.32981342
O      -1.11644631     -1.89256058     -3.49050788
H       1.66883079     -0.06927718     -0.25620239
H       0.04395622      0.17069805     -0.08942488
H       0.81713107     -1.48923515      0.33309244
H       0.39745737     -0.14569906     -2.46139518
H       1.30626657     -1.63032577     -2.21106070
H      -0.36928665     -1.53381975     -3.97900145
11
Frame 45  Energy = -268.5592988946 Hartree
C       0.72288582     -0.62837965     -0.35270192
C       0.47023526     -1.04900394     -1.83122200
C      -0.83323648     -1.68245346     -2.12667811
O      -1.68889865     -1.88342909     -1.33151290
O      -1.11707280     -1.89380837     -3.49007885
H       1.66836425     -0.06557854     -0.26875258
H       0.04271506      0.17498273     -0.09481468
H       0.82084456     -1.48886107      0.32731915
H       0.39196976     -0.14186138     -2.46643955
H       1.31981149     -1.62481796     -2.20335323
H      -0.37426092     -1.53384736     -3.98553937
11
Frame 50  Energy = -268.5593290913 Hartree
C       0.72310368     -0.63008634     -0.35026819
C       0.47145553     -1.05099954     -1.82773095
C      -0.83311538     -1.68580559     -2.12814054
O      -1.68935961     -1.88295875     -1.33323269
O      -1.11771201     -1.89499120     -3.48945944
H       1.66808464     -0.06307446     -0.28242631
H       0.03960966      0.17766505     -0.09887151
H       0.82280774     -1.48702163      0.32101848
H       0.38743636     -0.13849093     -2.47032079
H       1.33299040     -1.61969559     -2.19615717
H      -0.37883934     -1.53366535     -3.99211000
11
Frame 55  Energy = -268.5594326900 Hartree
C       0.72337500     -0.63166736     -0.34797222
C       0.47285508     -1.05282000     -1.82415976
C      -0.83314422     -1.68908813     -2.12971156
O      -1.68983685     -1.88246194     -1.33489851
O      -1.11823085     -1.89613872     -3.48864163
H       1.66771687     -0.06230514     -0.29680041
H       0.03509358      0.17846204     -0.10174006
H       0.82310395     -1.48403172      0.31486114
H       0.38439326     -0.13575869     -2.47277626
H       1.34534969     -1.61489994     -2.18955118
H      -0.38338874     -1.53377827     -3.99882149
11
Frame 60  Energy = -268.5594417282 Hartree
C       0.72365670     -0.63294393     -0.34591498
C       0.47439765     -1.05430907     -1.82060651
C      -0.83326960     -1.69243986     -2.13144486
O      -1.69046902     -1.88202736     -1.33646834
O      -1.11861076     -1.89724535     -3.48764648
H       1.66717674     -0.06315216     -0.31164914
H       0.02957986      0.17726891     -0.10326697
H       0.82191359     -1.48045779      0.30929027
H       0.38304397     -0.13408585     -2.47358962
H       1.35673363     -1.61045262     -2.18306002
H      -0.38767531     -1.53422997     -4.00555973
11
Frame 65  Energy = -268.5593592104 Hartree
C       0.72407590     -0.63395434     -0.34417634
C       0.47613478     -1.05547422     -1.81715290
C      -0.83357620     -1.69583752     -2.13334214
O      -1.69113369     -1.88165355     -1.33791218
O      -1.11891046     -1.89834130     -3.48646742
H       1.66641442     -0.06538645     -0.32687454
H       0.02299518      0.17389891     -0.10360926
H       0.81947079     -1.47686721      0.30453850
H       0.38297108     -0.13379558     -2.47263226
H       1.36721114     -1.60581687     -2.17696885
H      -0.39223592     -1.53503386     -4.01223099
11
Frame 70  Energy = -268.5593250040 Hartree
C       0.72457292     -0.63477673     -0.34274059
C       0.47805043     -1.05629029     -1.81376584
C      -0.83392216     -1.69911716     -2.13536064
O      -1.69187771     -1.88121338     -1.33923973
O      -1.11913256     -1.89943713     -3.48511645
H       1.66587443     -0.06897533     -0.34250251
H       0.01566140      0.16807065     -0.10265915
H       0.81610873     -1.47372308      0.30106369
H       0.38448776     -0.13521303     -2.46979234
H       1.37616007     -1.60100159     -2.17173770
H      -0.39699418     -1.53632955     -4.01848112
11
Frame 75  Energy = -268.5593524568 Hartree
C       0.72506761     -0.63523738     -0.34155428
C       0.48011975     -1.05687475     -1.81052111
C      -0.83427732     -1.70240419     -2.13752856
O      -1.69277856     -1.88075346     -1.34045085
O      -1.11927946     -1.90048322     -3.48364051
H       1.66569544     -0.07375167     -0.35775764
H       0.00735199      0.15972164     -0.10013565
H       0.81194077     -1.47166350      0.29915129
H       0.38754099     -0.13815588     -2.46463409
H       1.38303411     -1.59604568     -2.16695489
H      -0.40207117     -1.53778435     -4.02439285
11
Frame 80  Energy = -268.5595420951 Hartree
C       0.72550459     -0.63529556     -0.34080254
C       0.48232934     -1.05720801     -1.80736034
C      -0.83474971     -1.70562548     -2.13977060
O      -1.69380089     -1.88034103     -1.34167161
O      -1.11926411     -1.90155789     -3.48201630
H       1.66574372     -0.07935966     -0.37262867
H      -0.00106391      0.14933683     -0.09600287
H       0.80669648     -1.47081064      0.29936775
H       0.39176848     -0.14291643     -2.45740313
H       1.38791358     -1.59098166     -2.16226716
H      -0.40680049     -1.53978552     -4.02967880
11
Frame 85  Energy = -268.5594453674 Hartree
C       0.72594879     -0.63501219     -0.34048233
C       0.48465489     -1.05736755     -1.80432046
C      -0.83523404     -1.70870377     -2.14204363
O      -1.69495282     -1.88005686     -1.34285859
O      -1.11911089     -1.90267473     -3.48029142
H       1.66600057     -0.08576960     -0.38693747
H      -0.00960675      0.13742719     -0.09027741
H       0.80084738     -1.47123271      0.30180005
H       0.39679143     -0.14895672     -2.44861086
H       1.39056296     -1.58594304     -2.15777997
H      -0.41152089     -1.54243413     -4.03423392
11
Frame 90  Energy = -268.5594942900 Hartree
C       0.72642332     -0.63450835     -0.34062738
C       0.48709662     -1.05735240     -1.80137536
C      -0.83582996     -1.71170499     -2.14447710
O      -1.69620540     -1.87976491     -1.34396228
O      -1.11897475     -1.90382898     -3.47855527
H       1.66659497     -0.09260823     -0.40053030
H      -0.01821248      0.12392585     -0.08321233
H       0.79438584     -1.47290848      0.30626826
H       0.40284747     -0.15578681     -2.43882115
H       1.39140536     -1.58130632     -2.15366414
H      -0.41648494     -1.54549059     -4.03807220
11
Frame 95  Energy = -268.5592758673 Hartree
C       0.72691305     -0.63373451     -0.34122986
C       0.48964343     -1.05736763     -1.79853190
C      -0.83645244     -1.71465052     -2.14702895
O      -1.69749521     -1.87954962     -1.34502816
O      -1.11885179     -1.90497391     -3.47679824
H       1.66762271     -0.09955745     -0.41322189
H      -0.02661373      0.10883572     -0.07491334
H       0.78747367     -1.47556477      0.31224991
H       0.41034785     -0.16245730     -2.42802707
H       1.39043175     -1.57721533     -2.15010515
H      -0.42131482     -1.54928621     -4.04112119
11
Frame 100  Energy = -268.5591156533 Hartree
C       0.72742749     -0.63286035     -0.34210817
C       0.49211080     -1.05739353     -1.79574283
C      -0.83707635     -1.71752434     -2.14973040
O      -1.69884654     -1.87937058     -1.34605398
O      -1.11867618     -1.90612842     -3.47493248
H       1.66958012     -0.10688839     -0.42457096
H      -0.03497601      0.09299156     -0.06574949
H       0.78000102     -1.47884052      0.31935043
H       0.41900227     -0.16887503     -2.41698981
H       1.38819046     -1.57366874     -2.14680056
H      -0.42587317     -1.55351739     -4.04357069
11
Frame 105  Energy = -268.5591411875 Hartree
C       0.72778671     -0.63188859     -0.34325544
C       0.49460278     -1.05742642     -1.79298759
C      -0.83767258     -1.72029682     -2.15242977
O      -1.70021541     -1.87926041     -1.34707140
O      -1.11857445     -1.90735261     -3.47298164
H       1.67231731     -0.11404746     -0.43443939
H      -0.04348330      0.07623232     -0.05601993
H       0.77222562     -1.48207811      0.32684274
H       0.42845898     -0.17427906     -2.40650208
H       1.38533007     -1.57104934     -2.14393615
H      -0.43023892     -1.55801685     -4.04576435
11
Frame 110  Energy = -268.5590419483 Hartree
C       0.72804598     -0.63093066     -0.34460762
C       0.49705073     -1.05760569     -1.79030123
C      -0.83818272     -1.72295158     -2.15506982
O      -1.70162220     -1.87927082     -1.34798379
O      -1.11858353     -1.90861176     -3.47100415
H       1.67562379     -0.12104414     -0.44237471
H      -0.05218622      0.05896861     -0.04580299
H       0.76437187     -1.48510616      0.33451549
H       0.43847073     -0.17790681     -2.39661106
H       1.38204805     -1.56955537     -2.14182584
H      -0.43393201     -1.56289843     -4.04709378
11
Frame 115  Energy = -268.5591056370 Hartree
C       0.72818204     -0.63010342     -0.34617719
C       0.49948738     -1.05793335     -1.78764183
C      -0.83852446     -1.72540347     -2.15757726
O      -1.70301737     -1.87946828     -1.34884920
O      -1.11863406     -1.90992779     -3.46895838
H       1.67919058     -0.12750443     -0.44883216
H      -0.06087547      0.04183902     -0.03507465
H       0.75677380     -1.48765612      0.34175736
H       0.44913769     -0.17938705     -2.38776701
H       1.37858478     -1.56935134     -2.14062591
H      -0.43675405     -1.56778326     -4.04812462
11
Frame 120  Energy = -268.5589959730 Hartree
C       0.72810667     -0.62941494     -0.34769192
C       0.50175859     -1.05832094     -1.78502784
C      -0.83878941     -1.72769606     -2.15993040
O      -1.70432662     -1.87984830     -1.34967560
O      -1.11866394     -1.91130079     -3.46693146
H       1.68282962     -0.13337828     -0.45319476
H      -0.06948737      0.02496633     -0.02379237
H       0.74964579     -1.48904521      0.34840112
H       0.46041083     -0.17846721     -2.38029699
H       1.37482934     -1.57053429     -2.14043007
H      -0.43860814     -1.57236896     -4.04903705
11
Frame 125  Energy = -268.5590311689 Hartree
C       0.72797592     -0.62897092     -0.34922900
C       0.50385861     -1.05882439     -1.78255646
C      -0.83903036     -1.72980562     -2.16210678
O      -1.70560746     -1.88028030     -1.35047479
O      -1.11868772     -1.91275554     -3.46497570
H       1.68725689     -0.13863719     -0.45528950
H      -0.07757501      0.00867877     -0.01246707
H       0.74319784     -1.48935422      0.35400059
H       0.47208678     -0.17537897     -2.37415948
H       1.37096861     -1.57323685     -2.14092783
H      -0.43951003     -1.57700910     -4.04999174
11
Frame 130  Energy = -268.5587297775 Hartree
C       0.72774861     -0.62872799     -0.35085159
C       0.50579018     -1.05945270     -1.78002976
C      -0.83915330     -1.73169793     -2.16410489
O      -1.70687540     -1.88083545     -1.35124899
O      -1.11873246     -1.91420078     -3.46297325
H       1.69216720     -0.14328312     -0.45514307
H      -0.08543206     -0.00674271     -0.00095027
H       0.73765510     -1.48819804      0.35812208
H       0.48378090     -0.17028428     -2.36965198
H       1.36771826     -1.57781444     -2.14217283
H      -0.43926454     -1.58167172     -4.05102749
11
Frame 135  Energy = -268.5585708579 Hartree
C       0.72742514     -0.62870958     -0.35246367
C       0.50752083     -1.06022841     -1.77760996
C      -0.83917672     -1.73339046     -2.16587457
O      -1.70813568     -1.88146635     -1.35206341
O      -1.11878010     -1.91575475     -3.46099340
H       1.69725885     -0.14718445     -0.45279776
H      -0.09279561     -0.02116636      0.01081255
H       0.73317253     -1.48551453      0.36063689
H       0.49517531     -0.16286155     -2.36631294
H       1.36569883     -1.58454843     -2.14392810
H      -0.43806975     -1.58626855     -4.05223521
11
Frame 140  Energy = -268.5585117717 Hartree
C       0.72705397     -0.62892992     -0.35400301
C       0.50904331     -1.06116956     -1.77536748
C      -0.83924190     -1.73478226     -2.16735622
O      -1.70938186     -1.88211317     -1.35278940
O      -1.11873704     -1.91730743     -3.45904067
H       1.70199822     -0.15064577     -0.44794360
H      -0.09949449     -0.03441325      0.02249445
H       0.72950264     -1.48165419      0.36163699
H       0.50673944     -0.15390328     -2.36421219
H       1.36503246     -1.59323272     -2.14638349
H      -0.43600594     -1.59116410     -4.05329373
11
Frame 145  Energy = -268.5584519635 Hartree
C       0.72649159     -0.62948886     -0.35535841
C       0.51031483     -1.06211666     -1.77341731
C      -0.83918581     -1.73581674     -2.16854992
O      -1.71064044     -1.88287681     -1.35341832
O      -1.11872201     -1.91890374     -3.45721123
H       1.70616962     -0.15381781     -0.44078001
H      -0.10551707     -0.04637907      0.03365354
H       0.72698196     -1.47644316      0.36126341
H       0.51839697     -0.14390784     -2.36312843
H       1.36528450     -1.60334646     -2.14924542
H      -0.43325863     -1.59609350     -4.05411312
11
Frame 150  Energy = -268.5584210796 Hartree
C       0.72579383     -0.63037712     -0.35663473
C       0.51134103     -1.06313251     -1.77180510
C      -0.83905247     -1.73645575     -2.16934973
O      -1.71198187     -1.88371417     -1.35410937
O      -1.11864677     -1.92054008     -3.45552494
H       1.70931010     -0.15637270     -0.43139855
H      -0.11069221     -0.05700897      0.04430629
H       0.72580815     -1.47032990      0.35938267
H       0.52985925     -0.13390521     -2.36294448
H       1.36580681     -1.61460555     -2.15222824
H      -0.42988291     -1.60092450     -4.05443028
11
Frame 155  Energy = -268.5586105273 Hartree
C       0.72498646     -0.63145652     -0.35767071
C       0.51218913     -1.06411138     -1.77051468
C      -0.83886663     -1.73658690     -2.16975350
O      -1.71331818     -1.88460068     -1.35481160
O      -1.11853853     -1.92226725     -3.45403308
H       1.71109338     -0.15842013     -0.41979816
H      -0.11453704     -0.06622138      0.05387118
H       0.72630066     -1.46405304      0.35613237
H       0.54092361     -0.12437119     -2.36294211
H       1.36598633     -1.62667887     -2.15521132
H      -0.42631591     -1.60575501     -4.05388813
11
Frame 160  Energy = -268.5585928947 Hartree
C       0.72412276     -0.63277154     -0.35851367
C       0.51298493     -1.06511966     -1.76954825
C      -0.83866133     -1.73628529     -2.16976189
O      -1.71462683     -1.88561790     -1.35552622
O      -1.11836922     -1.92400025     -3.45274938
H       1.71139386     -0.15957565     -0.40636149
H      -0.11737626     -0.07393475      0.06174093
H       0.72835983     -1.45819709      0.35185567
H       0.55183610     -0.11634779     -2.36277357
H       1.36566769     -1.63934247     -2.15792530
H      -0.42270334     -1.61101856     -4.05269765
11
Frame 165  Energy = -268.5587162153 Hartree
C       0.72329650     -0.63436209     -0.35909824
C       0.51371963     -1.06608447     -1.76901811
C      -0.83842113     -1.73563583     -2.16933313
O      -1.71583303     -1.88678058     -1.35628427
O      -1.11823098     -1.92569020     -3.45161164
H       1.71041312     -0.15994300     -0.39095114
H      -0.11890798     -0.08013847      0.06818952
H       0.73139089     -1.45300178      0.34708928
H       0.56253574     -0.11015853     -2.36232266
H       1.36497376     -1.65201357     -2.16024855
H      -0.41941996     -1.61648795     -4.05070372
11
Frame 170  Energy = -268.5587104224 Hartree
C       0.72247882     -0.63616516     -0.35945345
C       0.51434693     -1.06700773     -1.76899484
C      -0.83814488     -1.73457805     -2.16841043
O      -1.71702827     -1.88803781     -1.35706182
O      -1.11805847     -1.92741457     -3.45072081
H       1.70822098     -0.15948788     -0.37375395
H      -0.11948645     -0.08437556      0.07342969
H       0.73538948     -1.44940140      0.34205362
H       0.57263815     -0.10616823     -2.36166523
H       1.36348260     -1.66442386     -2.16218974
H      -0.41630560     -1.62223902     -4.04779791
11
Frame 175  Energy = -268.5588817238 Hartree
C       0.72160948     -0.63810267     -0.35966616
C       0.51484330     -1.06791994     -1.76944115
C      -0.83785904     -1.73314631     -2.16702921
O      -1.71811719     -1.88937796     -1.35788999
O      -1.11783986     -1.92922802     -3.45004134
H       1.70488367     -0.15815331     -0.35551275
H      -0.11934264     -0.08687795      0.07715104
H       0.74055558     -1.44776463      0.33729736
H       0.58227865     -0.10444297     -2.36086173
H       1.36107700     -1.67670863     -2.16347163
H      -0.41339449     -1.62815876     -4.04392855
11
Frame 180  Energy = -268.5588725657 Hartree
C       0.72069587     -0.64023385     -0.35968577
C       0.51532088     -1.06875939     -1.77037536
C      -0.83765666     -1.73139480     -2.16528892
O      -1.71911286     -1.89083711     -1.35881919
O      -1.11761618     -1.93103639     -3.44946774
H       1.70002443     -0.15622503     -0.33616708
H      -0.11851778     -0.08789330      0.07927767
H       0.74661741     -1.44848231      0.33320799
H       0.59112690     -0.10517816     -2.35967948
H       1.35760464     -1.68839335     -2.16384765
H      -0.41053227     -1.63447700     -4.03910701
11
Frame 185  Energy = -268.5590058005 Hartree
C       0.71969046     -0.64255012     -0.35946361
C       0.51584249     -1.06955866     -1.77180484
C      -0.83753958     -1.72933730     -2.16321667
O      -1.72007950     -1.89241243     -1.35978371
O      -1.11726320     -1.93279321     -3.44911721
H       1.69405793     -0.15352011     -0.31582508
H      -0.11667484     -0.08750694      0.07979149
H       0.75349464     -1.45157235      0.33033260
H       0.59916366     -0.10835877     -2.35794472
H       1.35286244     -1.69909177     -2.16318827
H      -0.40736885     -1.64121804     -4.03367231
11
Frame 190  Energy = -268.5590222281 Hartree
C       0.71867149     -0.64495180     -0.35900460
C       0.51631962     -1.07018183     -1.77366059
C      -0.83754275     -1.72699401     -2.16077749
O      -1.72096990     -1.89399074     -1.36072812
O      -1.11684829     -1.93452395     -3.44890938
H       1.68715576     -0.14999800     -0.29489407
H      -0.11373789     -0.08601278      0.07868668
H       0.76123977     -1.45710033      0.32818111
H       0.60652128     -0.11413458     -2.35566958
H       1.34670525     -1.70859297     -2.16170854
H      -0.40381402     -1.64809330     -4.02802020
11
Frame 195  Energy = -268.5589652883 Hartree
C       0.71756631     -0.64745019     -0.35843433
C       0.51678711     -1.07074930     -1.77600967
C      -0.83764225     -1.72428488     -2.15802629
O      -1.72177686     -1.89561744     -1.36176066
O      -1.11638283     -1.93630883     -3.44883561
H       1.67915689     -0.14547601     -0.27380623
H      -0.11017783     -0.08313565      0.07598670
H       0.76960759     -1.46504430      0.32666751
H       0.61298451     -0.12234064     -2.35364949
H       1.33916028     -1.71726140     -2.15945786
H      -0.39970524     -1.65501948     -4.02198887
11
Frame 200  Energy = -268.5589654321 Hartree
C       0.71652094     -0.64995150     -0.35773126
C       0.51729629     -1.07123837     -1.77875917
C      -0.83786829     -1.72134088     -2.15495013
O      -1.72243209     -1.89727349     -1.36282716
O      -1.11592445     -1.93812670     -3.44888045
H       1.67034335     -0.13997595     -0.25291484
H      -0.10600960     -0.07886878      0.07166631
H       0.77853517     -1.47524413      0.32589283
H       0.61867022     -0.13231980     -2.35188474
H       1.33022005     -1.72546714     -2.15629515
H      -0.39470327     -1.66180532     -4.01604837
11
Frame 205  Energy = -268.5592061739 Hartree
C       0.71554752     -0.65253815     -0.35680315
C       0.51777747     -1.07176544     -1.78172442
C      -0.83814307     -1.71809353     -2.15167263
O      -1.72298602     -1.89903841     -1.36388115
O      -1.11541907     -1.94000571     -3.44896774
H       1.66151727     -0.13355734     -0.23248924
H      -0.10159485     -0.07352762      0.06608976
H       0.78763289     -1.48734660      0.32561987
H       0.62352894     -0.14333584     -2.35061326
H       1.32048246     -1.73313775     -2.15278443
H      -0.38905802     -1.66840582     -4.01013370
11
Frame 210  Energy = -268.5590969342 Hartree
C       0.71458768     -0.65515323     -0.35561484
C       0.51829928     -1.07240080     -1.78492792
C      -0.83841821     -1.71458437     -2.14822328
O      -1.72344560     -1.90085073     -1.36479085
O      -1.11484353     -1.94184269     -3.44907959
H       1.65264119     -0.12627244     -0.21254612
H      -0.09754844     -0.06747039      0.05944277
H       0.79662370     -1.50067802      0.32526818
H       0.62775794     -0.15529987     -2.35038150
H       1.31003014     -1.74039060     -2.14865190
H      -0.38280736     -1.67515165     -4.00464638
11
Frame 215  Energy = -268.5588521167 Hartree
C       0.71363501     -0.65789858     -0.35416136
C       0.51878287     -1.07308973     -1.78834275
C      -0.83869537     -1.71085840     -2.14462944
O      -1.72387200     -1.90272856     -1.36562371
O      -1.11416205     -1.94360636     -3.44923883
H       1.64369693     -0.11846956     -0.19333120
H      -0.09358524     -0.06095991      0.05181043
H       0.80566830     -1.51477910      0.32427355
H       0.63147676     -0.16731102     -2.35198314
H       1.29949419     -1.74732673     -2.14411366
H      -0.37610984     -1.68189850     -3.99994356
11
Frame 220  Energy = -268.5588090989 Hartree
C       0.71269106     -0.66085057     -0.35234525
C       0.51920400     -1.07391696     -1.79187697
C      -0.83905793     -1.70702295     -2.14080352
O      -1.72430188     -1.90468161     -1.36627089
O      -1.11347239     -1.94544561     -3.44944213
H       1.63503317     -0.11015268     -0.17495767
H      -0.08993887     -0.05396428      0.04392887
H       0.81448808     -1.52890867      0.32260302
H       0.63492310     -0.17861809     -2.35566396
H       1.28924891     -1.75442291     -2.13909096
H      -0.36880167     -1.68871482     -3.99597030
11
Frame 225  Energy = -268.5586006623 Hartree
C       0.71182709     -0.66409516     -0.35025742
C       0.51950015     -1.07482691     -1.79540766
C      -0.83942075     -1.70310448     -2.13687475
O      -1.72465912     -1.90663073     -1.36679710
O      -1.11270905     -1.94736818     -3.44964678
H       1.62681011     -0.10181735     -0.15758480
H      -0.08691468     -0.04707939      0.03553286
H       0.82251829     -1.54245173      0.32002483
H       0.63784520     -0.18842538     -2.36159518
H       1.27934385     -1.76203509     -2.13419498
H      -0.36076883     -1.69524200     -3.99230728
11
Frame 230  Energy = -268.5588575533 Hartree
C       0.71103066     -0.66762418     -0.34797260
C       0.51968983     -1.07574364     -1.79885946
C      -0.83984045     -1.69899343     -2.13297338
O      -1.72498502     -1.90859537     -1.36714615
O      -1.11186710     -1.94925061     -3.44974994
H       1.61890491     -0.09312997     -0.14157692
H      -0.08498807     -0.04029912      0.02675236
H       0.82956906     -1.55503736      0.31619786
H       0.64049992     -0.19628277     -2.37011463
H       1.27065079     -1.77005537     -2.12937703
H      -0.35239313     -1.70166371     -3.98924564
11
Frame 235  Energy = -268.5587892110 Hartree
C       0.71039292     -0.67128729     -0.34543219
C       0.51974246     -1.07672374     -1.80210990
C      -0.84031012     -1.69462589     -2.12909689
O      -1.72529069     -1.91054880     -1.36722309
O      -1.11088358     -1.95109454     -3.44984761
H       1.61122969     -0.08460314     -0.12731307
H      -0.08394243     -0.03382281      0.01766613
H       0.83552454     -1.56628467      0.31170021
H       0.64298891     -0.20184294     -2.38136015
H       1.26341672     -1.77911134     -2.12467461
H      -0.34402579     -1.70822973     -3.98670152
11
Frame 240  Energy = -268.5586352796 Hartree
C       0.70991397     -0.67505393     -0.34267105
C       0.51973430     -1.07779807     -1.80517237
C      -0.84089126     -1.69012847     -2.12527622
O      -1.72556489     -1.91249719     -1.36725656
O      -1.10977849     -1.95289921     -3.44995131
H       1.60364869     -0.07669408     -0.11447047
H      -0.08387036     -0.02786953      0.00858175
H       0.84003648     -1.57602530      0.30626820
H       0.64531092     -0.20530972     -2.39537191
H       1.25760315     -1.78923071     -2.12047975
H      -0.33601956     -1.71499153     -3.98407369
11
Frame 245  Energy = -268.5587540615 Hartree
C       0.70953521     -0.67890777     -0.33977798
C       0.51953778     -1.07896488     -1.80797507
C      -0.84150917     -1.68560511     -2.12163204
O      -1.72578679     -1.91444759     -1.36715235
O      -1.10849919     -1.95467006     -3.45007795
H       1.59617764     -0.06921743     -0.10347095
H      -0.08497500     -0.02277762     -0.00036617
H       0.84291891     -1.58406727      0.29985972
H       0.64770026     -0.20689355     -2.41192855
H       1.25294066     -1.80023019     -2.11709620
H      -0.32855005     -1.72196793     -3.98122715
11
Frame 250  Energy = -268.5589655691 Hartree
C       0.70937533     -0.68284375     -0.33672223
C       0.51925999     -1.08017563     -1.81049926
C      -0.84224690     -1.68118052     -2.11816381
O      -1.72598352     -1.91645692     -1.36689985
O      -1.10703803     -1.95636038     -3.45017905
H       1.58884950     -0.06262964     -0.09479493
H      -0.08681145     -0.01894884     -0.00901853
H       0.84418055     -1.59019983      0.29225861
H       0.65024851     -0.20728248     -2.43031509
H       1.24941175     -1.81188929     -2.11385590
H      -0.32226364     -1.72912813     -3.97824778
11
Frame 255  Energy = -268.5590997192 Hartree
C       0.70937943     -0.68678287     -0.33350208
C       0.51894527     -1.08121309     -1.81284858
C      -0.84306144     -1.67679290     -2.11491218
O      -1.72620949     -1.91855105     -1.36646976
O      -1.10534805     -1.95801341     -3.45024341
H       1.58183119     -0.05717693     -0.08821178
H      -0.08955051     -0.01627875     -0.01758538
H       0.84388952     -1.59490359      0.28434008
H       0.65312912     -0.20724899     -2.44934267
H       1.24693073     -1.82404534     -2.11075031
H      -0.31694784     -1.73656018     -3.97499180
11
Frame 260  Energy = -268.5592340208 Hartree
C       0.70950439     -0.69067341     -0.33023661
C       0.51859688     -1.08211257     -1.81505573
C      -0.84403244     -1.67246274     -2.11192652
O      -1.72656113     -1.92068459     -1.36584168
O      -1.10341177     -1.95954193     -3.45015272
H       1.57507738     -0.05304554     -0.08386762
H      -0.09319997     -0.01559043     -0.02594197
H       0.84234579     -1.59835115      0.27625787
H       0.65630395     -0.20748837     -2.46843357
H       1.24536380     -1.83621385     -2.10778869
H      -0.31242303     -1.74409881     -3.97118238
11
Frame 265  Energy = -268.5591564928 Hartree
C       0.70975430     -0.69450111     -0.32708326
C       0.51824220     -1.08280411     -1.81707456
C      -0.84511631     -1.66821319     -2.10924468
O      -1.72695684     -1.92291410     -1.36508545
O      -1.10134541     -1.96096237     -3.44994805
H       1.56857045     -0.05030676     -0.08172799
H      -0.09757715     -0.01655088     -0.03351300
H       0.83943418     -1.60053011      0.26807670
H       0.65947708     -0.20839652     -2.48726276
H       1.24423553     -1.84834544     -2.10489353
H      -0.30854667     -1.75155787     -3.96701532
11
Frame 270  Energy = -268.5588501577 Hartree
C       0.70996937     -0.69827566     -0.32399101
C       0.51800718     -1.08342451     -1.81897973
C      -0.84632647     -1.66400542     -2.10690218
O      -1.72731867     -1.92516379     -1.36410960
O      -1.09905697     -1.96234773     -3.44966202
H       1.56292476     -0.04867539     -0.08169321
H      -0.10245029     -0.01933835     -0.04008341
H       0.83537137     -1.60176766      0.26035743
H       0.66270118     -0.21041802     -2.50551460
H       1.24300986     -1.86029533     -2.10200632
H      -0.30522764     -1.75906998     -3.96264362
11
Frame 275  Energy = -268.5588576735 Hartree
C       0.71011152     -0.70192343     -0.32105104
C       0.51805133     -1.08395003     -1.82077067
C      -0.84762580     -1.65984924     -2.10496749
O      -1.72764141     -1.92747013     -1.36291048
O      -1.09656552     -1.96370585     -3.44923763
H       1.55789597     -0.04848622     -0.08370302
H      -0.10781105     -0.02420709     -0.04597908
H       0.83016988     -1.60293656      0.25328326
H       0.66553693     -0.21411738     -2.52231143
H       1.24170100     -1.87183520     -2.09904077
H      -0.30203657     -1.76674886     -3.95822015
11
Frame 280  Energy = -268.5587062279 Hartree
C       0.71016798     -0.70540058     -0.31835364
C       0.51829985     -1.08442564     -1.82252977
C      -0.84898262     -1.65580343     -2.10347706
O      -1.72799101     -1.92978004     -1.36151456
O      -1.09398112     -1.96507125     -3.44875762
H       1.55364041     -0.04952744     -0.08766074
H      -0.11371883     -0.03114353     -0.05087570
H       0.82379846     -1.60437997      0.24737595
H       0.66822588     -0.21971277     -2.53708260
H       1.23998472     -1.88253087     -2.09590458
H      -0.29883732     -1.77441653     -3.95383560
11
Frame 285  Energy = -268.5586403194 Hartree
C       0.71015148     -0.70864996     -0.31595372
C       0.51876910     -1.08478196     -1.82433121
C      -0.85048527     -1.65188322     -2.10231261
O      -1.72836125     -1.93200116     -1.35998098
O      -1.09135060     -1.96640972     -3.44820930
H       1.55035461     -0.05179587     -0.09319724
H      -0.12015135     -0.04047220     -0.05481459
H       0.81627734     -1.60650288      0.24307923
H       0.67099970     -0.22729534     -2.54986332
H       1.23741939     -1.89198683     -2.09264250
H      -0.29533515     -1.78210598     -3.95004175
11
Frame 290  Energy = -268.5585009355 Hartree
C       0.70993824     -0.71165069     -0.31388662
C       0.51941447     -1.08509150     -1.82615761
C      -0.85204070     -1.64804364     -2.10147700
O      -1.72881611     -1.93414738     -1.35837252
O      -1.08864504     -1.96771625     -3.44752158
H       1.54843170     -0.05483394     -0.09987800
H      -0.12721384     -0.05175836     -0.05796651
H       0.80759885     -1.60969374      0.24035469
H       0.67385145     -0.23704540     -2.56038024
H       1.23378807     -1.90025682     -2.08914878
H      -0.29137643     -1.78956270     -3.94705911
11
Frame 295  Energy = -268.5585266334 Hartree
C       0.70954505     -0.71436907     -0.31217962
C       0.52018239     -1.08513962     -1.82797868
C      -0.85369015     -1.64432371     -2.10096230
O      -1.72930537     -1.93633889     -1.35663034
O      -1.08585644     -1.96902650     -3.44659283
H       1.54772533     -0.05848218     -0.10738509
H      -0.13465088     -0.06490924     -0.06014614
H       0.79812143     -1.61426891      0.23915666
H       0.67665259     -0.24918253     -2.56858774
H       1.22925342     -1.90679600     -2.08555930
H      -0.28694715     -1.79665723     -3.94512278
11
Frame 300  Energy = -268.5585125356 Hartree
C       0.70904207     -0.71678722     -0.31085854
C       0.52116305     -1.08507929     -1.82966536
C      -0.85549371     -1.64091304     -2.10078763
O      -1.72987468     -1.93839617     -1.35476087
O      -1.08301729     -1.97024645     -3.44557398
H       1.54822384     -0.06294332     -0.11573357
H      -0.14217794     -0.07985914     -0.06092283
H       0.78794176     -1.62021782      0.23976399
H       0.67942752     -0.26282917     -2.57416982
H       1.22384039     -1.91196966     -2.08211351
H      -0.28193876     -1.80349100     -3.94371709
