11
Frame 5  Energy = -268.5541853557 Hartree
C       0.70845511     -0.71893751     -0.30999191
C       0.52227088     -1.08501715     -1.83122732
C      -0.85741275     -1.63769650     -2.10092314
O      -1.73041479     -1.94045582     -1.35271008
O      -1.08004607     -1.97142344     -3.44450597
H       1.55011288     -0.06795826     -0.12525023
H      -0.14970167     -0.09635072     -0.06076042
H       0.77717732     -1.62738693      0.24186860
H       0.68247396     -0.27759079     -2.57767047
H       1.21736029     -1.91569714     -2.07871470
H      -0.27644658     -1.80999648     -3.94276263
11
Frame 10  Energy = -268.5539840136 Hartree
C       0.70777839     -0.72090139     -0.30953986
C       0.52338865     -1.08491095     -1.83266208
C      -0.85940117     -1.63482780     -2.10130467
O      -1.73097254     -1.94248488     -1.35042399
O      -1.07697102     -1.97254113     -3.44326574
H       1.55358211     -0.07361992     -0.13555996
H      -0.15745475     -0.11393099     -0.05933344
H       0.76579976     -1.63551504      0.24531430
H       0.68585802     -0.29276400     -2.57949282
H       1.20998444     -1.91810760     -2.07572684
H      -0.27072383     -1.81626908     -3.94226424
11
Frame 15  Energy = -268.5534534911 Hartree
C       0.70708229     -0.72277629     -0.30945012
C       0.52447522     -1.08487083     -1.83398847
C      -0.86144636     -1.63231135     -2.10188243
O      -1.73150694     -1.94453201     -1.34791663
O      -1.07373304     -1.97365114     -3.44192848
H       1.55810835     -0.07970492     -0.14602526
H      -0.16534808     -0.13242774     -0.05669518
H       0.75378428     -1.64416323      0.24984487
H       0.68949860     -0.30779869     -2.57963459
H       1.20191941     -1.91956467     -2.07284235
H      -0.26514567     -1.82261754     -3.94217235
11
Frame 20  Energy = -268.5535172275 Hartree
C       0.70623960     -0.72465718     -0.30981638
C       0.52556847     -1.08495614     -1.83514260
C      -0.86362854     -1.63019009     -2.10270204
O      -1.73205298     -1.94652920     -1.34542973
O      -1.07039472     -1.97476711     -3.44048892
H       1.56351963     -0.08618600     -0.15671492
H      -0.17367472     -0.15139976     -0.05285455
H       0.74124047     -1.65304314      0.25514004
H       0.69377023     -0.32206976     -2.57893651
H       1.19312664     -1.92047740     -2.07019063
H      -0.25978361     -1.82892605     -3.94221556
11
Frame 25  Energy = -268.5533827755 Hartree
C       0.70530461     -0.72644551     -0.31059319
C       0.52660822     -1.08514963     -1.83599298
C      -0.86585491     -1.62844489     -2.10366252
O      -1.73255571     -1.94835530     -1.34291095
O      -1.06700561     -1.97580030     -3.43898503
H       1.56956629     -0.09267629     -0.16720012
H      -0.18243770     -0.17025664     -0.04779520
H       0.72870975     -1.66154542      0.26031869
H       0.69858479     -0.33475568     -2.57772788
H       1.18398106     -1.92119349     -2.06779114
H      -0.25493827     -1.83479096     -3.94233116
11
Frame 30  Energy = -268.5535146250 Hartree
C       0.70430610     -0.72831675     -0.31159288
C       0.52750959     -1.08550709     -1.83653170
C      -0.86811623     -1.62712510     -2.10476956
O      -1.73289028     -1.95001586     -1.34030134
O      -1.06352010     -1.97678076     -3.43743560
H       1.57604413     -0.09948495     -0.17764385
H      -0.19171128     -0.18884613     -0.04201528
H       0.71614991     -1.66874364      0.26535124
H       0.70417279     -0.34540180     -2.57671753
H       1.17523806     -1.92221044     -2.06596916
H      -0.25064233     -1.84026326     -3.94226945
11
Frame 35  Energy = -268.5534041757 Hartree
C       0.70309170     -0.73028403     -0.31291345
C       0.52827898     -1.08607359     -1.83673487
C      -0.87041968     -1.62621769     -2.10609327
O      -1.73307641     -1.95148101     -1.33761516
O      -1.05991587     -1.97767099     -3.43581660
H       1.58269966     -0.10630922     -0.18763549
H      -0.20097429     -0.20714392     -0.03540923
H       0.70423969     -1.67419337      0.27000417
H       0.71051900     -0.35343226     -2.57613484
H       1.16728119     -1.92373759     -2.06450672
H      -0.24739045     -1.84526052     -3.94173383
11
Frame 40  Energy = -268.5533435242 Hartree
C       0.70179395     -0.73235452     -0.31446941
C       0.52887775     -1.08677259     -1.83651822
C      -0.87275804     -1.62567244     -2.10762684
O      -1.73312561     -1.95277798     -1.33483154
O      -1.05627941     -1.97852744     -3.43419644
H       1.58936039     -0.11340402     -0.19698859
H      -0.21035260     -0.22495959     -0.02809005
H       0.69303070     -1.67803782      0.27382494
H       0.71817702     -0.35859277     -2.57666526
H       1.16019584     -1.92606543     -2.06364124
H      -0.24459511     -1.84975639     -3.94082240
11
Frame 45  Energy = -268.5533377635 Hartree
C       0.70043397     -0.73454616     -0.31633627
C       0.52908927     -1.08770914     -1.83596407
C      -0.87518849     -1.62547642     -2.10929211
O      -1.73302794     -1.95391406     -1.33198725
O      -1.05267353     -1.97932803     -3.43263452
H       1.59619388     -0.12085206     -0.20557987
H      -0.21930673     -0.24179104     -0.02017890
H       0.68287792     -1.67984633      0.27655157
H       0.72704419     -0.36109655     -2.57833393
H       1.15451661     -1.92946263     -2.06354532
H      -0.24216802     -1.85351241     -3.93943960
11
Frame 50  Energy = -268.5534282525 Hartree
C       0.69902825     -0.73682989     -0.31847330
C       0.52896001     -1.08880602     -1.83511253
C      -0.87770967     -1.62566011     -2.11106278
O      -1.73280958     -1.95490229     -1.32920657
O      -1.04914162     -1.98009033     -3.43099521
H       1.60284019     -0.12853491     -0.21324486
H      -0.22750290     -0.25742559     -0.01139553
H       0.67378068     -1.67970138      0.27806889
H       0.73689431     -0.36085837     -2.58072121
H       1.15037160     -1.93400873     -2.06404261
H      -0.23998529     -1.85663862     -3.93756463
11
Frame 55  Energy = -268.5533807349 Hartree
C       0.69754459     -0.73928530     -0.32075359
C       0.52858141     -1.09003917     -1.83393909
C      -0.88025976     -1.62611036     -2.11288841
O      -1.73249892     -1.95574192     -1.32650885
O      -1.04563253     -1.98080406     -3.42937615
H       1.60844960     -0.13675231     -0.21970794
H      -0.23485454     -0.27153113     -0.00216810
H       0.66573076     -1.67765680      0.27821354
H       0.74768962     -0.35780376     -2.58349919
H       1.14759965     -1.93994084     -2.06480044
H      -0.23791052     -1.85931981     -3.93509663
11
Frame 60  Energy = -268.5533500470 Hartree
C       0.69596703     -0.74179632     -0.32318546
C       0.52795703     -1.09136481     -1.83241288
C      -0.88288022     -1.62682604     -2.11466512
O      -1.73211552     -1.95636616     -1.32388538
O      -1.04210349     -1.98149561     -3.42773805
H       1.61284738     -0.14550594     -0.22499283
H      -0.24097040     -0.28405898      0.00731685
H       0.65928210     -1.67408320      0.27684074
H       0.75932605     -0.35293079     -2.58589982
H       1.14583824     -1.94695005     -2.06627951
H      -0.23519399     -1.86180386     -3.93193658
11
Frame 65  Energy = -268.5534640737 Hartree
C       0.69430267     -0.74440195     -0.32589485
C       0.52718260     -1.09279974     -1.83063988
C      -0.88542812     -1.62793425     -2.11650527
O      -1.73158234     -1.95684596     -1.32132446
O      -1.03869450     -1.98216195     -3.42607456
H       1.61597666     -0.15462198     -0.22886876
H      -0.24586149     -0.29474026      0.01675053
H       0.65501628     -1.66945650      0.27457935
H       0.77139071     -0.34665206     -2.58750647
H       1.14475642     -1.95431905     -2.06823124
H      -0.23209856     -1.86409379     -3.92850984
11
Frame 70  Energy = -268.5536084071 Hartree
C       0.69248541     -0.74707758     -0.32875017
C       0.52624875     -1.09445892     -1.82869436
C      -0.88789469     -1.62935977     -2.11840181
O      -1.73091826     -1.95717728     -1.31884463
O      -1.03538284     -1.98279034     -3.42439269
H       1.61784454     -0.16396895     -0.23106950
H      -0.24912303     -0.30359602      0.02583925
H       0.65271678     -1.66387232      0.27147875
H       0.78317098     -0.33960379     -2.58785090
H       1.14411782     -1.96208056     -2.07015434
H      -0.22867278     -1.86591417     -3.92508587
11
Frame 75  Energy = -268.5538517380 Hartree
C       0.69056574     -0.74978168     -0.33164779
C       0.52511686     -1.09617709     -1.82664788
C      -0.89029948     -1.63101068     -2.12020654
O      -1.73001091     -1.95733693     -1.31652955
O      -1.03231114     -1.98338680     -3.42271324
H       1.61828223     -0.17375535     -0.23190637
H      -0.25056139     -0.31094918      0.03446369
H       0.65240180     -1.65795990      0.26744963
H       0.79461676     -0.33235473     -2.58665410
H       1.14395159     -1.96954126     -2.07226694
H      -0.22501404     -1.86713703     -3.92147837
11
Frame 80  Energy = -268.5541861353 Hartree
C       0.68857605     -0.75245150     -0.33463242
C       0.52381225     -1.09801745     -1.82451103
C      -0.89260444     -1.63288720     -2.12189396
O      -1.72891905     -1.95729033     -1.31444413
O      -1.02942900     -1.98396643     -3.42110017
H       1.61725553     -0.18396043     -0.23163281
H      -0.25034997     -0.31638179      0.04227763
H       0.65398739     -1.65250016      0.26291385
H       0.80544016     -0.32545860     -2.58369594
H       1.14425527     -1.97618026     -2.07412831
H      -0.22094607     -1.86768288     -3.91762877
11
Frame 85  Energy = -268.5541116416 Hartree
C       0.68646091     -0.75498980     -0.33772396
C       0.52237571     -1.09992234     -1.82235739
C      -0.89477146     -1.63490393     -2.12348294
O      -1.72779602     -1.95711844     -1.31244552
O      -1.02670186     -1.98455479     -3.41956779
H       1.61501613     -0.19426623     -0.23018592
H      -0.24857922     -0.31991188      0.04907424
H       0.65727540     -1.64785915      0.25830952
H       0.81528613     -0.31889706     -2.57866130
H       1.14478308     -1.98195765     -2.07544010
H      -0.21633535     -1.86733682     -3.91354448
11
Frame 90  Energy = -268.5542246523 Hartree
C       0.68413262     -0.75747473     -0.34098992
C       0.52086295     -1.10192456     -1.82029889
C      -0.89667670     -1.63715237     -2.12483936
O      -1.72660524     -1.95679405     -1.31050372
O      -1.02411494     -1.98527218     -3.41811803
H       1.61164314     -0.20417282     -0.22715802
H      -0.24475645     -0.32132110      0.05488393
H       0.66225399     -1.64492811      0.25366241
H       0.82442225     -0.31314095     -2.57146701
H       1.14510677     -1.98699888     -2.07635412
H      -0.21115935     -1.86627932     -3.90944396
11
Frame 95  Energy = -268.5546114913 Hartree
C       0.68172525     -0.75993111     -0.34430161
C       0.51932524     -1.10401774     -1.81833392
C      -0.89822766     -1.63964675     -2.12602809
O      -1.72535217     -1.95629853     -1.30862480
O      -1.02172798     -1.98603999     -3.41680373
H       1.60785889     -0.21317499     -0.22294476
H      -0.23938539     -0.32077407      0.05950107
H       0.66886557     -1.64378388      0.24958675
H       0.83253073     -0.30925984     -2.56213146
H       1.14531866     -1.99066539     -2.07691464
H      -0.20565831     -1.86480257     -3.90518100
11
Frame 100  Energy = -268.5546494191 Hartree
C       0.67912580     -0.76232605     -0.34772665
C       0.51784936     -1.10606611     -1.81654308
C      -0.89956941     -1.64234242     -2.12706557
O      -1.72402237     -1.95564136     -1.30689545
O      -1.01943705     -1.98685126     -3.41552724
H       1.60324342     -0.22131673     -0.21737466
H      -0.23301298     -0.31830599      0.06290097
H       0.67653013     -1.64454822      0.24597727
H       0.83933792     -0.30711547     -2.55042791
H       1.14521840     -1.99239125     -2.07694264
H      -0.19974474     -1.86266645     -3.90067304
11
Frame 105  Energy = -268.5546960095 Hartree
C       0.67640361     -0.76481214     -0.35125872
C       0.51639142     -1.10820853     -1.81498118
C      -0.90065704     -1.64514724     -2.12789306
O      -1.72262079     -1.95484820     -1.30524804
O      -1.01726131     -1.98766103     -3.41438390
H       1.59834732     -0.22853780     -0.21056987
H      -0.22568612     -0.31398619      0.06539851
H       0.68564462     -1.64727069      0.24319557
H       0.84486242     -0.30627331     -2.53670058
H       1.14500235     -1.99242719     -2.07650394
H      -0.19385062     -1.86000790     -3.89562365
11
Frame 110  Energy = -268.5548767523 Hartree
C       0.67363084     -0.76737496     -0.35479888
C       0.51494358     -1.11034859     -1.81356832
C      -0.90149753     -1.64801606     -2.12853975
O      -1.72114975     -1.95396351     -1.30366029
O      -1.01520125     -1.98847433     -3.41332044
H       1.59357970     -0.23493228     -0.20296970
H      -0.21775836     -0.30789624      0.06702677
H       0.69576093     -1.65229726      0.24113930
H       0.84854361     -0.30672143     -2.52124526
H       1.14462680     -1.99068525     -2.07565684
H      -0.18842459     -1.85663470     -3.89008122
11
Frame 115  Energy = -268.5546214720 Hartree
C       0.67085584     -0.77004473     -0.35830147
C       0.51334728     -1.11247311     -1.81223128
C      -0.90198942     -1.65101324     -2.12894900
O      -1.71959487     -1.95300489     -1.30215149
O      -1.01326216     -1.98933190     -3.41232637
H       1.58890355     -0.23987792     -0.19455296
H      -0.20932226     -0.29960470      0.06780713
H       0.70665542     -1.65967328      0.23969033
H       0.85064576     -0.30852813     -2.50410364
H       1.14431236     -1.98758308     -2.07452974
H      -0.18333610     -1.85270512     -3.88419739
11
Frame 120  Energy = -268.5545903256 Hartree
C       0.66794766     -0.77274008     -0.36174876
C       0.51168413     -1.11466628     -1.81093729
C      -0.90234500     -1.65399793     -2.12912638
O      -1.71804861     -1.95200882     -1.30067101
O      -1.01139765     -1.99028807     -3.41149812
H       1.58460792     -0.24318412     -0.18582591
H      -0.20032413     -0.28953910      0.06804066
H       0.71818259     -1.66851749      0.23862441
H       0.85141218     -0.31164758     -2.48589964
H       1.14403807     -1.98308241     -2.07305468
H      -0.17898410     -1.84790850     -3.87810347
11
Frame 125  Energy = -268.5544477894 Hartree
C       0.66480876     -0.77549341     -0.36497727
C       0.51006912     -1.11694052     -1.80982166
C      -0.90244407     -1.65698122     -2.12912121
O      -1.71640778     -1.95099417     -1.29923289
O      -1.00970705     -1.99133732     -3.41081587
H       1.58075713     -0.24522867     -0.17686227
H      -0.19125989     -0.27791210      0.06771149
H       0.73020828     -1.67859693      0.23749049
H       0.85074265     -0.31505659     -2.46685991
H       1.14383537     -1.97745821     -2.07121485
H      -0.17570063     -1.84302419     -3.87145265
11
Frame 130  Energy = -268.5539587982 Hartree
C       0.66166709     -0.77837212     -0.36801203
C       0.50842336     -1.11934732     -1.80866772
C      -0.90223529     -1.66005884     -2.12883996
O      -1.71472289     -1.94984332     -1.29792816
O      -1.00814489     -1.99243217     -3.41029851
H       1.57741879     -0.24632189     -0.16722785
H      -0.18224339     -0.26490108      0.06701127
H       0.74218004     -1.68939032      0.23607919
H       0.84894808     -0.31782735     -2.44800447
H       1.14412393     -1.97123535     -2.06934060
H      -0.17285331     -1.83787158     -3.86428795
11
Frame 135  Energy = -268.5538821942 Hartree
C       0.65860729     -0.78143594     -0.37080553
C       0.50676260     -1.12190902     -1.80752842
C      -0.90164563     -1.66325865     -2.12835920
O      -1.71293592     -1.94865742     -1.29673696
O      -1.00666083     -1.99358250     -3.40995615
H       1.57433353     -0.24662984     -0.15755527
H      -0.17338411     -0.25091371      0.06602467
H       0.75386385     -1.70006384      0.23393711
H       0.84584740     -0.31964481     -2.42986213
H       1.14477854     -1.96503606     -2.06754141
H      -0.17058455     -1.83200957     -3.85685159
11
Frame 140  Energy = -268.5540918737 Hartree
C       0.65570041     -0.78462523     -0.37319839
C       0.50506566     -1.12450190     -1.80636553
C      -0.90069717     -1.66649246     -2.12767462
O      -1.71109092     -1.94732951     -1.29565732
O      -1.00527747     -1.99472549     -3.40977498
H       1.57135070     -0.24605789     -0.14809699
H      -0.16486092     -0.23619507      0.06481665
H       0.76474708     -1.70995378      0.23106620
H       0.84185888     -0.32019966     -2.41329559
H       1.14622365     -1.95912872     -2.06588182
H      -0.16885124     -1.82553423     -3.84966861
11
Frame 145  Energy = -268.5542552446 Hartree
C       0.65295757     -0.78801984     -0.37510931
C       0.50320955     -1.12722168     -1.80508112
C      -0.89933245     -1.66970226     -2.12688471
O      -1.70928682     -1.94594121     -1.29467045
O      -1.00404363     -1.99588353     -3.40982774
H       1.56849115     -0.24454665     -0.13976455
H      -0.15691852     -0.22146210      0.06257270
H       0.77487985     -1.71864273      0.22693659
H       0.83759000     -0.31879151     -2.39928590
H       1.14852578     -1.95401469     -2.06424772
H      -0.16751410     -1.81867637     -3.84251090
11
Frame 150  Energy = -268.5542837072 Hartree
C       0.65045628     -0.79162817     -0.37653413
C       0.50117560     -1.13011939     -1.80371240
C      -0.89767851     -1.67288065     -2.12589798
O      -1.70763446     -1.94456014     -1.29362272
O      -1.00291480     -1.99704550     -3.41003868
H       1.56576692     -0.24236296     -0.13244226
H      -0.14951268     -0.20707155      0.05953738
H       0.78415458     -1.72584841      0.22180670
H       0.83279979     -0.31514872     -2.38799938
H       1.15175912     -1.94942729     -2.06251903
H      -0.16649117     -1.81129733     -3.83533579
11
Frame 155  Energy = -268.5542752166 Hartree
C       0.64820941     -0.79533431     -0.37751166
C       0.49910758     -1.13315917     -1.80233654
C      -0.89568649     -1.67606148     -2.12480920
O      -1.70601207     -1.94315792     -1.29264182
O      -1.00187398     -1.99827635     -3.41037076
H       1.56291925     -0.23995683     -0.12634464
H      -0.14318949     -0.19305669      0.05589046
H       0.79231309     -1.73135852      0.21563025
H       0.82794556     -0.30929319     -2.37938706
H       1.15587228     -1.94574952     -2.06089468
H      -0.16505320     -1.80379628     -3.82880689
11
Frame 160  Energy = -268.5543074917 Hartree
C       0.64614938     -0.79910022     -0.37804235
C       0.49700467     -1.13623144     -1.80093410
C      -0.89332970     -1.67919755     -2.12352877
O      -1.70448198     -1.94174726     -1.29180509
O      -1.00089517     -1.99958427     -3.41079861
H       1.55926644     -0.23806240     -0.12167001
H      -0.13780660     -0.17948189      0.05185132
H       0.79883157     -1.73534586      0.20853693
H       0.82276443     -0.30131867     -2.37361007
H       1.16101030     -1.94325717     -2.05947342
H      -0.16325302     -1.79574467     -3.82312657
11
Frame 165  Energy = -268.5544468603 Hartree
C       0.64439364     -0.80288837     -0.37796308
C       0.49477905     -1.13941092     -1.79960041
C      -0.89065371     -1.68235891     -2.12207504
O      -1.70310247     -1.94031878     -1.29110049
O      -1.00001121     -2.00093344     -3.41132765
H       1.55545599     -0.23673811     -0.11814858
H      -0.13331676     -0.16735186      0.04725725
H       0.80358069     -1.73754224      0.20118264
H       0.81712103     -0.29148246     -2.37065475
H       1.16733564     -1.94176020     -2.05825288
H      -0.16128515     -1.78744321     -3.81826575
11
Frame 170  Energy = -268.5542809307 Hartree
C       0.64290733     -0.80675375     -0.37739460
C       0.49255814     -1.14263228     -1.79826785
C      -0.88765852     -1.68544231     -2.12051885
O      -1.70186978     -1.93896208     -1.29044247
O      -0.99925050     -2.00233150     -3.41195231
H       1.55139475     -0.23587287     -0.11622448
H      -0.12929365     -0.15662088      0.04169133
H       0.80633765     -1.73818524      0.19395888
H       0.81055021     -0.28062480     -2.36986611
H       1.17425166     -1.94099542     -2.05755066
H      -0.15949625     -1.77923384     -3.81412578
11
Frame 175  Energy = -268.5541264764 Hartree
C       0.64172169     -0.81072984     -0.37631310
C       0.49041015     -1.14579453     -1.79691322
C      -0.88437290     -1.68853968     -2.11889928
O      -1.70078073     -1.93766465     -1.28986966
O      -0.99854693     -2.00373879     -3.41272905
H       1.54723704     -0.23560469     -0.11589563
H      -0.12595944     -0.14723001      0.03588104
H       0.80730906     -1.73799178      0.18683658
H       0.80246848     -0.26948313     -2.37031176
H       1.18193116     -1.94115067     -2.05715453
H      -0.15790394     -1.77068327     -3.81065362
11
Frame 180  Energy = -268.5540666971 Hartree
C       0.64079668     -0.81470636     -0.37474624
C       0.48828517     -1.14875097     -1.79561566
C      -0.88082821     -1.69166885     -2.11722304
O      -1.69982433     -1.93644340     -1.28936025
O      -0.99802161     -2.00514346     -3.41356985
H       1.54307696     -0.23591648     -0.11697381
H      -0.12344891     -0.14001367      0.02974439
H       0.80653127     -1.73701820      0.18052350
H       0.79252202     -0.25860439     -2.37156051
H       1.19001114     -1.94194086     -2.05737933
H      -0.15657920     -1.76187012     -3.80771445
11
Frame 185  Energy = -268.5541933383 Hartree
C       0.63998610     -0.81861777     -0.37276554
C       0.48630369     -1.15150037     -1.79442829
C      -0.87714097     -1.69472593     -2.11549829
O      -1.69896472     -1.93522570     -1.28893582
O      -0.99762475     -2.00666679     -3.41439226
H       1.53920399     -0.23690414     -0.11980677
H      -0.12141339     -0.13504263      0.02309599
H       0.80406685     -1.73569875      0.17515812
H       0.78137669     -0.24854038     -2.37338552
H       1.19803968     -1.94280286     -2.05809685
H      -0.15561914     -1.75307190     -3.80576459
11
Frame 190  Energy = -268.5539593622 Hartree
C       0.63928009     -0.82226942     -0.37036744
C       0.48453157     -1.15401400     -1.79332998
C      -0.87324805     -1.69780240     -2.11374477
O      -1.69815795     -1.93402093     -1.28858643
O      -0.99738433     -2.00829343     -3.41529059
H       1.53597264     -0.23866363     -0.12413451
H      -0.12013998     -0.13230016      0.01645709
H       0.79968524     -1.73468336      0.17126887
H       0.76870370     -0.23997067     -2.37538728
H       1.20585774     -1.94348636     -2.05944667
H      -0.15536310     -1.74484544     -3.80454630
11
Frame 195  Energy = -268.5539771485 Hartree
C       0.63879876     -0.82570400     -0.36756933
C       0.48298503     -1.15640787     -1.79233177
C      -0.86918541     -1.70096362     -2.11193111
O      -1.69744630     -1.93282136     -1.28826734
O      -0.99717370     -2.00992183     -3.41622849
H       1.53344383     -0.24138645     -0.13012913
H      -0.11981786     -0.13148544      0.01001356
H       0.79355097     -1.73423909      0.16951304
H       0.75468203     -0.23340059     -2.37751309
H       1.21353155     -1.94345048     -2.06122511
H      -0.15587942     -1.73700112     -3.80412490
11
Frame 200  Energy = -268.5539860988 Hartree
C       0.63851431     -0.82885922     -0.36454679
C       0.48175776     -1.15857296     -1.79147911
C      -0.86501105     -1.70410543     -2.11019508
O      -1.69671483     -1.93166532     -1.28793575
O      -0.99697392     -2.01155410     -3.41714354
H       1.53150997     -0.24504306     -0.13773003
H      -0.12037103     -0.13263579      0.00365884
H       0.78567623     -1.73467045      0.17033603
H       0.73949162     -0.22895022     -2.37925984
H       1.22067180     -1.94212411     -2.06318145
H      -0.15714803     -1.72981608     -3.80505829
11
Frame 205  Energy = -268.5541253133 Hartree
C       0.63840981     -0.83169722     -0.36128462
C       0.48087301     -1.16049299     -1.79074477
C      -0.86077034     -1.70727544     -2.10850126
O      -1.69610099     -1.93052165     -1.28760642
O      -0.99676287     -2.01323032     -3.41812706
H       1.53035274     -0.24934309     -0.14689703
H      -0.12191849     -0.13595267     -0.00187555
H       0.77615669     -1.73623959      0.17370234
H       0.72304122     -0.22715703     -2.38061253
H       1.22709177     -1.93977099     -2.06524233
H      -0.15920735     -1.72376931     -3.80671880
11
Frame 210  Energy = -268.5540523247 Hartree
C       0.63857942     -0.83422779     -0.35786019
C       0.48031280     -1.16224261     -1.79019154
C      -0.85660245     -1.71055324     -2.10670764
O      -1.69560917     -1.92938765     -1.28724195
O      -0.99650111     -2.01493980     -3.41919093
H       1.53020039     -0.25385506     -0.15685970
H      -0.12442190     -0.14135033     -0.00737838
H       0.76555470     -1.73894316      0.17915253
H       0.70531114     -0.22809814     -2.38186037
H       1.23259165     -1.93621700     -2.06769136
H      -0.16229484     -1.71873599     -3.80885627
11
Frame 215  Energy = -268.5541559563 Hartree
C       0.63892199     -0.83654572     -0.35439855
C       0.48008895     -1.16379248     -1.78983691
C      -0.85252611     -1.71401701     -2.10485927
O      -1.69515306     -1.92824328     -1.28698694
O      -0.99623266     -2.01662588     -3.42027958
H       1.53118016     -0.25860253     -0.16770313
H      -0.12791248     -0.14871992     -0.01195334
H       0.75426908     -1.74295030      0.18678757
H       0.68678135     -0.23159384     -2.38310412
H       1.23716179     -1.93110283     -2.07004351
H      -0.16673433     -1.71468922     -3.81172239
11
Frame 220  Energy = -268.5540996183 Hartree
C       0.63933691     -0.83863650     -0.35079834
C       0.48024552     -1.16514873     -1.78961990
C      -0.84854186     -1.71746042     -2.10305163
O      -1.69475183     -1.92704434     -1.28690835
O      -0.99594566     -2.01823593     -3.42138947
H       1.53379870     -0.26344761     -0.17927251
H      -0.13225900     -0.15771957     -0.01565477
H       0.74174352     -1.74844669      0.19644805
H       0.66733706     -0.23730546     -2.38364845
H       1.24085277     -1.92430781     -2.07248992
H      -0.17200081     -1.71119292     -3.81544514
11
Frame 225  Energy = -268.5540284364 Hartree
C       0.63987200     -0.84057656     -0.34710185
C       0.48082374     -1.16633006     -1.78957060
C      -0.84468788     -1.72088977     -2.10122642
O      -1.69441519     -1.92580017     -1.28698117
O      -0.99567113     -2.01981456     -3.42244769
H       1.53789416     -0.26822084     -0.19122047
H      -0.13760420     -0.16779449     -0.01881459
H       0.72792032     -1.75471962      0.20816884
H       0.64746841     -0.24516624     -2.38395997
H       1.24342685     -1.91624855     -2.07551157
H      -0.17747183     -1.70836190     -3.82019535
11
Frame 230  Energy = -268.5537531868 Hartree
C       0.64054002     -0.84235283     -0.34334643
C       0.48167859     -1.16738584     -1.78964421
C      -0.84107165     -1.72444996     -2.09946312
O      -1.69405343     -1.92454337     -1.28706837
O      -0.99534385     -2.02142247     -3.42343381
H       1.54362581     -0.27301111     -0.20309389
H      -0.14440178     -0.17906648     -0.02093353
H       0.71307465     -1.76156604      0.22153079
H       0.62733518     -0.25452819     -2.38424698
H       1.24557282     -1.90704753     -2.07887358
H      -0.18327248     -1.70585920     -3.82607762
11
Frame 235  Energy = -268.5539451568 Hartree
C       0.64132037     -0.84405213     -0.33954229
C       0.48279049     -1.16828253     -1.78977345
C      -0.83775180     -1.72804760     -2.09781258
O      -1.69370026     -1.92327180     -1.28722652
O      -0.99507570     -2.02307153     -3.42437619
H       1.55122106     -0.27786403     -0.21466590
H      -0.15205457     -0.19108798     -0.02199784
H       0.69781593     -1.76839232      0.23583886
H       0.60714742     -0.26446919     -2.38440251
H       1.24737409     -1.89711997     -2.08262316
H      -0.18973179     -1.70372888     -3.83311947
11
Frame 240  Energy = -268.5538877508 Hartree
C       0.64224114     -0.84574423     -0.33575959
C       0.48411708     -1.16906379     -1.79002713
C      -0.83459034     -1.73172354     -2.09624886
O      -1.69344142     -1.92206976     -1.28744514
O      -0.99480316     -2.02475823     -3.42528948
H       1.56002971     -0.28257646     -0.22560594
H      -0.16037905     -0.20340942     -0.02171250
H       0.68207342     -1.77454180      0.25032199
H       0.58723007     -0.27419079     -2.38461380
H       1.24919173     -1.88661349     -2.08677467
H      -0.19642941     -1.70197755     -3.84124299
11
Frame 245  Energy = -268.5539985429 Hartree
C       0.64318043     -0.84747291     -0.33196498
C       0.48560078     -1.16982835     -1.79021066
C      -0.83168779     -1.73548513     -2.09474684
O      -1.69324599     -1.92087270     -1.28768666
O      -0.99452893     -2.02651227     -3.42612432
H       1.56939829     -0.28750198     -0.23558817
H      -0.16959034     -0.21556050     -0.02022831
H       0.66615179     -1.77955750      0.26502525
H       0.56799173     -0.28287851     -2.38549201
H       1.25131693     -1.87572681     -2.09113210
H      -0.20324954     -1.70043146     -3.85040362
11
Frame 250  Energy = -268.5537977316 Hartree
C       0.64413093     -0.84929301     -0.32808956
C       0.48715695     -1.17056899     -1.79032092
C      -0.82904743     -1.73941371     -2.09321581
O      -1.69314160     -1.91969749     -1.28790839
O      -0.99433588     -2.02830058     -3.42689314
H       1.57881405     -0.29285530     -0.24444639
H      -0.17955605     -0.22741455     -0.01770103
H       0.65025202     -1.78270418      0.27936403
H       0.54952945     -0.29013118     -2.38776174
H       1.25389242     -1.86499605     -2.09580861
H      -0.20959722     -1.69949894     -3.86057096
11
Frame 255  Energy = -268.5537657294 Hartree
C       0.64513231     -0.85111026     -0.32409620
C       0.48871036     -1.17140493     -1.79038215
C      -0.82648368     -1.74352433     -2.09184459
O      -1.69306042     -1.91858405     -1.28824389
O      -0.99422468     -2.03011942     -3.42757842
H       1.58819720     -0.29881364     -0.25227804
H      -0.18991648     -0.23883604     -0.01448723
H       0.63442000     -1.78397841      0.29304626
H       0.53196879     -0.29530694     -2.39108014
H       1.25732418     -1.85471295     -2.10111309
H      -0.21546016     -1.69882551     -3.87185016
11
Frame 260  Energy = -268.5541513338 Hartree
C       0.64619701     -0.85280452     -0.32000527
C       0.49033666     -1.17230648     -1.79026217
C      -0.82417550     -1.74776842     -2.09074493
O      -1.69304599     -1.91745830     -1.28868584
O      -0.99410735     -2.03190230     -3.42815056
H       1.59733179     -0.30527564     -0.25827306
H      -0.20044430     -0.24931749     -0.01058661
H       0.61949728     -1.78295028      0.30547330
H       0.51573741     -0.29812956     -2.39534363
H       1.26178083     -1.84543809     -2.10716111
H      -0.22100143     -1.69864666     -3.88360714
11
Frame 265  Energy = -268.5539567877 Hartree
C       0.64743729     -0.85449068     -0.31573234
C       0.49199374     -1.17328459     -1.78989735
C      -0.82203104     -1.75199020     -2.08987238
O      -1.69297708     -1.91630485     -1.28920671
O      -0.99410128     -2.03371812     -3.42855654
H       1.60526121     -0.31249576     -0.26228684
H      -0.21080055     -0.25896394     -0.00625042
H       0.60552956     -1.77975254      0.31647384
H       0.50038682     -0.29838431     -2.40046986
H       1.26749405     -1.83676341     -2.11416870
H      -0.22614763     -1.69867277     -3.89595447
11
Frame 270  Energy = -268.5540584605 Hartree
C       0.64868859     -0.85613073     -0.31148444
C       0.49371276     -1.17428926     -1.78919368
C      -0.82017699     -1.75642263     -2.08907577
O      -1.69290546     -1.91515669     -1.28987369
O      -0.99416569     -2.03560790     -3.42888807
H       1.61166557     -0.32019325     -0.26464272
H      -0.22052844     -0.26810430     -0.00174184
H       0.59267302     -1.77446809      0.32577354
H       0.48621664     -0.29623665     -2.40659111
H       1.27427982     -1.82878765     -2.12196786
H      -0.23111495     -1.69944752     -3.90872019
11
Frame 275  Energy = -268.5540053966 Hartree
C       0.64999229     -0.85777942     -0.30722657
C       0.49542996     -1.17531907     -1.78828321
C      -0.81857699     -1.76087824     -2.08843271
O      -1.69285509     -1.91402302     -1.29054959
O      -0.99419163     -2.03748184     -3.42905730
H       1.61682254     -0.32836916     -0.26515204
H      -0.22923216     -0.27643837      0.00288725
H       0.58099314     -1.76719425      0.33343946
H       0.47333764     -0.29223018     -2.41323492
H       1.28220028     -1.82151367     -2.13087472
H      -0.23609337     -1.70044473     -3.92183289
11
Frame 280  Energy = -268.5539204066 Hartree
C       0.65119142     -0.85947025     -0.30301120
C       0.49725738     -1.17634096     -1.78722510
C      -0.81715315     -1.76538023     -2.08789024
O      -1.69285547     -1.91297303     -1.29120432
O      -0.99421074     -2.03931403     -3.42912591
H       1.62059641     -0.33693280     -0.26347153
H      -0.23612773     -0.28400805      0.00770751
H       0.57033617     -1.75882079      0.33964089
H       0.46160407     -0.28702666     -2.41951460
H       1.29114901     -1.81506991     -2.14104646
H      -0.24120015     -1.70216083     -3.93449387
11
Frame 285  Energy = -268.5540129597 Hartree
C       0.65228633     -0.86116415     -0.29882572
C       0.49912272     -1.17730815     -1.78609414
C      -0.81591494     -1.76989464     -2.08739194
O      -1.69288803     -1.91198021     -1.29192011
O      -0.99424803     -2.04120340     -3.42915500
H       1.62302126     -0.34533386     -0.25984775
H      -0.24124354     -0.29084442      0.01231247
H       0.56092071     -1.74962906      0.34450449
H       0.45128903     -0.28121414     -2.42534421
H       1.30089813     -1.80917524     -2.15231452
H      -0.24648261     -1.70454870     -3.94643520
11
Frame 290  Energy = -268.5538248049 Hartree
C       0.65328986     -0.86275836     -0.29465187
C       0.50106008     -1.17821337     -1.78493384
C      -0.81485611     -1.77443697     -2.08704723
O      -1.69295223     -1.91102354     -1.29273509
O      -0.99433558     -2.04310642     -3.42906235
H       1.62410351     -0.35383684     -0.25407060
H      -0.24458588     -0.29671015      0.01707154
H       0.55315810     -1.74039331      0.34772430
H       0.44252020     -0.27512133     -2.42996791
H       1.31106836     -1.80338743     -2.16398043
H      -0.25249718     -1.70793377     -3.95730374
11
Frame 295  Energy = -268.5539073787 Hartree
C       0.65418028     -0.86420963     -0.29065557
C       0.50306874     -1.17906001     -1.78389660
C      -0.81378565     -1.77898517     -2.08691449
O      -1.69303343     -1.91010294     -1.29360803
O      -0.99448546     -2.04508423     -3.42887067
H       1.62387171     -0.36222349     -0.24626840
H      -0.24633620     -0.30157877      0.02121513
H       0.54675531     -1.73154925      0.35013797
H       0.43502267     -0.26912077     -2.43264499
H       1.32154710     -1.79694403     -2.17553504
H      -0.25937763     -1.71208197     -3.96720999
11
Frame 300  Energy = -268.5540746227 Hartree
C       0.65497609     -0.86551308     -0.28694249
C       0.50514709     -1.17980159     -1.78293227
C      -0.81274317     -1.78340910     -2.08703781
O      -1.69319202     -1.90926389     -1.29449170
O      -0.99469888     -2.04717337     -3.42861635
H       1.62294034     -0.37015118     -0.23649552
H      -0.24585592     -0.30545196      0.02531457
H       0.54201846     -1.72382198      0.35206216
H       0.42894828     -0.26352166     -2.43360184
H       1.33149012     -1.79005817     -2.18697567
H      -0.26720580     -1.71695507     -3.97579244
