11
Frame 5  Energy = -268.5635653055 Hartree
C       0.69020569     -0.60402197     -0.44673617
C       0.46549174     -0.88709807     -1.93642169
C      -0.85678194     -1.54548064     -2.13763326
O      -1.64180728     -1.88059469     -1.29558348
O      -1.15189432     -1.84742622     -3.41998735
H       1.73806996     -0.34111666     -0.29102778
H      -0.02411955      0.05944623     -0.01032468
H       0.42178776     -1.48960634      0.19053464
H       0.55170235      0.02333167     -2.51457706
H       1.13872671     -1.59900322     -2.41628239
H      -0.44461935     -1.60027057     -4.02889045
11
Frame 10  Energy = -268.5637744359 Hartree
C       0.68818654     -0.60556990     -0.45018880
C       0.46668179     -0.88821848     -1.93656985
C      -0.85773003     -1.54168720     -2.13358378
O      -1.64280943     -1.88241807     -1.29730820
O      -1.14995315     -1.84829849     -3.41928243
H       1.73964484     -0.34127513     -0.29104266
H      -0.02453712      0.05537069     -0.00129069
H       0.42586666     -1.48798707      0.19512326
H       0.55324987      0.02548917     -2.52473475
H       1.14068965     -1.61156635     -2.40783425
H      -0.43276071     -1.60028097     -4.02097839
11
Frame 15  Energy = -268.5638355158 Hartree
C       0.68628175     -0.60746333     -0.45348853
C       0.46778937     -0.88942573     -1.93652726
C      -0.85879765     -1.53804488     -2.12968840
O      -1.64378153     -1.88415603     -1.29903338
O      -1.14797147     -1.84920119     -3.41870678
H       1.74034692     -0.34104606     -0.29041991
H      -0.02514688      0.05407608      0.00655393
H       0.43167993     -1.48576742      0.19762753
H       0.55473748      0.02733928     -2.53486725
H       1.14388645     -1.62365139     -2.39801283
H      -0.42135591     -1.60032217     -4.01245277
11
Frame 20  Energy = -268.5639288483 Hartree
C       0.68446397     -0.60982660     -0.45649655
C       0.46886156     -0.89061051     -1.93646722
C      -0.85987737     -1.53440699     -2.12587894
O      -1.64482049     -1.88591144     -1.30060939
O      -1.14601047     -1.85011398     -3.41827004
H       1.73973978     -0.34046093     -0.28927947
H      -0.02609018      0.05512136      0.01321501
H       0.43931131     -1.48297249      0.19765239
H       0.55617763      0.02885481     -2.54471295
H       1.14802949     -1.63458592     -2.38708923
H      -0.41050356     -1.60013023     -4.00338516
11
Frame 25  Energy = -268.5638944043 Hartree
C       0.68273157     -0.61252897     -0.45921272
C       0.46989180     -0.89171274     -1.93640043
C      -0.86107714     -1.53088075     -2.12226695
O      -1.64589037     -1.88767403     -1.30196954
O      -1.14406218     -1.85101226     -3.41791234
H       1.73755779     -0.33951574     -0.28766506
H      -0.02707017      0.05844777      0.01842772
H       0.44831894     -1.47957735      0.19519904
H       0.55734920      0.02963820     -2.55420143
H       1.15256895     -1.64458260     -2.37511916
H      -0.40073324     -1.60003496     -3.99394513
11
Frame 30  Energy = -268.5640045587 Hartree
C       0.68116017     -0.61547468     -0.46158790
C       0.47089024     -0.89267490     -1.93624262
C      -0.86238354     -1.52752101     -2.11893635
O      -1.64698070     -1.88950843     -1.30315197
O      -1.14205474     -1.85189764     -3.41762074
H       1.73419257     -0.33788457     -0.28609023
H      -0.02775199      0.06374432      0.02218307
H       0.45859012     -1.47617613      0.19033218
H       0.55839806      0.02939966     -2.56295634
H       1.15755574     -1.65336149     -2.36208196
H      -0.39181814     -1.60025865     -3.98410318
11
Frame 35  Energy = -268.5639675868 Hartree
C       0.67985647     -0.61864389     -0.46366362
C       0.47184307     -0.89359262     -1.93603183
C      -0.86380728     -1.52436826     -2.11592620
O      -1.64804380     -1.89134603     -1.30410809
O      -1.14004913     -1.85275069     -3.41742258
H       1.72972285     -0.33547086     -0.28412313
H      -0.02761177      0.07039592      0.02437453
H       0.47018328     -1.47344334      0.18344975
H       0.55913245      0.02770066     -2.57055415
H       1.16289649     -1.66078884     -2.34817201
H      -0.38351810     -1.60090926     -3.97379812
11
Frame 40  Energy = -268.5642158686 Hartree
C       0.67869723     -0.62184521     -0.46543453
C       0.47273327     -0.89450808     -1.93583374
C      -0.86525040     -1.52149207     -2.11336217
O      -1.64920264     -1.89308248     -1.30482255
O      -1.13803624     -1.85358241     -3.41735966
H       1.72404427     -0.33263289     -0.28165993
H      -0.02642316      0.07793038      0.02450097
H       0.48259621     -1.47166816      0.17504850
H       0.55969009      0.02439582     -2.57684000
H       1.16807512     -1.66651419     -2.33343074
H      -0.37586180     -1.60164301     -3.96316933
11
Frame 45  Energy = -268.5641089074 Hartree
C       0.67757782     -0.62494012     -0.46689654
C       0.47358092     -0.89524818     -1.93551228
C      -0.86673891     -1.51889143     -2.11116628
O      -1.65033437     -1.89472787     -1.30532547
O      -1.13595856     -1.85436568     -3.41732494
H       1.71705997     -0.32910079     -0.27917360
H      -0.02380482      0.08602593      0.02243521
H       0.49529727     -1.47147477      0.16556027
H       0.56016244      0.01909794     -2.58153066
H       1.17322161     -1.67060473     -2.31797488
H      -0.36887457     -1.60236767     -3.95228749
11
Frame 50  Energy = -268.5641254437 Hartree
C       0.67647764     -0.62794126     -0.46814653
C       0.47441244     -0.89582714     -1.93504177
C      -0.86840522     -1.51658863     -2.10933970
O      -1.65153144     -1.89633030     -1.30572384
O      -1.13382441     -1.85508855     -3.41725595
H       1.70934197     -0.32521245     -0.27669448
H      -0.01969470      0.09426955      0.01825271
H       0.50829114     -1.47340447      0.15554640
H       0.56117809      0.01196052     -2.58467507
H       1.17791218     -1.67320733     -2.30192657
H      -0.36260704     -1.60294270     -3.94143946
11
Frame 55  Energy = -268.5639715157 Hartree
C       0.67555531     -0.63063525     -0.46927122
C       0.47522779     -0.89643172     -1.93448793
C      -0.87025190     -1.51450837     -2.10795908
O      -1.65286173     -1.89780606     -1.30606793
O      -1.13171438     -1.85566792     -3.41712296
H       1.70118744     -0.32099676     -0.27448470
H      -0.01451579      0.10246204      0.01215900
H       0.52135533     -1.47830484      0.14550048
H       0.56288931      0.00291340     -2.58651548
H       1.18205637     -1.67433652     -2.28515346
H      -0.35685368     -1.60343282     -3.93097191
11
Frame 60  Energy = -268.5638781489 Hartree
C       0.67476482     -0.63297271     -0.47023796
C       0.47611850     -0.89703259     -1.93394939
C      -0.87218172     -1.51270330     -2.10695147
O      -1.65418330     -1.89923487     -1.30628434
O      -1.12952063     -1.85619550     -3.41689931
H       1.69315891     -0.31641118     -0.27211395
H      -0.00835244      0.10998174      0.00380879
H       0.53406645     -1.48600090      0.13574418
H       0.56476082     -0.00772568     -2.58707973
H       1.18593684     -1.67429708     -2.26808429
H      -0.35105664     -1.60373900     -3.92140076
11
Frame 65  Energy = -268.5638816359 Hartree
C       0.67401811     -0.63493120     -0.47109501
C       0.47692901     -0.89753465     -1.93337700
C      -0.87417597     -1.51109883     -2.10634678
O      -1.65556110     -1.90062669     -1.30625873
O      -1.12733467     -1.85666637     -3.41660152
H       1.68596287     -0.31117796     -0.26961098
H      -0.00103515      0.11685822     -0.00684993
H       0.54623562     -1.49660516      0.12669924
H       0.56684928     -0.01955374     -2.58628405
H       1.18973025     -1.67328401     -2.25092563
H      -0.34515997     -1.60380171     -3.91289952
11
Frame 70  Energy = -268.5639301006 Hartree
C       0.67331007     -0.63645978     -0.47175236
C       0.47764240     -0.89799295     -1.93261165
C      -0.87616704     -1.50985732     -2.10622381
O      -1.65698270     -1.90198622     -1.30607314
O      -1.12512569     -1.85712938     -3.41633554
H       1.67935360     -0.30505777     -0.26711661
H       0.00715576      0.12305690     -0.01969305
H       0.55750555     -1.50976801      0.11875220
H       0.56945292     -0.03158304     -2.58455874
H       1.19326450     -1.67109525     -2.23392947
H      -0.33874573     -1.60377792     -3.90572996
11
Frame 75  Energy = -268.5638893363 Hartree
C       0.67271871     -0.63755418     -0.47215592
C       0.47822185     -0.89853600     -1.93171554
C      -0.87817862     -1.50899459     -2.10650959
O      -1.65841556     -1.90323087     -1.30571162
O      -1.12295979     -1.85758106     -3.41604109
H       1.67365055     -0.29827053     -0.26463565
H       0.01575637      0.12834436     -0.03416977
H       0.56821975     -1.52514196      0.11182953
H       0.57259209     -0.04348035     -2.58246493
H       1.19698351     -1.66826789     -2.21756763
H      -0.33216308     -1.60369483     -3.90003890
11
Frame 80  Energy = -268.5638812524 Hartree
C       0.67229648     -0.63824498     -0.47231071
C       0.47876343     -0.89915247     -1.93063646
C      -0.88017040     -1.50857423     -2.10719555
O      -1.65989053     -1.90446600     -1.30512392
O      -1.12076368     -1.85800877     -3.41577201
H       1.66932099     -0.29102951     -0.26229103
H       0.02449658      0.13298940     -0.04989134
H       0.57823443     -1.54167215      0.10507538
H       0.57650062     -0.05464505     -2.58081860
H       1.20053685     -1.66513921     -2.20173966
H      -0.32571454     -1.60371072     -3.89603278
11
Frame 85  Energy = -268.5639609335 Hartree
C       0.67199009     -0.63877640     -0.47220583
C       0.47920620     -0.89983144     -1.92930270
C      -0.88211290     -1.50845488     -2.10821697
O      -1.66140600     -1.90566427     -1.30435438
O      -1.11848797     -1.85842829     -3.41547616
H       1.66616717     -0.28324554     -0.26010224
H       0.03290080      0.13692432     -0.06589650
H       0.58752869     -1.55857855      0.09860520
H       0.58085702     -0.06461323     -2.57990400
H       1.20391729     -1.66220756     -2.18715821
H      -0.31950596     -1.60395575     -3.89380591
11
Frame 90  Energy = -268.5642359660 Hartree
C       0.67182856     -0.63929253     -0.47184231
C       0.47963882     -0.90071158     -1.92769429
C      -0.88408582     -1.50868767     -2.10951458
O      -1.66298622     -1.90674691     -1.30345069
O      -1.11613703     -1.85872854     -3.41514543
H       1.66448805     -0.27502015     -0.25796644
H       0.04001207      0.14011415     -0.08166602
H       0.59582457     -1.57506140      0.09231294
H       0.58585662     -0.07243560     -2.57998159
H       1.20749395     -1.65983130     -2.17402871
H      -0.31403037     -1.60445830     -3.89266843
11
Frame 95  Energy = -268.5641767889 Hartree
C       0.67179832     -0.63974781     -0.47130818
C       0.48001912     -0.90185967     -1.92584484
C      -0.88619871     -1.50934954     -2.11107663
O      -1.66457532     -1.90771445     -1.30234170
O      -1.11377892     -1.85891139     -3.41476801
H       1.66442711     -0.26686183     -0.25642645
H       0.04566882      0.14322288     -0.09695317
H       0.60295518     -1.59055066      0.08601082
H       0.59178842     -0.07772886     -2.58121548
H       1.21129414     -1.65796985     -2.16250299
H      -0.30942730     -1.60504042     -3.89234060
11
Frame 100  Energy = -268.5642154727 Hartree
C       0.67202291     -0.64019375     -0.47052147
C       0.48024649     -0.90313526     -1.92365383
C      -0.88828140     -1.51035239     -2.11305029
O      -1.66608713     -1.90863958     -1.30117607
O      -1.11142330     -1.85901442     -3.41444419
H       1.66558481     -0.25877765     -0.25503047
H       0.04959921      0.14630953     -0.11156184
H       0.60888005     -1.60439200      0.07948340
H       0.59835555     -0.08032301     -2.58409896
H       1.21574718     -1.65705892     -2.15255724
H      -0.30574165     -1.60576061     -3.89275630
11
Frame 105  Energy = -268.5641853185 Hartree
C       0.67252099     -0.64062267     -0.46958170
C       0.48025861     -0.90453535     -1.92114611
C      -0.89040614     -1.51180879     -2.11524651
O      -1.66761208     -1.90952021     -1.29992017
O      -1.10908120     -1.85897315     -3.41412468
H       1.66742583     -0.25072399     -0.25413790
H       0.05124413      0.14933515     -0.12478126
H       0.61339873     -1.61580226      0.07295050
H       0.60575971     -0.08064526     -2.58798686
H       1.22053817     -1.65733816     -2.14424071
H      -0.30284504     -1.60672999     -3.89388398
11
Frame 110  Energy = -268.5639863452 Hartree
C       0.67318801     -0.64108712     -0.46841998
C       0.48007906     -0.90599698     -1.91844324
C      -0.89252541     -1.51369644     -2.11764677
O      -1.66925246     -1.91039668     -1.29858515
O      -1.10673716     -1.85881249     -3.41395840
H       1.66969796     -0.24312435     -0.25385984
H       0.05008274      0.15272317     -0.13670700
H       0.61689700     -1.62426221      0.06604437
H       0.61355283     -0.07925089     -2.59265868
H       1.22581014     -1.65886403     -2.13746016
H      -0.30075804     -1.60769829     -3.89554748
11
Frame 115  Energy = -268.5638888239 Hartree
C       0.67418179     -0.64167006     -0.46698818
C       0.47981855     -0.90749270     -1.91556143
C      -0.89448050     -1.51597520     -2.12021132
O      -1.67101752     -1.91119305     -1.29727427
O      -1.10434871     -1.85861725     -3.41398050
H       1.67245811     -0.23623326     -0.25445674
H       0.04600674      0.15635024     -0.14691933
H       0.61957065     -1.62987954      0.05882288
H       0.62159746     -0.07680110     -2.59748962
H       1.23166915     -1.66121529     -2.13250226
H      -0.29964656     -1.60877195     -3.89751306
11
Frame 120  Energy = -268.5638296575 Hartree
C       0.67563291     -0.64235851     -0.46530834
C       0.47951359     -0.90908122     -1.91270431
C      -0.89637244     -1.51854929     -2.12299870
O      -1.67279488     -1.91189698     -1.29596012
O      -1.10193049     -1.85840182     -3.41413738
H       1.67499868     -0.23007827     -0.25574102
H       0.03953067      0.15980094     -0.15508076
H       0.62136706     -1.63257159      0.05150885
H       0.62991735     -0.07357570     -2.60194400
H       1.23748922     -1.66405283     -2.12948640
H      -0.29996642     -1.61021679     -3.89931939
11
Frame 125  Energy = -268.5638811249 Hartree
C       0.67752190     -0.64315340     -0.46336955
C       0.47925441     -0.91076317     -1.90974628
C      -0.89820485     -1.52149919     -2.12586591
O      -1.67444159     -1.91255063     -1.29455977
O      -1.09957070     -1.85814906     -3.41440820
H       1.67768914     -0.22504473     -0.25759080
H       0.03091698      0.16284380     -0.16107593
H       0.62225873     -1.63204259      0.04433200
H       0.63812091     -0.07042540     -2.60533368
H       1.24255890     -1.66749336     -2.12838955
H      -0.30109006     -1.61158546     -3.90125179
11
Frame 130  Energy = -268.5639049210 Hartree
C       0.67970838     -0.64384270     -0.46122408
C       0.47908424     -0.91251698     -1.90678973
C      -0.89988052     -1.52479658     -2.12873517
O      -1.67598673     -1.91307770     -1.29316070
O      -1.09731317     -1.85784802     -3.41476117
H       1.67977473     -0.22078878     -0.26006420
H       0.02055152      0.16508386     -0.16503381
H       0.62212476     -1.62870427      0.03749684
H       0.64619889     -0.06743878     -2.60760094
H       1.24650284     -1.67126847     -2.12884969
H      -0.30277123     -1.61262501     -3.90387995
11
Frame 135  Energy = -268.5640179423 Hartree
C       0.68213629     -0.64425798     -0.45901822
C       0.47901683     -0.91430409     -1.90393396
C      -0.90134765     -1.52836962     -2.13156172
O      -1.67742375     -1.91351188     -1.29174891
O      -1.09521691     -1.85757752     -3.41514541
H       1.68098110     -0.21732999     -0.26339382
H       0.00901284      0.16641135     -0.16736759
H       0.62068923     -1.62311727      0.03154408
H       0.65373750     -0.06490376     -2.60878124
H       1.24954278     -1.67510116     -2.13085496
H      -0.30467209     -1.61337162     -3.90703629
11
Frame 140  Energy = -268.5639627210 Hartree
C       0.68483812     -0.64439641     -0.45670529
C       0.47914923     -0.91625436     -1.90116199
C      -0.90263773     -1.53219435     -2.13422221
O      -1.67878586     -1.91384867     -1.29042515
O      -1.09318989     -1.85734056     -3.41564178
H       1.68170028     -0.21487298     -0.26734406
H      -0.00314703      0.16602702     -0.16818431
H       0.61805375     -1.61596257      0.02701586
H       0.66074247     -0.06356196     -2.60826616
H       1.25162442     -1.67844308     -2.13451721
H      -0.30659927     -1.61391011     -3.91051917
11
Frame 145  Energy = -268.5639098105 Hartree
C       0.68771040     -0.64419962     -0.45421438
C       0.47943652     -0.91832535     -1.89855835
C      -0.90379862     -1.53625804     -2.13667366
O      -1.67999503     -1.91405565     -1.28915130
O      -1.09134442     -1.85717999     -3.41626411
H       1.68241077     -0.21356065     -0.27169022
H      -0.01549513      0.16341543     -0.16770512
H       0.61421618     -1.60751490      0.02390032
H       0.66673793     -0.06377860     -2.60593584
H       1.25218011     -1.68123119     -2.13967196
H      -0.30830400     -1.61413512     -3.91457415
11
Frame 150  Energy = -268.5640812235 Hartree
C       0.69064598     -0.64346881     -0.45166597
C       0.47992212     -0.92052747     -1.89619162
C      -0.90480283     -1.54052068     -2.13892343
O      -1.68100041     -1.91418069     -1.28801425
O      -1.08965167     -1.85711423     -3.41704508
H       1.68302811     -0.21308941     -0.27623585
H      -0.02744654      0.15890248     -0.16620438
H       0.60963870     -1.59842174      0.02281330
H       0.67188257     -0.06537624     -2.60169421
H       1.25115408     -1.68354242     -2.14586606
H      -0.30983988     -1.61400635     -3.91915909
11
Frame 155  Energy = -268.5640456775 Hartree
C       0.69364514     -0.64235691     -0.44914601
C       0.48048744     -0.92283145     -1.89405453
C      -0.90560615     -1.54491964     -2.14096444
O      -1.68189337     -1.91423041     -1.28707258
O      -1.08818626     -1.85707423     -3.41800832
H       1.68340802     -0.21312746     -0.28086403
H      -0.03878732      0.15219125     -0.16362352
H       0.60420709     -1.58934549      0.02387477
H       0.67610679     -0.06830364     -2.59550954
H       1.24864938     -1.68570203     -2.15313100
H      -0.31090374     -1.61361868     -3.92393179
11
Frame 160  Energy = -268.5642133439 Hartree
C       0.69667066     -0.64081901     -0.44672047
C       0.48114045     -0.92516156     -1.89216870
C      -0.90623401     -1.54944189     -2.14284940
O      -1.68267870     -1.91407028     -1.28640362
O      -1.08688218     -1.85704388     -3.41917276
H       1.68391173     -0.21365824     -0.28528504
H      -0.04892394      0.14311300     -0.15998034
H       0.59833885     -1.58123246      0.02745760
H       0.67954331     -0.07259677     -2.58733719
H       1.24472079     -1.68729110     -2.16156443
H      -0.31144142     -1.61303410     -3.92910825
11
Frame 165  Energy = -268.5643173524 Hartree
C       0.69954412     -0.63876543     -0.44441178
C       0.48190955     -0.92759522     -1.89057034
C      -0.90677101     -1.55405019     -2.14434236
O      -1.68338078     -1.91372852     -1.28590019
O      -1.08569571     -1.85708071     -3.42051958
H       1.68454570     -0.21469974     -0.28936357
H      -0.05795723      0.13177003     -0.15521827
H       0.59221114     -1.57430229      0.03325148
H       0.68179914     -0.07829047     -2.57728050
H       1.23908139     -1.68826879     -2.17058001
H      -0.31156389     -1.61233012     -3.93463067
11
Frame 170  Energy = -268.5643966361 Hartree
C       0.70224209     -0.63624498     -0.44219416
C       0.48272085     -0.93011210     -1.88908772
C      -0.90709681     -1.55873782     -2.14554260
O      -1.68405764     -1.91323835     -1.28544333
O      -1.08464047     -1.85719688     -3.42203896
H       1.68564114     -0.21629460     -0.29324617
H      -0.06568675      0.11835032     -0.14944925
H       0.58558230     -1.56936904      0.04175289
H       0.68274626     -0.08459729     -2.56616492
H       1.23209565     -1.68874576     -2.17999270
H      -0.31144882     -1.61156292     -3.94043159
11
Frame 175  Energy = -268.5641674459 Hartree
C       0.70472729     -0.63340260     -0.44008494
C       0.48365986     -0.93272762     -1.88779541
C      -0.90718827     -1.56350404     -2.14639285
O      -1.68467546     -1.91267585     -1.28512652
O      -1.08384313     -1.85744081     -3.42373358
H       1.68720549     -0.21785079     -0.29678610
H      -0.07214010      0.10318408     -0.14307847
H       0.57867699     -1.56551259      0.05313469
H       0.68251486     -0.09092645     -2.55466072
H       1.22433414     -1.68895152     -2.19022133
H      -0.31113458     -1.61045854     -3.94612704
11
Frame 180  Energy = -268.5641683905 Hartree
C       0.70708877     -0.63027102     -0.43812792
C       0.48454182     -0.93551677     -1.88655286
C      -0.90701031     -1.56842888     -2.14696482
O      -1.68518829     -1.91210560     -1.28500317
O      -1.08326903     -1.85773263     -3.42561443
H       1.68938848     -0.21909032     -0.29997933
H      -0.07726534      0.08660154     -0.13604098
H       0.57174825     -1.56228334      0.06683771
H       0.68130627     -0.09673129     -2.54274155
H       1.21625679     -1.68916232     -2.20067571
H      -0.31041058     -1.60917514     -3.95189538
11
Frame 185  Energy = -268.5639382828 Hartree
C       0.70924748     -0.62700932     -0.43628506
C       0.48534942     -0.93850507     -1.88538813
C      -0.90665073     -1.57336654     -2.14714610
O      -1.68560733     -1.91150527     -1.28508616
O      -1.08283868     -1.85815567     -3.42769520
H       1.69235764     -0.22009521     -0.30252218
H      -0.08120298      0.06914109     -0.12847727
H       0.56490581     -1.55940229      0.08256614
H       0.67955613     -0.10160257     -2.53096145
H       1.20769163     -1.68951162     -2.21115817
H      -0.30991967     -1.60784323     -3.95720778
11
Frame 190  Energy = -268.5640883258 Hartree
C       0.71124334     -0.62365086     -0.43449914
C       0.48596649     -0.94166381     -1.88426482
C      -0.90608910     -1.57829070     -2.14705730
O      -1.68604221     -1.91078849     -1.28534041
O      -1.08261817     -1.85863821     -3.43002213
H       1.69624631     -0.22075897     -0.30412851
H      -0.08391731      0.05159103     -0.12039156
H       0.55831971     -1.55636426      0.09952355
H       0.67714139     -0.10503098     -2.51986434
H       1.19925840     -1.69027940     -2.22161482
H      -0.31012466     -1.60689848     -3.96178059
11
Frame 195  Energy = -268.5639923237 Hartree
C       0.71311562     -0.62031017     -0.43266939
C       0.48636444     -0.94499202     -1.88302741
C      -0.90520741     -1.58313811     -2.14666626
O      -1.68651468     -1.90995107     -1.28575576
O      -1.08256956     -1.85908162     -3.43252187
H       1.70115026     -0.22091763     -0.30454702
H      -0.08576181      0.03486671     -0.11176935
H       0.55229628     -1.55322462      0.11741923
H       0.67394907     -0.10686675     -2.50992283
H       1.19153004     -1.69125148     -2.23182338
H      -0.31101724     -1.60565479     -3.96551014
11
Frame 200  Energy = -268.5641009844 Hartree
C       0.71488523     -0.61709278     -0.43077948
C       0.48651420     -0.94850580     -1.88177315
C      -0.90389080     -1.58788854     -2.14598439
O      -1.68696452     -1.90908486     -1.28628836
O      -1.08262627     -1.85950406     -3.43514275
H       1.70673096     -0.22037359     -0.30411305
H      -0.08729409      0.01953955     -0.10272383
H       0.54735919     -1.54944715      0.13580529
H       0.66994307     -0.10674030     -2.50128962
H       1.18437600     -1.69284547     -2.24232132
H      -0.31260193     -1.60453237     -3.96834739
11
Frame 205  Energy = -268.5640892894 Hartree
C       0.71649783     -0.61416789     -0.42887133
C       0.48650194     -0.95217921     -1.88046809
C      -0.90223869     -1.59253236     -2.14510564
O      -1.68732498     -1.90823655     -1.28692309
O      -1.08278075     -1.85999593     -3.43788081
H       1.71240220     -0.21944576     -0.30321204
H      -0.08866448      0.00575886     -0.09297126
H       0.54389313     -1.54442684      0.15441675
H       0.66541952     -0.10463819     -2.49437319
H       1.17795445     -1.69530596     -2.25278711
H      -0.31468396     -1.60328989     -3.97059775
11
Frame 210  Energy = -268.5640966441 Hartree
C       0.71792926     -0.61162520     -0.42697311
C       0.48623696     -0.95596128     -1.87914250
C      -0.90036929     -1.59705886     -2.14400423
O      -1.68762583     -1.90739488     -1.28762333
O      -1.08315431     -1.86055880     -3.44069744
H       1.71806084     -0.21815923     -0.30149476
H      -0.09039060     -0.00644032     -0.08251848
H       0.54220398     -1.53796735      0.17261468
H       0.66027737     -0.10046102     -2.48928278
H       1.17207103     -1.69836922     -2.26275917
H      -0.31709876     -1.60181166     -3.97170351
11
Frame 215  Energy = -268.5641487975 Hartree
C       0.71924947     -0.60955829     -0.42504096
C       0.48572896     -0.95987958     -1.87767299
C      -0.89822190     -1.60145634     -2.14274712
O      -1.68791289     -1.90646591     -1.28845546
O      -1.08373637     -1.86133020     -3.44362509
H       1.72334886     -0.21666292     -0.29878069
H      -0.09250753     -0.01601360     -0.07150048
H       0.54195320     -1.52973028      0.18964151
H       0.65431978     -0.09407975     -2.48569668
H       1.16698042     -1.70230992     -2.27255850
H      -0.31936304     -1.60015097     -3.97201099
11
Frame 220  Energy = -268.5643303612 Hartree
C       0.72053130     -0.60792897     -0.42308897
C       0.48499784     -0.96398322     -1.87616966
C      -0.89573525     -1.60571716     -2.14133703
O      -1.68817568     -1.90555513     -1.28939581
O      -1.08439695     -1.86225805     -3.44660541
H       1.72802612     -0.21478956     -0.29479210
H      -0.09489620     -0.02260055     -0.06030507
H       0.54327258     -1.52012924      0.20535129
H       0.64756479     -0.08629747     -2.48324331
H       1.16300132     -1.70681596     -2.28164722
H      -0.32130965     -1.59825037     -3.97184262
11
Frame 225  Energy = -268.5644899764 Hartree
C       0.72173941     -0.60673174     -0.42110223
C       0.48406127     -0.96823117     -1.87457536
C      -0.89297236     -1.60977302     -2.13989611
O      -1.68834545     -1.90457605     -1.29044951
O      -1.08515842     -1.86322250     -3.44959381
H       1.73189181     -0.21283131     -0.28999778
H      -0.09752759     -0.02662712     -0.04899092
H       0.54638364     -1.50934143      0.21932947
H       0.63987417     -0.07792536     -2.48178314
H       1.16011879     -1.71139330     -2.29010210
H      -0.32286580     -1.59610690     -3.97128135
11
Frame 230  Energy = -268.5644907173 Hartree
C       0.72289814     -0.60588548     -0.41891815
C       0.48302583     -0.97248041     -1.87301699
C      -0.89002007     -1.61354376     -2.13840469
O      -1.68848179     -1.90352973     -1.29151828
O      -1.08603587     -1.86422120     -3.45257309
H       1.73477596     -0.21086753     -0.28436448
H      -0.10038665     -0.02797066     -0.03807108
H       0.55124810     -1.49736128      0.23185490
H       0.63140553     -0.06971191     -2.48108596
H       1.15842589     -1.71595672     -2.29777328
H      -0.32389921     -1.59349226     -3.97073940
11
Frame 235  Energy = -268.5645325218 Hartree
C       0.72401000     -0.60542326     -0.41659574
C       0.48190578     -0.97671940     -1.87139448
C      -0.88684053     -1.61707375     -2.13691641
O      -1.68849500     -1.90247154     -1.29269518
O      -1.08707549     -1.86530995     -3.45559312
H       1.73653490     -0.20824082     -0.27819193
H      -0.10285974     -0.02662930     -0.02757668
H       0.55791661     -1.48454203      0.24359483
H       0.62268145     -0.06230930     -2.48082848
H       1.15797962     -1.72068466     -2.30443319
H      -0.32443205     -1.59039446     -3.97027041
11
Frame 240  Energy = -268.5643202922 Hartree
C       0.72506391     -0.60534485     -0.41418872
C       0.48069390     -0.98089237     -1.86972099
C      -0.88353956     -1.62040772     -2.13539342
O      -1.68845294     -1.90137285     -1.29389076
O      -1.08823299     -1.86648601     -3.45857556
H       1.73707198     -0.20528753     -0.27160721
H      -0.10435569     -0.02307200     -0.01765530
H       0.56617547     -1.47146918      0.25425975
H       0.61323520     -0.05615830     -2.48048530
H       1.15889210     -1.72476262     -2.31053454
H      -0.32424662     -1.58706496     -3.96974884
11
Frame 245  Energy = -268.5640573466 Hartree
C       0.72607751     -0.60562065     -0.41167951
C       0.47957161     -0.98513672     -1.86818842
C      -0.88006480     -1.62362757     -2.13390222
O      -1.68838726     -1.90029750     -1.29505728
O      -1.08952983     -1.86771732     -3.46150595
H       1.73583899     -0.20190276     -0.26445588
H      -0.10467800     -0.01743579     -0.00873381
H       0.57610672     -1.45819345      0.26359754
H       0.60262402     -0.05166853     -2.47967798
H       1.16096464     -1.72855780     -2.31533054
H      -0.32380714     -1.58342478     -3.96908110
11
Frame 250  Energy = -268.5643771343 Hartree
C       0.72706160     -0.60626533     -0.40916478
C       0.47840141     -0.98929314     -1.86677922
C      -0.87648508     -1.62672226     -2.13239730
O      -1.68831316     -1.89919142     -1.29627848
O      -1.09097467     -1.86894721     -3.46435664
H       1.73319033     -0.19794439     -0.25715737
H      -0.10370419     -0.00998831     -0.00080842
H       0.58720603     -1.44543018      0.27180810
H       0.59125762     -0.04945094     -2.47795878
H       1.16357202     -1.73121935     -2.31848291
H      -0.32300262     -1.57941122     -3.96836052
11
Frame 255  Energy = -268.5643212544 Hartree
C       0.72797621     -0.60709594     -0.40652738
C       0.47716788     -0.99338974     -1.86545121
C      -0.87294484     -1.62974231     -2.13094187
O      -1.68828995     -1.89803378     -1.29758805
O      -1.09255240     -1.87014869     -3.46707459
H       1.72924855     -0.19357210     -0.24983804
H      -0.10082135     -0.00115771      0.00543360
H       0.59919869     -1.43412368      0.27904896
H       0.57939284     -0.04949061     -2.47582572
H       1.16673001     -1.73263316     -2.32048084
H      -0.32173846     -1.57512708     -3.96734165
11
Frame 260  Energy = -268.5644701975 Hartree
C       0.72870931     -0.60803759     -0.40372153
C       0.47594872     -0.99735271     -1.86423315
C      -0.86943824     -1.63273459     -2.12960767
O      -1.68823431     -1.89688012     -1.29908009
O      -1.09422538     -1.87134934     -3.46967381
H       1.72415290     -0.18877822     -0.24267956
H      -0.09639870      0.00875211      0.00979674
H       0.61245867     -1.42476596      0.28561179
H       0.56714043     -0.05148505     -2.47287006
H       1.17025971     -1.73289938     -2.32110260
H      -0.32049422     -1.57094160     -3.96591825
11
Frame 265  Energy = -268.5642454299 Hartree
C       0.72922965     -0.60900384     -0.40072530
C       0.47474032     -1.00116527     -1.86307734
C      -0.86588592     -1.63562301     -2.12832791
O      -1.68809332     -1.89572357     -1.30068177
O      -1.09591145     -1.87258963     -3.47219840
H       1.71833655     -0.18332209     -0.23568523
H      -0.09007266      0.01949724      0.01233113
H       0.62683483     -1.41802856      0.29194121
H       0.55466386     -0.05605407     -2.46932133
H       1.17417723     -1.73180176     -2.32033951
H      -0.31957934     -1.56681008     -3.96428311
11
Frame 270  Energy = -268.5644097818 Hartree
C       0.72959230     -0.60999726     -0.39769804
C       0.47358731     -1.00483755     -1.86193322
C      -0.86230691     -1.63833193     -2.12714393
O      -1.68796185     -1.89457199     -1.30228721
O      -1.09767945     -1.87379456     -3.47461798
H       1.71201548     -0.17746260     -0.22886213
H      -0.08214857      0.03079221      0.01273277
H       0.64180058     -1.41369655      0.29809324
H       0.54215150     -0.06280832     -2.46548367
H       1.17854782     -1.72928170     -2.31841387
H      -0.31922649     -1.56264314     -3.96240984
11
Frame 275  Energy = -268.5643829194 Hartree
C       0.72976995     -0.61095824     -0.39470701
C       0.47246623     -1.00840208     -1.86078914
C      -0.85881113     -1.64104860     -2.12616835
O      -1.68784585     -1.89349284     -1.30406309
O      -1.09946650     -1.87501775     -3.47695819
H       1.70538931     -0.17112314     -0.22267687
H      -0.07278892      0.04216992      0.01117521
H       0.65700537     -1.41177498      0.30416332
H       0.52979371     -0.07174881     -2.46109062
H       1.18346754     -1.72564253     -2.31513185
H      -0.31945137     -1.55857170     -3.96052496
11
Frame 280  Energy = -268.5640380525 Hartree
C       0.72964919     -0.61196139     -0.39164728
C       0.47133743     -1.01183327     -1.85978577
C      -0.85539615     -1.64376615     -2.12524878
O      -1.68780385     -1.89246510     -1.30590619
O      -1.10119700     -1.87634972     -3.47922820
H       1.69869696     -0.16418544     -0.21724897
H      -0.06209656      0.05362873      0.00803058
H       0.67232426     -1.41242585      0.31017501
H       0.51736482     -0.08224373     -2.45632070
H       1.18910612     -1.72088270     -2.31041175
H      -0.32033074     -1.55467852     -3.95847983
11
Frame 285  Energy = -268.5640305802 Hartree
C       0.72929967     -0.61296082     -0.38855206
C       0.47032494     -1.01513303     -1.85879869
C      -0.85215380     -1.64651964     -2.12443579
O      -1.68774451     -1.89153165     -1.30788343
O      -1.10286845     -1.87774800     -3.48133286
H       1.69234977     -0.15664722     -0.21280940
H      -0.05024190      0.06522599      0.00327776
H       0.68780175     -1.41585041      0.31642061
H       0.50489948     -0.09390679     -2.45154591
H       1.19500123     -1.71476743     -2.30440472
H      -0.32204027     -1.55094602     -3.95680985
11
Frame 290  Energy = -268.5637939158 Hartree
C       0.72877538     -0.61388672     -0.38543484
C       0.46949696     -1.01830860     -1.85776897
C      -0.84919353     -1.64938454     -2.12381255
O      -1.68762968     -1.89069197     -1.30992600
O      -1.10449465     -1.87919496     -3.48321304
H       1.68624026     -0.14862498     -0.20921626
H      -0.03767505      0.07680132     -0.00289537
H       0.70298171     -1.42169198      0.32291529
H       0.49232672     -0.10601420     -2.44701804
H       1.20113901     -1.70759975     -2.29731304
H      -0.32484217     -1.54778416     -3.95585549
11
Frame 295  Energy = -268.5636628385 Hartree
C       0.72804824     -0.61476222     -0.38240856
C       0.46880538     -1.02138980     -1.85657310
C      -0.84639217     -1.65228634     -2.12331805
O      -1.68747180     -1.88990735     -1.31205305
O      -1.10599921     -1.88069233     -3.48490211
H       1.68111882     -0.13987094     -0.20678932
H      -0.02491121      0.08838297     -0.01038659
H       0.71821745     -1.42975012      0.32907377
H       0.47998258     -0.11794486     -2.44288503
H       1.20804169     -1.69989996     -2.28965041
H      -0.32798843     -1.54508464     -3.95522999
11
Frame 300  Energy = -268.5636809660 Hartree
C       0.72721885     -0.61567119     -0.37941077
C       0.46820512     -1.02440399     -1.85519689
C      -0.84383937     -1.65515934     -2.12296765
O      -1.68734471     -1.88915047     -1.31416166
O      -1.10751882     -1.88220913     -3.48643390
H       1.67720475     -0.13063266     -0.20574161
H      -0.01228045      0.10014394     -0.01905397
H       0.73302689     -1.43885574      0.33457764
H       0.46828111     -0.12874479     -2.43952528
H       1.21603209     -1.69174238     -2.28156712
H      -0.33152747     -1.54266674     -3.95494594
