11
Frame 5  Energy = -268.5685837801 Hartree
C       0.71447782     -0.59635742     -0.39676635
C       0.42992011     -0.83176169     -1.92086906
C      -0.86958794     -1.55579993     -2.16199808
O      -1.59765877     -1.87617066     -1.27553587
O      -1.25374863     -1.82353295     -3.44564118
H       1.77083727     -0.28042126     -0.29522329
H       0.08226764      0.20577023     -0.03859512
H       0.60117058     -1.60103261      0.04131872
H       0.42065316      0.17769210     -2.39910565
H       1.22242601     -1.37677560     -2.47801946
H      -0.68157326     -1.50008223     -4.14220379
11
Frame 10  Energy = -268.5683439931 Hartree
C       0.71377038     -0.59585265     -0.39660438
C       0.43215612     -0.83353982     -1.91859529
C      -0.86719712     -1.55847414     -2.16191676
O      -1.59829849     -1.87404520     -1.27458601
O      -1.25507056     -1.82488995     -3.44947322
H       1.77211458     -0.29019121     -0.30333899
H       0.07648162      0.20825701     -0.02583480
H       0.59393327     -1.58996473      0.04807707
H       0.41672945      0.17513161     -2.39233956
H       1.22734905     -1.37123526     -2.48160489
H      -0.67991642     -1.49599148     -4.14033083
11
Frame 15  Energy = -268.5686740156 Hartree
C       0.71328260     -0.59551998     -0.39665837
C       0.43451087     -0.83503870     -1.91643496
C      -0.86476638     -1.56100230     -2.16188728
O      -1.59896661     -1.87199905     -1.27351517
O      -1.25658550     -1.82623605     -3.45320579
H       1.77216597     -0.29995420     -0.31156230
H       0.07054981      0.20961001     -0.01277178
H       0.58643201     -1.57720872      0.05593638
H       0.41235641      0.17097967     -2.38573355
H       1.23159041     -1.36511129     -2.48355154
H      -0.67705392     -1.49154716     -4.13824553
11
Frame 20  Energy = -268.5686068528 Hartree
C       0.71298160     -0.59534332     -0.39693037
C       0.43705150     -0.83624005     -1.91433596
C      -0.86230259     -1.56335035     -2.16196170
O      -1.59972560     -1.87008067     -1.27233471
O      -1.25820835     -1.82767204     -3.45687475
H       1.77112710     -0.30954447     -0.31959042
H       0.06502032      0.20931610      0.00005769
H       0.57888417     -1.56343470      0.06543905
H       0.40753273      0.16539489     -2.37946361
H       1.23511281     -1.35868932     -2.48345595
H      -0.67287894     -1.48655630     -4.13596439
11
Frame 25  Energy = -268.5689459207 Hartree
C       0.71277907     -0.59519532     -0.39746223
C       0.43974292     -0.83730909     -1.91223422
C      -0.85996702     -1.56555790     -2.16208844
O      -1.60051685     -1.86827502     -1.27113191
O      -1.25990410     -1.82906203     -3.46048343
H       1.76913529     -0.31909847     -0.32687463
H       0.06004444      0.20729263      0.01226301
H       0.57109583     -1.54913671      0.07649529
H       0.40224887      0.15889985     -2.37415785
H       1.23809637     -1.35213999     -2.48164952
H      -0.66724099     -1.48067657     -4.13346129
11
Frame 30  Energy = -268.5689700455 Hartree
C       0.71259321     -0.59498590     -0.39832344
C       0.44246091     -0.83828474     -1.91033049
C      -0.85780843     -1.56756909     -2.16230555
O      -1.60131064     -1.86655290     -1.26989506
O      -1.26161257     -1.83036437     -3.46395589
H       1.76654691     -0.32848411     -0.33341736
H       0.05611723      0.20334052      0.02342836
H       0.56319975     -1.53507949      0.08942030
H       0.39634938      0.15219433     -2.36956650
H       1.24093024     -1.34522424     -2.47864731
H      -0.66073317     -1.47435812     -4.13065379
11
Frame 35  Energy = -268.5687538354 Hartree
C       0.71235825     -0.59481020     -0.39942010
C       0.44512251     -0.83919084     -1.90849076
C      -0.85582877     -1.56948432     -2.16264774
O      -1.60208095     -1.86490437     -1.26866574
O      -1.26331774     -1.83165966     -3.46730353
H       1.76374670     -0.33746372     -0.33927516
H       0.05358375      0.19758807      0.03323958
H       0.55506875     -1.52131221      0.10401619
H       0.38959227      0.14528274     -2.36581319
H       1.24354281     -1.33794275     -2.47421644
H      -0.65336563     -1.46777941     -4.12708755
11
Frame 40  Energy = -268.5686303097 Hartree
C       0.71203804     -0.59459867     -0.40076374
C       0.44766575     -0.83994283     -1.90667467
C      -0.85403077     -1.57137381     -2.16300443
O      -1.60278925     -1.86327879     -1.26751985
O      -1.26496164     -1.83309366     -3.47052487
H       1.76100618     -0.34598252     -0.34429716
H       0.05242196      0.18988688      0.04192351
H       0.54676008     -1.50839610      0.11988717
H       0.38200308      0.13831994     -2.36276770
H       1.24634548     -1.33067543     -2.46858021
H      -0.64522198     -1.46088626     -4.12262645
11
Frame 45  Energy = -268.5684031379 Hartree
C       0.71163565     -0.59426962     -0.40233921
C       0.45010564     -0.84050359     -1.90491955
C      -0.85234802     -1.57316483     -2.16326375
O      -1.60345602     -1.86165276     -1.26654541
O      -1.26645937     -1.83452877     -3.47359496
H       1.75866715     -0.35357435     -0.34838362
H       0.05236921      0.18045412      0.04926347
H       0.53844472     -1.49672178      0.13686199
H       0.37376806      0.13182527     -2.36095766
H       1.24938167     -1.32362647     -2.46200297
H      -0.63658390     -1.45392889     -4.11687617
11
Frame 50  Energy = -268.5682866445 Hartree
C       0.71114550     -0.59399493     -0.40414855
C       0.45246805     -0.84102353     -1.90320139
C      -0.85093968     -1.57481134     -2.16348775
O      -1.60409346     -1.86005329     -1.26564296
O      -1.26779952     -1.83588965     -3.47646415
H       1.75670270     -0.36006703     -0.35140664
H       0.05400587      0.16970620      0.05519338
H       0.53028247     -1.48608423      0.15495570
H       0.36470010      0.12621844     -2.36040422
H       1.25322032     -1.31688527     -2.45464603
H      -0.62804151     -1.44714283     -4.10982669
11
Frame 55  Energy = -268.5682384726 Hartree
C       0.71052557     -0.59374243     -0.40610721
C       0.45454240     -0.84154596     -1.90148409
C      -0.84977238     -1.57639617     -2.16363438
O      -1.60448668     -1.85842976     -1.26490073
O      -1.26894692     -1.83722528     -3.47923200
H       1.75590191     -0.36511611     -0.35349432
H       0.05715797      0.15819765      0.05956160
H       0.52223937     -1.47655048      0.17369556
H       0.35477920      0.12199052     -2.36098465
H       1.25799818     -1.31081644     -2.44670092
H      -0.61998905     -1.44107850     -4.10151773
11
Frame 60  Energy = -268.5683364351 Hartree
C       0.70984081     -0.59358017     -0.40823994
C       0.45649057     -0.84199211     -1.89980351
C      -0.84866376     -1.57794086     -2.16376468
O      -1.60474959     -1.85681838     -1.26431415
O      -1.26982799     -1.83851818     -3.48175050
H       1.75647419     -0.36876771     -0.35425017
H       0.06123198      0.14665982      0.06239263
H       0.51438623     -1.46847544      0.19296614
H       0.34461658      0.11927439     -2.36274355
H       1.26420677     -1.30586817     -2.43841514
H      -0.61292857     -1.43540814     -4.09247935
11
Frame 65  Energy = -268.5683312398 Hartree
C       0.70914703     -0.59352518     -0.41046218
C       0.45828196     -0.84245006     -1.89821802
C      -0.84770920     -1.57944305     -2.16394321
O      -1.60490234     -1.85523432     -1.26381506
O      -1.27043534     -1.83970049     -3.48407126
H       1.75814165     -0.37124164     -0.35310524
H       0.06582859      0.13561409      0.06378451
H       0.50696934     -1.46147895      0.21176664
H       0.33426744      0.11807488     -2.36592370
H       1.27158859     -1.30179761     -2.43031345
H      -0.60699168     -1.43063315     -4.08273738
11
Frame 70  Energy = -268.5681377315 Hartree
C       0.70848990     -0.59372911     -0.41270443
C       0.45977936     -0.84296556     -1.89672870
C      -0.84693327     -1.58096476     -2.16406950
O      -1.60492265     -1.85367124     -1.26350676
O      -1.27080798     -1.84082939     -3.48625483
H       1.76055730     -0.37259580     -0.35076271
H       0.07062771      0.12580084      0.06392180
H       0.50024593     -1.45515244      0.22999858
H       0.32378893      0.11796144     -2.37018821
H       1.27989730     -1.29849614     -2.42195678
H      -0.60191380     -1.42718487     -4.07206805
11
Frame 75  Energy = -268.5679034792 Hartree
C       0.70784165     -0.59418569     -0.41491285
C       0.46097794     -0.84349162     -1.89528563
C      -0.84638888     -1.58255232     -2.16425101
O      -1.60489128     -1.85219756     -1.26339492
O      -1.27090788     -1.84194869     -3.48829811
H       1.76359225     -0.37282692     -0.34714202
H       0.07552139      0.11776707      0.06304569
H       0.49426612     -1.44948321      0.24712839
H       0.31345165      0.11874213     -2.37499416
H       1.28931582     -1.29648817     -2.41367972
H      -0.59775397     -1.42460679     -4.06082429
11
Frame 80  Energy = -268.5678445617 Hartree
C       0.70720466     -0.59492601     -0.41713785
C       0.46188449     -0.84396189     -1.89395975
C      -0.84612042     -1.58418553     -2.16444735
O      -1.60486762     -1.85082571     -1.26340642
O      -1.27087320     -1.84307935     -3.49020780
H       1.76697459     -0.37186607     -0.34233383
H       0.07981420      0.11247826      0.06127234
H       0.48928211     -1.44428106      0.26265286
H       0.30322947      0.12011270     -2.38041082
H       1.29974883     -1.29558962     -2.40520052
H      -0.59423111     -1.42249590     -4.04938756
11
Frame 85  Energy = -268.5677491949 Hartree
C       0.70654572     -0.59594548     -0.41927453
C       0.46241637     -0.84438115     -1.89264018
C      -0.84608776     -1.58586329     -2.16453194
O      -1.60480084     -1.84945525     -1.26358986
O      -1.27067118     -1.84411726     -3.49195916
H       1.77049442     -0.37014898     -0.33626165
H       0.08319754      0.11013747      0.05893570
H       0.48569102     -1.43931734      0.27587503
H       0.29368657      0.12148781     -2.38603552
H       1.31048550     -1.29505106     -2.39654716
H      -0.59106010     -1.42090642     -4.03842792
11
Frame 90  Energy = -268.5678408942 Hartree
C       0.70606898     -0.59726693     -0.42123337
C       0.46275035     -0.84479026     -1.89146172
C      -0.84631555     -1.58764319     -2.16447202
O      -1.60476565     -1.84812777     -1.26397214
O      -1.27024178     -1.84504656     -3.49345988
H       1.77371846     -0.36781326     -0.32922484
H       0.08519755      0.11113773      0.05620704
H       0.48322928     -1.43431139      0.28646667
H       0.28482949      0.12284646     -2.39197692
H       1.32138000     -1.29484394     -2.38798915
H      -0.58784351     -1.41959320     -4.02832581
11
Frame 95  Energy = -268.5678393001 Hartree
C       0.70586769     -0.59902021     -0.42302247
C       0.46278370     -0.84511314     -1.89057162
C      -0.84678718     -1.58936664     -2.16443200
O      -1.60473546     -1.84683761     -1.26444597
O      -1.26963701     -1.84587630     -3.49465886
H       1.77618094     -0.36482738     -0.32134312
H       0.08555080      0.11540995      0.05323764
H       0.48186748     -1.42913875      0.29416851
H       0.27677391      0.12429743     -2.39817978
H       1.33209679     -1.29515272     -2.37965967
H      -0.58399541     -1.41868099     -4.01950427
11
Frame 100  Energy = -268.5677972789 Hartree
C       0.70588456     -0.60113441     -0.42467216
C       0.46263833     -0.84539865     -1.88991889
C      -0.84751502     -1.59104619     -2.16426794
O      -1.60460966     -1.84559868     -1.26501489
O      -1.26891029     -1.84662740     -3.49551596
H       1.77709443     -0.36119747     -0.31285726
H       0.08468033      0.12256948      0.04968317
H       0.48148008     -1.42408354      0.29902813
H       0.26967276      0.12517615     -2.40399540
H       1.34226156     -1.29604393     -2.37138639
H      -0.57987489     -1.41805796     -4.01181134
11
Frame 105  Energy = -268.5679970924 Hartree
C       0.70609690     -0.60337098     -0.42604371
C       0.46238482     -0.84569912     -1.88951930
C      -0.84846800     -1.59264642     -2.16411103
O      -1.60436257     -1.84440198     -1.26565000
O      -1.26797678     -1.84731092     -3.49610996
H       1.77642112     -0.35726919     -0.30364920
H       0.08292018      0.13244407      0.04520077
H       0.48194071     -1.41923121      0.30080700
H       0.26355305      0.12488082     -2.40916555
H       1.35120061     -1.29721123     -2.36324601
H      -0.57546985     -1.41720877     -4.00576624
11
Frame 110  Energy = -268.5679682061 Hartree
C       0.70655758     -0.60559200     -0.42710047
C       0.46202485     -0.84599139     -1.88941797
C      -0.84959072     -1.59411110     -2.16391933
O      -1.60396061     -1.84335599     -1.26638018
O      -1.26683166     -1.84792832     -3.49647405
H       1.77452536     -0.35266100     -0.29362464
H       0.08050282      0.14419560      0.03964069
H       0.48354473     -1.41470493      0.29950904
H       0.25858972      0.12372087     -2.41361036
H       1.35874370     -1.29836467     -2.35525028
H      -0.57078523     -1.41631487     -4.00165174
11
Frame 115  Energy = -268.5678792480 Hartree
C       0.70717514     -0.60779312     -0.42786301
C       0.46157974     -0.84625868     -1.88961970
C      -0.85091386     -1.59555375     -2.16374261
O      -1.60348403     -1.84238956     -1.26722271
O      -1.26544718     -1.84852611     -3.49663921
H       1.77072227     -0.34779159     -0.28317832
H       0.07820985      0.15714781      0.03263905
H       0.48595513     -1.41074167      0.29546661
H       0.25493669      0.12144380     -2.41713475
H       1.36491533     -1.29957053     -2.34718669
H      -0.56558193     -1.41570442     -3.99930749
11
Frame 120  Energy = -268.5679388388 Hartree
C       0.70781456     -0.61001283     -0.42825243
C       0.46106069     -0.84656158     -1.89004528
C      -0.85240175     -1.59706607     -2.16361604
O      -1.60305015     -1.84148877     -1.26819043
O      -1.26381145     -1.84902646     -3.49651780
H       1.76559097     -0.34258383     -0.27287043
H       0.07667050      0.17071695      0.02434428
H       0.48927492     -1.40753971      0.28855905
H       0.25290950      0.11793685     -2.41939716
H       1.36942774     -1.30071406     -2.33895674
H      -0.56033239     -1.41529562     -3.99897180
11
Frame 125  Energy = -268.5680070870 Hartree
C       0.70850180     -0.61207226     -0.42833406
C       0.46045584     -0.84696285     -1.89069044
C      -0.85409686     -1.59868186     -2.16351694
O      -1.60265736     -1.84073520     -1.26923977
O      -1.26208453     -1.84941206     -3.49601287
H       1.75965725     -0.33737497     -0.26291374
H       0.07576777      0.18451149      0.01432211
H       0.49308026     -1.40584135      0.27936285
H       0.25238201      0.11357679     -2.42052028
H       1.37161500     -1.30157365     -2.33068086
H      -0.55529876     -1.41526304     -3.99990197
11
Frame 130  Energy = -268.5680398072 Hartree
C       0.70925513     -0.61395140     -0.42818539
C       0.45975336     -0.84741335     -1.89156651
C      -0.85591041     -1.60028730     -2.16355631
O      -1.60225945     -1.84010787     -1.27024561
O      -1.26015571     -1.84964562     -3.49520239
H       1.75294537     -0.33207640     -0.25328010
H       0.07591090      0.19740987      0.00267977
H       0.49671185     -1.40602374      0.26859813
H       0.25323498      0.10837966     -2.42063973
H       1.37179171     -1.30241748     -2.32249446
H      -0.55047303     -1.41556394     -4.00199693
11
Frame 135  Energy = -268.5681240006 Hartree
C       0.70995992     -0.61550124     -0.42771182
C       0.45901932     -0.84792748     -1.89267122
C      -0.85770881     -1.60185434     -2.16381035
O      -1.60187719     -1.83953147     -1.27125206
O      -1.25805685     -1.84978554     -3.49412238
H       1.74556498     -0.32673440     -0.24395872
H       0.07738639      0.20928571     -0.01054124
H       0.50058022     -1.40821815      0.25712091
H       0.25571652      0.10283072     -2.42015461
H       1.37018898     -1.30329339     -2.31495002
H      -0.54638775     -1.41653717     -4.00486323
11
Frame 140  Energy = -268.5680736038 Hartree
C       0.71069040     -0.61670424     -0.42689881
C       0.45818006     -0.84836909     -1.89401783
C      -0.85949035     -1.60331628     -2.16413413
O      -1.60167992     -1.83905256     -1.27215179
O      -1.25584016     -1.84976578     -3.49280562
H       1.73799133     -0.32122020     -0.23487950
H       0.08057257      0.21971793     -0.02518198
H       0.50436517     -1.41292008      0.24546135
H       0.25963157      0.09692782     -2.41911550
H       1.36692285     -1.30402336     -2.30846113
H      -0.54301508     -1.41823957     -4.00856642
11
Frame 145  Energy = -268.5681682062 Hartree
C       0.71138228     -0.61741778     -0.42585325
C       0.45729148     -0.84903208     -1.89549896
C      -0.86113148     -1.60462925     -2.16458601
O      -1.60162266     -1.83881532     -1.27298737
O      -1.25339326     -1.84959160     -3.49129539
H       1.73078474     -0.31547137     -0.22644680
H       0.08482356      0.22872814     -0.04118065
H       0.50747076     -1.42030413      0.23378449
H       0.26475909      0.09098231     -2.41801875
H       1.36206580     -1.30526923     -2.30312349
H      -0.54038525     -1.42059935     -4.01279063
11
Frame 150  Energy = -268.5683344491 Hartree
C       0.71195132     -0.61769648     -0.42460595
C       0.45633334     -0.84989612     -1.89697687
C      -0.86263694     -1.60587036     -2.16520008
O      -1.60173982     -1.83874430     -1.27377466
O      -1.25071824     -1.84927248     -3.48960718
H       1.72447775     -0.30941351     -0.21921287
H       0.09012278      0.23590515     -0.05777437
H       0.50956001     -1.43032207      0.22262037
H       0.27106893      0.08539990     -2.41722672
H       1.35618994     -1.30675865     -2.29906833
H      -0.53853667     -1.42372575     -4.01715346
11
Frame 155  Energy = -268.5682171310 Hartree
C       0.71238737     -0.61751736     -0.42313915
C       0.45533771     -0.85088135     -1.89841502
C      -0.86384867     -1.60697194     -2.16590863
O      -1.60201863     -1.83874450     -1.27450287
O      -1.24777485     -1.84886059     -3.48770383
H       1.71943481     -0.30320379     -0.21256599
H       0.09625913      0.24111516     -0.07521097
H       0.51085987     -1.44242660      0.21203218
H       0.27843361      0.08050003     -2.41677116
H       1.34952124     -1.30858557     -2.29641503
H      -0.53817310     -1.42791824     -4.02157574
11
Frame 160  Energy = -268.5681510471 Hartree
C       0.71266803     -0.61688227     -0.42161892
C       0.45435385     -0.85188958     -1.89991179
C      -0.86486449     -1.60800599     -2.16669860
O      -1.60241433     -1.83882025     -1.27507652
O      -1.24449741     -1.84839622     -3.48558639
H       1.71589385     -0.29723449     -0.20625140
H       0.10272890      0.24427029     -0.09297679
H       0.51146265     -1.45630114      0.20231466
H       0.28675221      0.07674965     -2.41672158
H       1.34258104     -1.31139599     -2.29543587
H      -0.53901434     -1.43338667     -4.02580487
11
Frame 165  Energy = -268.5681592289 Hartree
C       0.71277605     -0.61595265     -0.42005592
C       0.45334493     -0.85291702     -1.90137690
C      -0.86567396     -1.60890629     -2.16766190
O      -1.60301767     -1.83905640     -1.27551969
O      -1.24101661     -1.84792398     -3.48332750
H       1.71367636     -0.29143618     -0.20041225
H       0.10946799      0.24559571     -0.11043898
H       0.51111843     -1.47154443      0.19308826
H       0.29615855      0.07450744     -2.41720922
H       1.33586299     -1.31541920     -2.29593598
H      -0.54069238     -1.44001528     -4.02997532
11
Frame 170  Energy = -268.5682676712 Hartree
C       0.71275665     -0.61475770     -0.41852728
C       0.45232584     -0.85403123     -1.90270693
C      -0.86630001     -1.60958377     -2.16873555
O      -1.60372977     -1.83946807     -1.27582179
O      -1.23738135     -1.84749358     -3.48094876
H       1.71298065     -0.28540932     -0.19540219
H       0.11553333      0.24554197     -0.12732073
H       0.51022931     -1.48736981      0.18407021
H       0.30624562      0.07354336     -2.41830251
H       1.32973794     -1.32069477     -2.29778567
H      -0.54317764     -1.44722640     -4.03418849
11
Frame 175  Energy = -268.5682522198 Hartree
C       0.71258505     -0.61340695     -0.41707934
C       0.45120357     -0.85523502     -1.90392392
C      -0.86674483     -1.61005909     -2.16991572
O      -1.60457321     -1.83996758     -1.27594825
O      -1.23365045     -1.84699653     -3.47843791
H       1.71381183     -0.27987918     -0.19121934
H       0.12041539      0.24512734     -0.14342495
H       0.50904927     -1.50331660      0.17520727
H       0.31704233      0.07409738     -2.42022806
H       1.32437292     -1.32715278     -2.30133612
H      -0.54579894     -1.45480116     -4.03828020
11
Frame 180  Energy = -268.5681024955 Hartree
C       0.71229466     -0.61202423     -0.41563389
C       0.45002628     -0.85657534     -1.90501926
C      -0.86703087     -1.61033315     -2.17130953
O      -1.60555982     -1.84060760     -1.27592346
O      -1.22991797     -1.84652822     -3.47577437
H       1.71592625     -0.27491035     -0.18791447
H       0.12375553      0.24454496     -0.15838219
H       0.50769093     -1.51843809      0.16635906
H       0.32821944      0.07650418     -2.42317149
H       1.31973911     -1.33499426     -2.30654064
H      -0.54860448     -1.46306514     -4.04276164
11
Frame 185  Energy = -268.5678988738 Hartree
C       0.71199080     -0.61064129     -0.41422623
C       0.44885896     -0.85808988     -1.90606035
C      -0.86706258     -1.61036489     -2.17278447
O      -1.60671737     -1.84136294     -1.27577542
O      -1.22612730     -1.84599254     -3.47293939
H       1.71864520     -0.27056390     -0.18546844
H       0.12497633      0.24396232     -0.17152843
H       0.50593389     -1.53218194      0.15764896
H       0.34024415      0.07991736     -2.42696157
H       1.31602654     -1.34415686     -2.31351015
H      -0.55127864     -1.47156263     -4.04771929
11
Frame 190  Energy = -268.5680334497 Hartree
C       0.71165707     -0.60943814     -0.41282282
C       0.44773767     -0.85959491     -1.90712225
C      -0.86697381     -1.61010458     -2.17420466
O      -1.60808224     -1.84223963     -1.27555628
O      -1.22231682     -1.84542605     -3.46998735
H       1.72195129     -0.26715450     -0.18408823
H       0.12413656      0.24394122     -0.18258894
H       0.50364670     -1.54396038      0.14897576
H       0.35272299      0.08440876     -2.43148315
H       1.31314508     -1.35430576     -2.32244970
H      -0.55367496     -1.47988458     -4.05318645
11
Frame 195  Energy = -268.5679958633 Hartree
C       0.71133175     -0.60843121     -0.41158166
C       0.44658746     -0.86112106     -1.90825444
C      -0.86673804     -1.60952570     -2.17548489
O      -1.60955513     -1.84318476     -1.27535548
O      -1.21849763     -1.84490041     -3.46693546
H       1.72564642     -0.26461564     -0.18394544
H       0.12082246      0.24437019     -0.19132940
H       0.50121005     -1.55340576      0.14012954
H       0.36549545      0.08959652     -2.43630933
H       1.31022398     -1.36534673     -2.33259186
H      -0.55507062     -1.48771317     -4.05929885
11
Frame 200  Energy = -268.5679208676 Hartree
C       0.71105923     -0.60758378     -0.41048740
C       0.44559012     -0.86268401     -1.90930746
C      -0.86629398     -1.60880694     -2.17668616
O      -1.61116788     -1.84423955     -1.27518730
O      -1.21477011     -1.84443671     -3.46380957
H       1.72905711     -0.26289252     -0.18457387
H       0.11466436      0.24574017     -0.19754959
H       0.49906976     -1.56001844      0.13082904
H       0.37838279      0.09529067     -2.44132435
H       1.30686625     -1.37706123     -2.34393073
H      -0.55519707     -1.49475988     -4.06592545
11
Frame 205  Energy = -268.5677436070 Hartree
C       0.71079122     -0.60700304     -0.40957055
C       0.44482158     -0.86440661     -1.91031630
C      -0.86565124     -1.60776417     -2.17788317
O      -1.61289679     -1.84538425     -1.27504433
O      -1.21101949     -1.84396310     -3.46060621
H       1.73240235     -0.26228638     -0.18655604
H       0.10640487      0.24745016     -0.20150102
H       0.49664105     -1.56357263      0.12174445
H       0.39149170      0.10070204     -2.44598160
H       1.30298813     -1.38939374     -2.35582320
H      -0.55432739     -1.50120350     -4.07293593
11
Frame 210  Energy = -268.5679289123 Hartree
C       0.71062489     -0.60663740     -0.40885492
C       0.44418557     -0.86618368     -1.91126733
C      -0.86490522     -1.60638453     -2.17900515
O      -1.61468978     -1.84654988     -1.27489223
O      -1.20735562     -1.84355087     -3.45737955
H       1.73532891     -0.26275820     -0.18949817
H       0.09630702      0.24930208     -0.20276964
H       0.49394591     -1.56399674      0.11316927
H       0.40476518      0.10540542     -2.45036465
H       1.29813241     -1.40220675     -2.36790747
H      -0.55242812     -1.50735409     -4.08013558
11
Frame 215  Energy = -268.5678256539 Hartree
C       0.71053943     -0.60642393     -0.40831914
C       0.44373411     -0.86794127     -1.91227828
C      -0.86411837     -1.60463658     -2.17984667
O      -1.61654560     -1.84771805     -1.27483369
O      -1.20376097     -1.84315845     -3.45409714
H       1.73739778     -0.26423544     -0.19322902
H       0.08478284      0.25088370     -0.20149710
H       0.49096937     -1.56156417      0.10509457
H       0.41797488      0.10899979     -2.45444028
H       1.29208799     -1.41471392     -2.37977134
H      -0.54977843     -1.51326298     -4.08699619
11
Frame 220  Energy = -268.5679277104 Hartree
C       0.71038730     -0.60630141     -0.40801094
C       0.44359702     -0.86959175     -1.91337084
C      -0.86322774     -1.60263705     -2.18038337
O      -1.61845355     -1.84896118     -1.27489189
O      -1.20019229     -1.84277982     -3.45082772
H       1.73894136     -0.26679222     -0.19785655
H       0.07211090      0.25154963     -0.19803568
H       0.48770443     -1.55642106      0.09762001
H       0.43104286      0.11104700     -2.45757573
H       1.28486066     -1.42648789     -2.39095007
H      -0.54676290     -1.51919611     -4.09353674
11
Frame 225  Energy = -268.5680066914 Hartree
C       0.71025332     -0.60618092     -0.40797149
C       0.44378272     -0.87110385     -1.91451635
C      -0.86228220     -1.60034914     -2.18064172
O      -1.62038197     -1.85029801     -1.27505369
O      -1.19663898     -1.84240256     -3.44770805
H       1.73941094     -0.27052748     -0.20349308
H       0.05893838      0.25077480     -0.19244071
H       0.48417223     -1.54942342      0.09085523
H       0.44331799      0.11118919     -2.45994702
H       1.27623576     -1.43763691     -2.40121199
H      -0.54346408     -1.52510578     -4.09936938
11
Frame 230  Energy = -268.5678738227 Hartree
C       0.71002897     -0.60612041     -0.40826381
C       0.44427646     -0.87242268     -1.91574246
C      -0.86121529     -1.59785263     -2.18054895
O      -1.62232685     -1.85170587     -1.27533019
O      -1.19315090     -1.84208692     -3.44475789
H       1.73898890     -0.27493912     -0.21032353
H       0.04563097      0.24805818     -0.18512128
H       0.48046925     -1.54093699      0.08538885
H       0.45523683      0.10946297     -2.46173624
H       1.26621550     -1.44837396     -2.41052014
H      -0.54006455     -1.53123231     -4.10375589
11
Frame 235  Energy = -268.5678068844 Hartree
C       0.70967909     -0.60607853     -0.40880101
C       0.44504300     -0.87364950     -1.91719512
C      -0.86012290     -1.59524807     -2.18014216
O      -1.62419411     -1.85333580     -1.27572602
O      -1.18971014     -1.84183287     -3.44190163
H       1.73761239     -0.28007603     -0.21813293
H       0.03269214      0.24344311     -0.17626782
H       0.47657108     -1.53145371      0.08187783
H       0.46685267      0.10578285     -2.46290191
H       1.25502760     -1.45839086     -2.41850421
H      -0.53696855     -1.53754008     -4.10647584
11
Frame 240  Energy = -268.5677655653 Hartree
C       0.70923990     -0.60599071     -0.40965138
C       0.44604855     -0.87479906     -1.91881837
C      -0.85904051     -1.59236355     -2.17943793
O      -1.62595113     -1.85500885     -1.27638724
O      -1.18628381     -1.84175739     -3.43929019
H       1.73571189     -0.28579794     -0.22632329
H       0.02056611      0.23660151     -0.16577437
H       0.47228207     -1.52187536      0.08045123
H       0.47779923      0.10020591     -2.46361672
H       1.24289071     -1.46742984     -2.42531668
H      -0.53371837     -1.54381840     -4.10754208
11
Frame 245  Energy = -268.5677181568 Hartree
C       0.70872664     -0.60582597     -0.41083654
C       0.44728487     -0.87580198     -1.92060056
C      -0.85792413     -1.58927176     -2.17835086
O      -1.62758033     -1.85674210     -1.27718589
O      -1.18283055     -1.84177972     -3.43694323
H       1.73356145     -0.29212471     -0.23429651
H       0.00947503      0.22746208     -0.15434257
H       0.46756771     -1.51284050      0.08118061
H       0.48810364      0.09287420     -2.46382521
H       1.22996822     -1.47566688     -2.43100265
H      -0.53035409     -1.55054668     -4.10673039
11
Frame 250  Energy = -268.5678520167 Hartree
C       0.70807924     -0.60553365     -0.41235348
C       0.44866794     -0.87668859     -1.92254334
C      -0.85698589     -1.58610354     -2.17674301
O      -1.62913827     -1.85852593     -1.27808228
O      -1.17944623     -1.84185890     -3.43480629
H       1.73100967     -0.29874363     -0.24192208
H      -0.00006000      0.21588573     -0.14228936
H       0.46239881     -1.50504907      0.08413325
H       0.49751638      0.08428907     -2.46397786
H       1.21656917     -1.48345922     -2.43559235
H      -0.52699003     -1.55754634     -4.10412706
11
Frame 255  Energy = -268.5675359898 Hartree
C       0.70722620     -0.60509150     -0.41435518
C       0.45015319     -0.87753891     -1.92452942
C      -0.85613574     -1.58281960     -2.17461899
O      -1.63059102     -1.86034683     -1.27918038
O      -1.17622784     -1.84198156     -3.43283714
H       1.72864135     -0.30516878     -0.24945603
H      -0.00797707      0.20250159     -0.12934228
H       0.45668777     -1.49847235      0.08919802
H       0.50587593      0.07498152     -2.46435318
H       1.20304610     -1.49084861     -2.43910221
H      -0.52371358     -1.56473615     -4.09993517
11
Frame 260  Energy = -268.5675557437 Hartree
C       0.70611645     -0.60455830     -0.41674335
C       0.45176279     -0.87838814     -1.92645172
C      -0.85544143     -1.57942847     -2.17204789
O      -1.63205626     -1.86224874     -1.28038539
O      -1.17315050     -1.84219625     -3.43103435
H       1.72674544     -0.31153207     -0.25698613
H      -0.01466656      0.18762196     -0.11617557
H       0.45078675     -1.49346149      0.09646167
H       0.51317865      0.06526353     -2.46499846
H       1.18990546     -1.49852088     -2.44157793
H      -0.52017021     -1.57160105     -4.09410876
11
Frame 265  Energy = -268.5676004390 Hartree
C       0.70486124     -0.60389659     -0.41938343
C       0.45343301     -0.87912125     -1.92828661
C      -0.85497481     -1.57590479     -2.16906938
O      -1.63346615     -1.86426898     -1.28175012
O      -1.17018402     -1.84254406     -3.42945391
H       1.72580568     -0.31734736     -0.26385091
H      -0.01981226      0.17137768     -0.10284293
H       0.44498244     -1.49035252      0.10539300
H       0.51938095      0.05547860     -2.46615418
H       1.17779736     -1.50681688     -2.44307299
H      -0.51615738     -1.57809045     -4.08709503
11
Frame 270  Energy = -268.5675314613 Hartree
C       0.70346278     -0.60326262     -0.42229065
C       0.45513300     -0.87986819     -1.93006453
C      -0.85471146     -1.57218820     -2.16581998
O      -1.63485295     -1.86630849     -1.28324516
O      -1.16737575     -1.84296335     -3.42800198
H       1.72546028     -0.32279967     -0.26984249
H      -0.02330450      0.15425302     -0.09002367
H       0.43914936     -1.48895705      0.11576442
H       0.52480517      0.04645653     -2.46831672
H       1.16700515     -1.51582434     -2.44313837
H      -0.51130301     -1.58374922     -4.07968325
11
Frame 275  Energy = -268.5674071719 Hartree
C       0.70194284     -0.60274400     -0.42537320
C       0.45682896     -0.88071589     -1.93172051
C      -0.85467530     -1.56839026     -2.16226969
O      -1.63604951     -1.86839993     -1.28487790
O      -1.16469363     -1.84341917     -3.42659023
H       1.72610553     -0.32756344     -0.27549332
H      -0.02548822      0.13695345     -0.07733522
H       0.43333527     -1.48880147      0.12726067
H       0.52991092      0.03837468     -2.47141840
H       1.15757432     -1.52569054     -2.44220359
H      -0.50527919     -1.58840230     -4.07208784
11
Frame 280  Energy = -268.5673402311 Hartree
C       0.70018228     -0.60230332     -0.42871461
C       0.45841678     -0.88164984     -1.93315443
C      -0.85478619     -1.56460284     -2.15842579
O      -1.63702214     -1.87044711     -1.28656098
O      -1.16213177     -1.84393994     -3.42525083
H       1.72743116     -0.33160510     -0.28021189
H      -0.02628620      0.12028251     -0.06494620
H       0.42787617     -1.48910850      0.13941732
H       0.53476192      0.03141910     -2.47588793
H       1.15027296     -1.53646192     -2.44033595
H      -0.49791123     -1.59204252     -4.06476372
11
Frame 285  Energy = -268.5673049812 Hartree
C       0.69828484     -0.60199257     -0.43222847
C       0.45991121     -0.88271334     -1.93428993
C      -0.85491097     -1.56087715     -2.15433058
O      -1.63797407     -1.87251691     -1.28831038
O      -1.15987237     -1.84450893     -3.42396462
H       1.72928581     -0.33469243     -0.28398758
H      -0.02628294      0.10416651     -0.05301117
H       0.42332195     -1.48979013      0.15169280
H       0.53922234      0.02605490     -2.48168659
H       1.14470538     -1.54824808     -2.43779203
H      -0.48942025     -1.59520006     -4.05769659
11
Frame 290  Energy = -268.5671805400 Hartree
C       0.69636003     -0.60193992     -0.43587213
C       0.46128121     -0.88382111     -1.93510948
C      -0.85513535     -1.55710532     -2.15018114
O      -1.63893340     -1.87458391     -1.29013467
O      -1.15775821     -1.84512434     -3.42273935
H       1.73183318     -0.33716312     -0.28679223
H      -0.02550972      0.08928947     -0.04164063
H       0.42016613     -1.49044795      0.16361096
H       0.54334946      0.02285043     -2.48842694
H       1.14090282     -1.56055217     -2.43422552
H      -0.47963383     -1.59761011     -4.05050407
11
Frame 295  Energy = -268.5674499604 Hartree
C       0.69435018     -0.60225323     -0.43952841
C       0.46266995     -0.88493145     -1.93568982
C      -0.85551948     -1.55328539     -2.14600208
O      -1.63989780     -1.87661480     -1.29200091
O      -1.15577166     -1.84581315     -3.42165513
H       1.73416433     -0.33903579     -0.28884339
H      -0.02473923      0.07636061     -0.03066306
H       0.41889097     -1.49089663      0.17445798
H       0.54688643      0.02160738     -2.49635369
H       1.13862170     -1.57311199     -2.42943677
H      -0.46841927     -1.59912535     -4.04356950
11
Frame 300  Energy = -268.5674907819 Hartree
C       0.69226320     -0.60290725     -0.44315995
C       0.46411460     -0.88601943     -1.93612256
C      -0.85603466     -1.54942512     -2.14180295
O      -1.64085298     -1.87864262     -1.29383097
O      -1.15381351     -1.84662605     -3.42076396
H       1.73628891     -0.34046279     -0.29034682
H      -0.02433214      0.06636589     -0.02030463
H       0.41946775     -1.49064466      0.18366785
H       0.54962522      0.02177410     -2.50499799
H       1.13808735     -1.58600576     -2.42344845
H      -0.45653631     -1.59995827     -4.03638889
