11
Frame 5  Energy = -268.5729173712 Hartree
C       0.76593905     -0.58204505     -0.51917341
C       0.39461413     -0.80521395     -1.97427748
C      -0.90829220     -1.55167317     -2.11010858
O      -1.61208211     -1.95623390     -1.19353694
O      -1.20482461     -1.73613485     -3.42269233
H       1.70897771     -0.04120382     -0.45278774
H       0.00104479      0.01362875     -0.00372449
H       0.88335428     -1.53454820     -0.01711398
H       0.30720097      0.15769402     -2.46940965
H       1.17439127     -1.39005702     -2.46887283
H      -0.52497439     -1.35445149     -4.01380653
11
Frame 10  Energy = -268.5726818102 Hartree
C       0.76296858     -0.58301658     -0.51837220
C       0.39714296     -0.80440017     -1.97438514
C      -0.90865915     -1.54730163     -2.10913507
O      -1.61308202     -1.95733271     -1.19335035
O      -1.20391217     -1.73739230     -3.42238609
H       1.70291726     -0.04721964     -0.45387770
H       0.00309733      0.02671967     -0.00787396
H       0.88328767     -1.53620250     -0.04274370
H       0.32488502      0.15452593     -2.46344496
H       1.16898367     -1.39512542     -2.47064772
H      -0.52647479     -1.36417015     -4.01617436
11
Frame 15  Energy = -268.5723230058 Hartree
C       0.75993641     -0.58385822     -0.51756313
C       0.39962522     -0.80364293     -1.97423420
C      -0.90908874     -1.54292073     -2.10809586
O      -1.61396441     -1.95835166     -1.19347613
O      -1.20320588     -1.73872310     -3.42198133
H       1.69715165     -0.05314075     -0.45512622
H       0.00556660      0.03870364     -0.01263191
H       0.88289538     -1.53868019     -0.06754077
H       0.34258233      0.15206295     -2.45829320
H       1.16349884     -1.39981002     -2.47237956
H      -0.52833806     -1.37393022     -4.01724842
11
Frame 20  Energy = -268.5724888042 Hartree
C       0.75684558     -0.58450869     -0.51679681
C       0.40211601     -0.80305558     -1.97388621
C      -0.90949444     -1.53856032     -2.10691698
O      -1.61475492     -1.95927142     -1.19390738
O      -1.20265690     -1.74015210     -3.42148998
H       1.69215813     -0.05902059     -0.45608303
H       0.00861910      0.04934172     -0.01757259
H       0.88242810     -1.54222505     -0.09025117
H       0.35985271      0.15027644     -2.45404466
H       1.15815161     -1.40482169     -2.47429251
H      -0.53001938     -1.38331453     -4.01703894
11
Frame 25  Energy = -268.5725736755 Hartree
C       0.75373200     -0.58502588     -0.51610802
C       0.40465127     -0.80252535     -1.97331442
C      -0.90994559     -1.53421964     -2.10563484
O      -1.61541007     -1.96003797     -1.19467597
O      -1.20232330     -1.74169645     -3.42094998
H       1.68850489     -0.06482964     -0.45691916
H       0.01192561      0.05829338     -0.02258748
H       0.88155958     -1.54733675     -0.11043509
H       0.37629166      0.14980811     -2.45162962
H       1.15313877     -1.40972991     -2.47612486
H      -0.53088438     -1.39217336     -4.01574357
11
Frame 30  Energy = -268.5726352185 Hartree
C       0.75060017     -0.58536178     -0.51559372
C       0.40716287     -0.80203827     -1.97262100
C      -0.91039525     -1.52993585     -2.10431073
O      -1.61589881     -1.96067497     -1.19581268
O      -1.20219516     -1.74339145     -3.42034774
H       1.68645576     -0.07001944     -0.45793618
H       0.01537367      0.06553727     -0.02750077
H       0.88013587     -1.55426010     -0.12805703
H       0.39228610      0.15066125     -2.45125450
H       1.14842489     -1.41442191     -2.47794515
H      -0.53059372     -1.40020967     -4.01380740
11
Frame 35  Energy = -268.5729549482 Hartree
C       0.74747746     -0.58557610     -0.51519577
C       0.40947210     -0.80153910     -1.97187950
C      -0.91093319     -1.52580749     -2.10301403
O      -1.61612994     -1.96126150     -1.19734912
O      -1.20232424     -1.74521592     -3.41968132
H       1.68602930     -0.07480273     -0.45870417
H       0.01876189      0.07081357     -0.03186843
H       0.87822225     -1.56284738     -0.14258426
H       0.40735823      0.15263691     -2.45266048
H       1.14464361     -1.41917309     -2.47970126
H      -0.52917272     -1.40738618     -4.01142537
11
Frame 40  Energy = -268.5729618472 Hartree
C       0.74448332     -0.58568505     -0.51491350
C       0.41168564     -0.80107494     -1.97097635
C      -0.91152791     -1.52185869     -2.10165133
O      -1.61612583     -1.96180402     -1.19927382
O      -1.20265587     -1.74723237     -3.41893246
H       1.68686352     -0.07892816     -0.45928928
H       0.02208458      0.07376946     -0.03603511
H       0.87559135     -1.57299960     -0.15410092
H       0.42168583      0.15556718     -2.45583974
H       1.14146109     -1.42392655     -2.48146609
H      -0.52649204     -1.41353879     -4.00904363
11
Frame 45  Energy = -268.5729670294 Hartree
C       0.74161840     -0.58570814     -0.51476524
C       0.41379796     -0.80065052     -1.96991221
C      -0.91220610     -1.51804501     -2.10026554
O      -1.61594746     -1.96226784     -1.20162030
O      -1.20316571     -1.74929483     -3.41806979
H       1.68906661     -0.08270965     -0.45932574
H       0.02509726      0.07494323     -0.03989119
H       0.87225153     -1.58428140     -0.16263476
H       0.43516747      0.15927210     -2.46023802
H       1.13865656     -1.42886033     -2.48282049
H      -0.52285938     -1.41886503     -4.00656326
11
Frame 50  Energy = -268.5729769685 Hartree
C       0.73885707     -0.58573536     -0.51466306
C       0.41573223     -0.80011021     -1.96871177
C      -0.91296275     -1.51442225     -2.09886042
O      -1.61567529     -1.96264197     -1.20424277
O      -1.20387736     -1.75145928     -3.41698526
H       1.69246893     -0.08613312     -0.45932387
H       0.02754731      0.07486563     -0.04321551
H       0.86818243     -1.59617215     -0.16821814
H       0.44772706      0.16342989     -2.46587405
H       1.13636569     -1.43393361     -2.48390197
H      -0.51786820     -1.42337178     -4.00395746
11
Frame 55  Energy = -268.5729844688 Hartree
C       0.73638253     -0.58582961     -0.51458791
C       0.41758213     -0.79948675     -1.96744929
C      -0.91368379     -1.51095326     -2.09743156
O      -1.61525563     -1.96282415     -1.20716143
O      -1.20474573     -1.75375289     -3.41581542
H       1.69699721     -0.08948547     -0.45929704
H       0.02919063      0.07386578     -0.04553071
H       0.86346413     -1.60772118     -0.17093567
H       0.45927115      0.16781394     -2.47222002
H       1.13483307     -1.43896057     -2.48475084
H      -0.51193057     -1.42685983     -4.00093469
11
Frame 60  Energy = -268.5729715632 Hartree
C       0.73416302     -0.58600819     -0.51450164
C       0.41937130     -0.79879804     -1.96612485
C      -0.91442695     -1.50763435     -2.09608355
O      -1.61464731     -1.96283899     -1.21039415
O      -1.20577950     -1.75615874     -3.41464398
H       1.70231052     -0.09289278     -0.45901258
H       0.02956167      0.07198688     -0.04631934
H       0.85805267     -1.61867949     -0.17064049
H       0.46982441      0.17223477     -2.47915117
H       1.13400657     -1.44406818     -2.48546772
H      -0.50547819     -1.43004312     -3.99748232
11
Frame 65  Energy = -268.5731284539 Hartree
C       0.73225977     -0.58630212     -0.51451272
C       0.42099028     -0.79795565     -1.96477751
C      -0.91522779     -1.50456535     -2.09481162
O      -1.61380130     -1.96264539     -1.21380989
O      -1.20696502     -1.75859986     -3.41345068
H       1.70783337     -0.09668853     -0.45843992
H       0.02831331      0.06929234     -0.04573249
H       0.85200958     -1.62797013     -0.16768169
H       0.47902704      0.17583285     -2.48671330
H       1.13397270     -1.44897337     -2.48568351
H      -0.49899645     -1.43255831     -3.99334901
11
Frame 70  Energy = -268.5732640018 Hartree
C       0.73066636     -0.58682337     -0.51469458
C       0.42247774     -0.79684673     -1.96338149
C      -0.91600307     -1.50171526     -2.09356086
O      -1.61279290     -1.96229044     -1.21742590
O      -1.20819069     -1.76105191     -3.41221729
H       1.71323047     -0.10080237     -0.45756302
H       0.02566725      0.06599494     -0.04393900
H       0.84506802     -1.63485566     -0.16250025
H       0.48666022      0.17807961     -2.49454221
H       1.13396882     -1.45389618     -2.48511066
H      -0.49246384     -1.43461222     -3.98871643
11
Frame 75  Energy = -268.5732522301 Hartree
C       0.72943029     -0.58755373     -0.51485543
C       0.42391960     -0.79561911     -1.96202725
C      -0.91672487     -1.49899578     -2.09254375
O      -1.61167275     -1.96183694     -1.22112546
O      -1.20948740     -1.76350914     -3.41101595
H       1.71832324     -0.10529202     -0.45608365
H       0.02186404      0.06230501     -0.04122583
H       0.83709736     -1.63891414     -0.15540454
H       0.49304104      0.17871922     -2.50199596
H       1.13420671     -1.45867187     -2.48347827
H      -0.48603338     -1.43644396     -3.98369382
11
Frame 80  Energy = -268.5732859324 Hartree
C       0.72856991     -0.58859112     -0.51502594
C       0.42529130     -0.79410194     -1.96075972
C      -0.91738651     -1.49636060     -2.09169274
O      -1.61048073     -1.96128752     -1.22488256
O      -1.21088447     -1.76593497     -3.40975255
H       1.72306483     -0.11010925     -0.45387417
H       0.01695641      0.05790257     -0.03738782
H       0.82790759     -1.63959549     -0.14630745
H       0.49788680      0.17749148     -2.50942027
H       1.13433533     -1.46316471     -2.48118424
H      -0.48051148     -1.43810085     -3.97783689
11
Frame 85  Energy = -268.5732082625 Hartree
C       0.72810518     -0.58977993     -0.51510187
C       0.42649935     -0.79243177     -1.95960304
C      -0.91799312     -1.49383604     -2.09099693
O      -1.60926395     -1.96060023     -1.22863606
O      -1.21222794     -1.76840789     -3.40857338
H       1.72659741     -0.11553288     -0.45105706
H       0.01104756      0.05253486     -0.03252516
H       0.81789851     -1.63717953     -0.13537492
H       0.50134819      0.17432007     -2.51641325
H       1.13443217     -1.46754432     -2.47771158
H      -0.47648558     -1.44011514     -3.97115137
11
Frame 90  Energy = -268.5733304515 Hartree
C       0.72800005     -0.59115164     -0.51521437
C       0.42764416     -0.79055063     -1.95856612
C      -0.91845904     -1.49135656     -2.09062902
O      -1.60800007     -1.95980825     -1.23246075
O      -1.21361965     -1.77079741     -3.40745181
H       1.72866932     -0.12197674     -0.44764926
H       0.00455096      0.04673861     -0.02722014
H       0.80712878     -1.63213215     -0.12300893
H       0.50364924      0.16921207     -2.52246419
H       1.13424649     -1.47126204     -2.47308344
H      -0.47378247     -1.44243977     -3.96405346
11
Frame 95  Energy = -268.5731765876 Hartree
C       0.72838515     -0.59264299     -0.51527686
C       0.42871360     -0.78866249     -1.95772730
C      -0.91875959     -1.48903769     -2.09062244
O      -1.60671746     -1.95895756     -1.23636089
O      -1.21499626     -1.77308987     -3.40632794
H       1.72929451     -0.12904968     -0.44353794
H      -0.00234880      0.04010402     -0.02138090
H       0.79548948     -1.62429616     -0.10948463
H       0.50504724      0.16263473     -2.52806488
H       1.13376168     -1.47434639     -2.46739101
H      -0.47238455     -1.44526120     -3.95600708
11
Frame 100  Energy = -268.5733424340 Hartree
C       0.72915463     -0.59428291     -0.51523180
C       0.42972465     -0.78682164     -1.95709516
C      -0.91882108     -1.48686302     -2.09093977
O      -1.60542628     -1.95798971     -1.24020896
O      -1.21628218     -1.77538094     -3.40516377
H       1.72877782     -0.13657102     -0.43848191
H      -0.00931744      0.03259209     -0.01508878
H       0.78328845     -1.61408904     -0.09488931
H       0.50567683      0.15492381     -2.53293402
H       1.13302544     -1.47657202     -2.46071761
H      -0.47198757     -1.44801410     -3.94766215
11
Frame 105  Energy = -268.5733200588 Hartree
C       0.73022773     -0.59599675     -0.51499929
C       0.43064746     -0.78505316     -1.95657353
C      -0.91874332     -1.48479899     -2.09158514
O      -1.60422083     -1.95690922     -1.24397616
O      -1.21760590     -1.77761775     -3.40406789
H       1.72725665     -0.14408392     -0.43246572
H      -0.01593332      0.02410977     -0.00868739
H       0.77093840     -1.60222044     -0.07926585
H       0.50547014      0.14625103     -2.53718153
H       1.13205514     -1.47788308     -2.45311829
H      -0.47253121     -1.45062323     -3.93918945
11
Frame 110  Energy = -268.5735838657 Hartree
C       0.73152917     -0.59772526     -0.51467462
C       0.43144452     -0.78331757     -1.95619137
C      -0.91846213     -1.48280823     -2.09255688
O      -1.60308986     -1.95583917     -1.24753575
O      -1.21898633     -1.77966818     -3.40303120
H       1.72468887     -0.15187358     -0.42559166
H      -0.02189891      0.01470477     -0.00248707
H       0.75812488     -1.58895772     -0.06293655
H       0.50383629      0.13709705     -2.54049620
H       1.13126028     -1.47825626     -2.44479797
H      -0.47418159     -1.45306580     -3.93122715
11
Frame 115  Energy = -268.5733271366 Hartree
C       0.73288878     -0.59948224     -0.51422162
C       0.43203803     -0.78160860     -1.95606923
C      -0.91793506     -1.48093921     -2.09391857
O      -1.60215797     -1.95472745     -1.25097379
O      -1.22038226     -1.78156072     -3.40190412
H       1.72165876     -0.15971206     -0.41787670
H      -0.02695594      0.00485410      0.00360083
H       0.74491508     -1.57532964     -0.04585253
H       0.50163851      0.12825025     -2.54363056
H       1.13057115     -1.47841234     -2.43618183
H      -0.47621037     -1.45527437     -3.92389455
11
Frame 120  Energy = -268.5735259080 Hartree
C       0.73423595     -0.60122523     -0.51359987
C       0.43249517     -0.78002379     -1.95594303
C      -0.91717001     -1.47918059     -2.09560340
O      -1.60134217     -1.95354800     -1.25424413
O      -1.22174458     -1.78343794     -3.40079185
H       1.71841536     -0.16709100     -0.40953474
H      -0.03118633     -0.00526979      0.00922983
H       0.73167902     -1.56196937     -0.02814778
H       0.49914008      0.12013754     -2.54697117
H       1.13011412     -1.47845382     -2.42740366
H      -0.47826148     -1.45743654     -3.91730123
11
Frame 125  Energy = -268.5736499654 Hartree
C       0.73557557     -0.60290489     -0.51286843
C       0.43279612     -0.77857545     -1.95576344
C      -0.91631263     -1.47750840     -2.09760630
O      -1.60063243     -1.95236237     -1.25721518
O      -1.22309028     -1.78528856     -3.39959899
H       1.71569982     -0.17369410     -0.40064610
H      -0.03420877     -0.01541749      0.01445908
H       0.71857970     -1.54958893     -0.01003784
H       0.49606052      0.11283312     -2.55072797
H       1.13022638     -1.47838506     -2.41842653
H      -0.48023219     -1.45938141     -3.91165586
11
Frame 130  Energy = -268.5735162301 Hartree
C       0.73687463     -0.60458514     -0.51200063
C       0.43284799     -0.77729666     -1.95560178
C      -0.91536058     -1.47597813     -2.09998317
O      -1.60007685     -1.95118178     -1.25993602
O      -1.22451407     -1.78703337     -3.39836381
H       1.71366321     -0.17927847     -0.39116951
H      -0.03610632     -0.02526999      0.01906123
H       0.70564061     -1.53852415      0.00846451
H       0.49263425      0.10681754     -2.55472854
H       1.13071176     -1.47870013     -2.40935392
H      -0.48168620     -1.46075445     -3.90740519
11
Frame 135  Energy = -268.5732463977 Hartree
C       0.73809330     -0.60621315     -0.51094674
C       0.43264822     -0.77613327     -1.95535574
C      -0.91422686     -1.47468301     -2.10278580
O      -1.59969990     -1.94997771     -1.26240565
O      -1.22608604     -1.78877595     -3.39705700
H       1.71254474     -0.18388822     -0.38099872
H      -0.03688130     -0.03482697      0.02244844
H       0.69262864     -1.52905870      0.02702468
H       0.48876710      0.10248095     -2.55966665
H       1.13220343     -1.47914595     -2.40014619
H      -0.48233872     -1.46212682     -3.90523892
11
Frame 140  Energy = -268.5731783248 Hartree
C       0.73917511     -0.60771823     -0.50972287
C       0.43225816     -0.77513895     -1.95508507
C      -0.91286451     -1.47355426     -2.10588181
O      -1.59946969     -1.94872870     -1.26470640
O      -1.22774535     -1.79050536     -3.39571150
H       1.71233544     -0.18731864     -0.37031180
H      -0.03650974     -0.04402314      0.02426872
H       0.67985311     -1.52131444      0.04547715
H       0.48474389      0.10012524     -2.56520598
H       1.13432410     -1.47935962     -2.39115427
H      -0.48232308     -1.46313897     -3.90505850
11
Frame 145  Energy = -268.5731886643 Hartree
C       0.74014573     -0.60904239     -0.50840209
C       0.43168109     -0.77445506     -1.95476379
C      -0.91134589     -1.47267403     -2.10918700
O      -1.59931128     -1.94751092     -1.26681978
O      -1.22943833     -1.79217133     -3.39438224
H       1.71316549     -0.18956786     -0.35947663
H      -0.03535650     -0.05226938      0.02505098
H       0.66730515     -1.51564229      0.06385552
H       0.48037337      0.09923118     -2.57102452
H       1.13694735     -1.47972248     -2.38270229
H      -0.48166292     -1.46343416     -3.90663906
11
Frame 150  Energy = -268.5729946009 Hartree
C       0.74102128     -0.61020231     -0.50695511
C       0.43088422     -0.77399542     -1.95441614
C      -0.90983151     -1.47206671     -2.11284335
O      -1.59937375     -1.94628867     -1.26871159
O      -1.23119895     -1.79386691     -3.39303831
H       1.71520494     -0.19101689     -0.34866542
H      -0.03324769     -0.05919188      0.02497303
H       0.65524818     -1.51200420      0.08160185
H       0.47596152      0.09975042     -2.57708108
H       1.14038135     -1.48006372     -2.37480012
H      -0.48098172     -1.46311234     -3.90968461
11
Frame 155  Energy = -268.5728216221 Hartree
C       0.74180523     -0.61129936     -0.50532225
C       0.42996376     -0.77372954     -1.95406239
C      -0.90824927     -1.47174707     -2.11674879
O      -1.59953034     -1.94501354     -1.27035622
O      -1.23289510     -1.79552424     -3.39176765
H       1.71823536     -0.19148472     -0.33743856
H      -0.03068268     -0.06470239      0.02428579
H       0.64422221     -1.51001412      0.09858145
H       0.47124161      0.10153447     -2.58310504
H       1.14432488     -1.48109329     -2.36751496
H      -0.48100988     -1.46272694     -3.91424477
11
Frame 160  Energy = -268.5728405848 Hartree
C       0.74253565     -0.61227624     -0.50345763
C       0.42889195     -0.77368846     -1.95372534
C      -0.90667665     -1.47168760     -2.12086898
O      -1.59961142     -1.94370145     -1.27186435
O      -1.23459161     -1.79717887     -3.39064724
H       1.72188400     -0.19144105     -0.32602277
H      -0.02808868     -0.06805918      0.02298639
H       0.63459635     -1.50949444      0.11420099
H       0.46635287      0.10445983     -2.58900057
H       1.14858872     -1.48230402     -2.36127211
H      -0.48177598     -1.46240672     -3.91971742
11
Frame 165  Energy = -268.5729406657 Hartree
C       0.74322674     -0.61324388     -0.50127424
C       0.42771384     -0.77388574     -1.95334977
C      -0.90516470     -1.47190297     -2.12508406
O      -1.59969909     -1.94228674     -1.27319620
O      -1.23615380     -1.79872920     -3.38971914
H       1.72562740     -0.19110025     -0.31455116
H      -0.02539429     -0.06856553      0.02121569
H       0.62646759     -1.51026056      0.12765180
H       0.46130959      0.10806193     -2.59434531
H       1.15280641     -1.48341513     -2.35570596
H      -0.48384147     -1.46256182     -3.92584369
11
Frame 170  Energy = -268.5729569118 Hartree
C       0.74376461     -0.61422174     -0.49875177
C       0.42636610     -0.77434169     -1.95289963
C      -0.90364113     -1.47236103     -2.12919716
O      -1.59969346     -1.94071441     -1.27433272
O      -1.23754555     -1.80016905     -3.38895261
H       1.72916185     -0.19049878     -0.30322962
H      -0.02304791     -0.06607494      0.01906528
H       0.61995057     -1.51164381      0.13852992
H       0.45629183      0.11220248     -2.59896327
H       1.15713554     -1.48462618     -2.35073520
H      -0.48773290     -1.46312527     -3.93262048
11
Frame 175  Energy = -268.5727442299 Hartree
C       0.74428549     -0.61514005     -0.49592066
C       0.42497535     -0.77497716     -1.95247558
C      -0.90200573     -1.47316337     -2.13329355
O      -1.59966587     -1.93900191     -1.27534689
O      -1.23879067     -1.80143649     -3.38839944
H       1.73201272     -0.18964693     -0.29214352
H      -0.02128347     -0.06045671      0.01662057
H       0.61459865     -1.51329784      0.14692199
H       0.45139926      0.11631751     -2.60233616
H       1.16162625     -1.48578289     -2.34671419
H      -0.49360709     -1.46412471     -3.93983454
11
Frame 180  Energy = -268.5729646780 Hartree
C       0.74480626     -0.61602205     -0.49271509
C       0.42366856     -0.77579942     -1.95201738
C      -0.90046520     -1.47420602     -2.13729535
O      -1.59957038     -1.93712646     -1.27623870
O      -1.23982649     -1.80250190     -3.38807406
H       1.73426084     -0.18901713     -0.28134103
H      -0.01988151     -0.05181532      0.01372390
H       0.61048450     -1.51486010      0.15244680
H       0.44666251      0.12002274     -2.60418632
H       1.16608621     -1.48697171     -2.34382022
H      -0.50100275     -1.46588471     -3.94722773
11
Frame 185  Energy = -268.5729886407 Hartree
C       0.74531298     -0.61688848     -0.48918753
C       0.42247184     -0.77671517     -1.95150538
C      -0.89906200     -1.47550987     -2.14118301
O      -1.59940785     -1.93515623     -1.27702229
O      -1.24060638     -1.80340217     -3.38799648
H       1.73588502     -0.18848234     -0.27143117
H      -0.01880431     -0.04062053      0.01065241
H       0.60777380     -1.51661115      0.15506882
H       0.44242358      0.12321848     -2.60408711
H       1.17051033     -1.48826117     -2.34222705
H      -0.50991211     -1.46857219     -3.95484946
11
Frame 190  Energy = -268.5729017936 Hartree
C       0.74577266     -0.61782417     -0.48533359
C       0.42129870     -0.77777536     -1.95100548
C      -0.89767522     -1.47711893     -2.14486438
O      -1.59924597     -1.93312024     -1.27772485
O      -1.24120256     -1.80416830     -3.38813479
H       1.73644603     -0.18831855     -0.26212140
H      -0.01804196     -0.02690443      0.00746006
H       0.60636528     -1.51871088      0.15474631
H       0.43842259      0.12543295     -2.60212164
H       1.17450953     -1.48902294     -2.34190837
H      -0.52015603     -1.47182715     -3.96270567
11
Frame 195  Energy = -268.5726658039 Hartree
C       0.74609070     -0.61879062     -0.48114971
C       0.42026088     -0.77888947     -1.95054460
C      -0.89635544     -1.47898624     -2.14839498
O      -1.59907749     -1.93098274     -1.27840877
O      -1.24157984     -1.80475725     -3.38845777
H       1.73604233     -0.18864632     -0.25356737
H      -0.01780541     -0.01100509      0.00388729
H       0.60587831     -1.52107218      0.15195590
H       0.43494615      0.12671982     -2.59826535
H       1.17785799     -1.48917448     -2.34255451
H      -0.53160008     -1.47549428     -3.97122275
11
Frame 200  Energy = -268.5726846928 Hartree
C       0.74625267     -0.61971582     -0.47653202
C       0.41940710     -0.78010800     -1.95027571
C      -0.89510561     -1.48125454     -2.15172050
O      -1.59881940     -1.92879190     -1.27899552
O      -1.24179834     -1.80527756     -3.38899467
H       1.73461874     -0.18950754     -0.24587862
H      -0.01718764      0.00635379     -0.00023266
H       0.60635583     -1.52319441      0.14638548
H       0.43195980      0.12711555     -2.59255834
H       1.17985516     -1.48844868     -2.34402481
H      -0.54364164     -1.47932206     -3.98010174
11
Frame 205  Energy = -268.5727655970 Hartree
C       0.74627542     -0.62051767     -0.47162347
C       0.41859674     -0.78149867     -1.95009328
C      -0.89398424     -1.48388794     -2.15483681
O      -1.59850853     -1.92651944     -1.27957170
O      -1.24193283     -1.80582369     -3.38975800
H       1.73203577     -0.19078581     -0.23936953
H      -0.01587641      0.02479659     -0.00499832
H       0.60784172     -1.52524955      0.13865460
H       0.42954442      0.12648514     -2.58541411
H       1.18093028     -1.48687114     -2.34621345
H      -0.55538315     -1.48334298     -3.98940016
11
Frame 210  Energy = -268.5727223091 Hartree
C       0.74617415     -0.62112263     -0.46659435
C       0.41789458     -0.78305403     -1.94993638
C      -0.89301202     -1.48682394     -2.15765306
O      -1.59818653     -1.92421254     -1.28008310
O      -1.24206854     -1.80639889     -3.39061759
H       1.72899067     -0.19251416     -0.23392938
H      -0.01410144      0.04383962     -0.01016418
H       0.61025302     -1.52722892      0.12886247
H       0.42767551      0.12518367     -2.57670345
H       1.18112377     -1.48412134     -2.34889424
H      -0.56680517     -1.48710863     -3.99941542
11
Frame 215  Energy = -268.5725096838 Hartree
C       0.74585963     -0.62149684     -0.46126464
C       0.41733430     -0.78479380     -1.94976239
C      -0.89201205     -1.48996895     -2.16005200
O      -1.59784217     -1.92171327     -1.28051127
O      -1.24221696     -1.80709050     -3.39163951
H       1.72539063     -0.19445587     -0.22969471
H      -0.01107594      0.06277484     -0.01612476
H       0.61344939     -1.52939252      0.11757178
H       0.42621561      0.12293359     -2.56636310
H       1.18063479     -1.48004563     -2.35210371
H      -0.57769125     -1.49073042     -4.01001297
11
Frame 220  Energy = -268.5724914997 Hartree
C       0.74527483     -0.62157698     -0.45577206
C       0.41688433     -0.78671095     -1.94945957
C      -0.89103660     -1.49338612     -2.16206014
O      -1.59751424     -1.91915889     -1.28090462
O      -1.24241565     -1.80778507     -3.39284870
H       1.72139372     -0.19691423     -0.22654023
H      -0.00653209      0.08076661     -0.02250229
H       0.61680921     -1.53219690      0.10532844
H       0.42533477      0.12043188     -2.55496072
H       1.17952386     -1.47489263     -2.35624339
H      -0.58806743     -1.49366503     -4.02106722
11
Frame 225  Energy = -268.5726967248 Hartree
C       0.74442228     -0.62135316     -0.45017257
C       0.41659305     -0.78874928     -1.94914366
C      -0.89017053     -1.49697149     -2.16371538
O      -1.59723410     -1.91657911     -1.28119994
O      -1.24265154     -1.80840730     -3.39424825
H       1.71804085     -0.19965520     -0.22431704
H      -0.00071399      0.09763230     -0.02939029
H       0.62054603     -1.53567929      0.09271450
H       0.42449546      0.11816258     -2.54298636
H       1.17781593     -1.46919433     -2.36089022
H      -0.59743944     -1.49615926     -4.03279919
11
Frame 230  Energy = -268.5725128214 Hartree
C       0.74334556     -0.62077112     -0.44460614
C       0.41643608     -0.79098051     -1.94876668
C      -0.88947178     -1.50072394     -2.16496839
O      -1.59698469     -1.91393184     -1.28143192
O      -1.24290539     -1.80899081     -3.39581443
H       1.71540316     -0.20262899     -0.22294181
H       0.00618182      0.11347539     -0.03667439
H       0.62419215     -1.54024867      0.08038460
H       0.42408793      0.11641453     -2.53047418
H       1.17587954     -1.46280599     -2.36562836
H      -0.60579795     -1.49827437     -4.04523132
11
Frame 235  Energy = -268.5725823472 Hartree
C       0.74206404     -0.61976256     -0.43910096
C       0.41633689     -0.79332606     -1.94822788
C      -0.88877927     -1.50459398     -2.16593397
O      -1.59680749     -1.91121936     -1.28160639
O      -1.24331068     -1.80964382     -3.39764947
H       1.71363078     -0.20562203     -0.22237609
H       0.01433424      0.12758848     -0.04452995
H       0.62764882     -1.54585258      0.06847068
H       0.42430159      0.11556071     -2.51782619
H       1.17373762     -1.45627132     -2.37066204
H      -0.61333651     -1.49969384     -4.05823694
11
Frame 240  Energy = -268.5726656034 Hartree
C       0.74046020     -0.61845535     -0.43379621
C       0.41634791     -0.79573546     -1.94752521
C      -0.88805618     -1.50853475     -2.16656818
O      -1.59658953     -1.90847139     -1.28169760
O      -1.24379277     -1.81029348     -3.39974928
H       1.71293171     -0.20840290     -0.22289344
H       0.02359657      0.13991624     -0.05272825
H       0.63058309     -1.55277711      0.05808687
H       0.42500426      0.11621561     -2.50589476
H       1.17187864     -1.44947830     -2.37614240
H      -0.62042858     -1.50078177     -4.07152956
11
Frame 245  Energy = -268.5722740242 Hartree
C       0.73851496     -0.61683409     -0.42873601
C       0.41656310     -0.79830385     -1.94665253
C      -0.88731344     -1.51259927     -2.16685254
O      -1.59625780     -1.90580724     -1.28168200
O      -1.24434888     -1.81091319     -3.40210789
H       1.71344545     -0.21120013     -0.22439060
H       0.03359731      0.15065136     -0.06059001
H       0.63276593     -1.56098335      0.04884644
H       0.42586025      0.11852382     -2.49451473
H       1.17076514     -1.44246155     -2.38246122
H      -0.62688669     -1.50169420     -4.08467556
11
Frame 250  Energy = -268.5723036600 Hartree
C       0.73634285     -0.61496976     -0.42388923
C       0.41686653     -0.80112562     -1.94547073
C      -0.88658346     -1.51665750     -2.16687753
O      -1.59593901     -1.90323085     -1.28150629
O      -1.24488139     -1.81157078     -3.40472210
H       1.71522485     -0.21419756     -0.22668509
H       0.04381456      0.15959530     -0.06780023
H       0.63438592     -1.57031323      0.04052422
H       0.42704246      0.12244266     -2.48370783
H       1.17069608     -1.43526388     -2.38943338
H      -0.63295605     -1.50192731     -4.09737761
11
Frame 255  Energy = -268.5724467571 Hartree
C       0.73410163     -0.61289360     -0.41942010
C       0.41724614     -0.80407533     -1.94394046
C      -0.88578619     -1.52068635     -2.16682689
O      -1.59567512     -1.90067547     -1.28125940
O      -1.24540334     -1.81237832     -3.40757218
H       1.71817522     -0.21729495     -0.22960678
H       0.05421044      0.16693696     -0.07416311
H       0.63515020     -1.58031119      0.03376246
H       0.42852397      0.12767593     -2.47371268
H       1.17169425     -1.42807439     -2.39697525
H      -0.63883585     -1.50220022     -4.10936736
11
Frame 260  Energy = -268.5725380731 Hartree
C       0.73172392     -0.61071276     -0.41536526
C       0.41785080     -0.80719549     -1.94217986
C      -0.88490843     -1.52463213     -2.16658157
O      -1.59549974     -1.89807246     -1.28101579
O      -1.24597086     -1.81323810     -3.41064051
H       1.72206391     -0.22071977     -0.23351985
H       0.06404562      0.17257420     -0.07904594
H       0.63506135     -1.59015434      0.02837550
H       0.42989506      0.13409349     -2.46471152
H       1.17363279     -1.42145377     -2.40514261
H      -0.64472711     -1.50272223     -4.11981062
11
Frame 265  Energy = -268.5721704618 Hartree
C       0.72924837     -0.60846301     -0.41169035
C       0.41860464     -0.81038194     -1.94032534
C      -0.88385213     -1.52849299     -2.16611685
O      -1.59547729     -1.89543689     -1.28075618
O      -1.24664948     -1.81408768     -3.41402944
H       1.72731857     -0.22451238     -0.23835236
H       0.07315432      0.17684752     -0.08227145
H       0.63430099     -1.59942045      0.02476129
H       0.43131619      0.14127322     -2.45640039
H       1.17698843     -1.41547499     -2.41393722
H      -0.65071906     -1.50334665     -4.12866948
11
Frame 270  Energy = -268.5720482000 Hartree
C       0.72675176     -0.60631533     -0.40832450
C       0.41949454     -0.81360721     -1.93832653
C      -0.88270934     -1.53233144     -2.16555604
O      -1.59551976     -1.89290752     -1.28037924
O      -1.24739411     -1.81499953     -3.41767119
H       1.73369032     -0.22911187     -0.24393668
H       0.08085326      0.18066400     -0.08361017
H       0.63254403     -1.60771454      0.02274486
H       0.43218019      0.14902410     -2.44874104
H       1.18154095     -1.41022631     -2.42336431
H      -0.65697970     -1.50421373     -4.13567978
11
Frame 275  Energy = -268.5719946384 Hartree
C       0.72438761     -0.60417022     -0.40536897
C       0.42057994     -0.81681059     -1.93619339
C      -0.88142471     -1.53608060     -2.16494529
O      -1.59568952     -1.89042066     -1.27992186
O      -1.24814278     -1.81599881     -3.42150285
H       1.74069172     -0.23425195     -0.25011205
H       0.08679828      0.18395217     -0.08301746
H       0.63007594     -1.61424538      0.02220637
H       0.43276998      0.15670435     -2.44160550
H       1.18710224     -1.40536564     -2.43301009
H      -0.66314644     -1.50506202     -4.14080583
11
Frame 280  Energy = -268.5719145214 Hartree
C       0.72211617     -0.60211381     -0.40288343
C       0.42176470     -0.81988103     -1.93377710
C      -0.87990648     -1.53974002     -2.16432599
O      -1.59592057     -1.88793953     -1.27934192
O      -1.24887053     -1.81705754     -3.42553444
H       1.74770352     -0.23985672     -0.25687703
H       0.09078956      0.18732293     -0.08057715
H       0.62698570     -1.61862822      0.02279273
H       0.43251705      0.16372740     -2.43439533
H       1.19291538     -1.40051873     -2.44256153
H      -0.66877494     -1.50579479     -4.14388345
11
Frame 285  Energy = -268.5721563912 Hartree
C       0.72004797     -0.60039772     -0.40081903
C       0.42307048     -0.82274335     -1.93122834
C      -0.87817342     -1.54326619     -2.16375083
O      -1.59611587     -1.88550869     -1.27872631
O      -1.24968132     -1.81818680     -3.42960405
H       1.75431850     -0.24621250     -0.26399344
H       0.09294586      0.19088130     -0.07616130
H       0.62318802     -1.62043772      0.02438371
H       0.43136806      0.16964939     -2.42701027
H       1.19876714     -1.39568073     -2.45163847
H      -0.67347851     -1.50621516     -4.14550240
11
Frame 290  Energy = -268.5721770438 Hartree
C       0.71821467     -0.59898238     -0.39926033
C       0.42454656     -0.82538968     -1.92857728
C      -0.87631456     -1.54665345     -2.16315954
O      -1.59634162     -1.88314667     -1.27805926
O      -1.25056476     -1.81942478     -3.43369473
H       1.76022903     -0.25374254     -0.27134819
H       0.09301057      0.19477051     -0.06964480
H       0.61882178     -1.61938434      0.02701348
H       0.42931536      0.17436765     -2.41990777
H       1.20471418     -1.39107431     -2.45962891
H      -0.67733514     -1.50582130     -4.14575108
11
Frame 295  Energy = -268.5722634074 Hartree
C       0.71667302     -0.59786855     -0.39807766
C       0.42615643     -0.82774502     -1.92594711
C      -0.87424155     -1.54989513     -2.16261391
O      -1.59665185     -1.88076032     -1.27729519
O      -1.25151770     -1.82071199     -3.43773915
H       1.76504105     -0.26208342     -0.27921689
H       0.09110946      0.19891443     -0.06114530
H       0.61379208     -1.61559422      0.03073144
H       0.42671416      0.17728814     -2.41294169
H       1.21076340     -1.38649616     -2.46690390
H      -0.68014918     -1.50482032     -4.14515252
11
Frame 300  Energy = -268.5723422697 Hartree
C       0.71542322     -0.59703805     -0.39724968
C       0.42792458     -0.82987274     -1.92334298
C      -0.87195983     -1.55294546     -2.16222125
O      -1.59706983     -1.87840766     -1.27644042
O      -1.25258588     -1.82210259     -3.44177320
H       1.76850318     -0.27105953     -0.28711192
H       0.08726477      0.20266043     -0.05051356
H       0.60791891     -1.60961050      0.03560479
H       0.42392625      0.17840797     -2.40602529
H       1.21688263     -1.38181910     -2.47292321
H      -0.68167408     -1.50302136     -4.14389292
