7
maple-route1-mmgb-reference-mlip-reweighting-v1 phase=gas replicate=repeat-0 sample=0
C -1.012462932628074 -0.427944366288575 -1.072932162996647
N -1.808652859302105 -0.997114790865385 0.127214474016772
O -1.633218892600246 -2.204634957276265 0.305426813200113
O -2.628289109216411 -0.228547357642956 0.676711633979524
H -0.014468867586095 -0.883096621285815 -1.130633207102811
H -0.944480378490284 0.663034884573523 -0.990956931669866
H -1.537797415291182 -0.717062038738360 -2.016510182464426
7
maple-route1-mmgb-reference-mlip-reweighting-v1 phase=gas replicate=repeat-0 sample=1
C -1.096175359344107 -0.375061500244431 -1.102830139324829
N -1.806225076401931 -1.007495757199606 0.100455876427469
O -1.644819198762603 -2.183543719695918 0.329857263092668
O -2.539319642842678 -0.291396486208855 0.697319910637080
H -0.162621683808093 -0.937479961550868 -1.231661638969003
H -0.907995312333022 0.720172938509312 -0.951480129771687
H -1.701413801986300 -0.548702126204724 -1.948691287248759
7
maple-route1-mmgb-reference-mlip-reweighting-v1 phase=gas replicate=repeat-0 sample=2
C -1.168281187347002 -0.391085867867320 -1.161310227684971
N -1.820661388794093 -1.013670294640589 0.084448782968301
O -1.595216549455952 -2.219980543752661 0.290891563735296
O -2.503190086997202 -0.235202561027578 0.801695134829743
H -0.334874136570911 -1.035054721630162 -1.428536661623757
H -0.828778576666993 0.601750824770926 -0.870706259371962
H -1.914526743644758 -0.357444036317822 -1.939863126221265
7
maple-route1-mmgb-reference-mlip-reweighting-v1 phase=gas replicate=repeat-0 sample=3
C -1.238207537128584 -0.393713449412708 -1.196493082902607
N -1.830067528574712 -1.018106962038398 0.053552567247008
O -1.595135486166311 -2.165950801285881 0.285088514481477
O -2.419839713338965 -0.284906440981979 0.863113813654673
H -0.551460009903672 -1.113084859746932 -1.658799440001648
H -0.762158345046627 0.465418559868119 -0.805935160970802
H -2.114035376644646 -0.119990527956978 -1.820043540564989
7
maple-route1-mmgb-reference-mlip-reweighting-v1 phase=gas replicate=repeat-0 sample=4
C -1.314938101231840 -0.360680906324422 -1.203011588389784
N -1.815218792444401 -1.020277092766575 0.060316728881364
O -1.589919075347059 -2.238775006657256 0.256410849675668
O -2.364159381877318 -0.240816208073093 0.889894068938822
H -0.790079420682133 -1.156480768389000 -1.751428899416789
H -0.670067563524508 0.461748965002081 -0.839899265680650
H -2.226707748027628 0.020442192233289 -1.687150648273461
7
maple-route1-mmgb-reference-mlip-reweighting-v1 phase=gas replicate=repeat-0 sample=5
C -1.343145723446408 -0.370825059533792 -1.224913629392042
N -1.776346180377750 -0.986417433133242 0.079047772829163
O -1.626188679888630 -2.191356146636867 0.196284029159412
O -2.334925782777466 -0.299608403862536 0.956483718342523
H -0.972250200254208 -1.261632713597735 -1.732268526109115
H -0.535835334185165 0.394849521081804 -0.998120001277845
H -2.272907337352920 0.033366844826554 -1.640934202223563
7
maple-route1-mmgb-reference-mlip-reweighting-v1 phase=gas replicate=repeat-0 sample=6
C -1.410651930405072 -0.310085715137671 -1.226587368181955
N -1.717101197340909 -1.001024077859950 0.097831782140234
O -1.654241306781060 -2.259126226327798 0.178173903423939
O -2.291282972883563 -0.280531535869774 0.958511529944838
H -1.126342948459677 -1.157310837620343 -1.885542245721682
H -0.574194561857810 0.349633993213894 -0.995218014366103
H -2.355626926226040 0.217276002590870 -1.467841427402706
7
maple-route1-mmgb-reference-mlip-reweighting-v1 phase=gas replicate=repeat-0 sample=7
C -1.446307988926005 -0.341242163738493 -1.211695990465887
N -1.702979639054871 -0.996124767243243 0.096779266765092
O -1.677200520983899 -2.207220604272218 0.137983492313037
O -2.252358218563685 -0.307763878452708 0.985402171475684
H -1.184931875787744 -1.145071226532544 -1.928841257987115
H -0.557005427369558 0.203296044291139 -0.981550351100736
H -2.343783759108121 0.260948148858231 -1.389081845760940
7
maple-route1-mmgb-reference-mlip-reweighting-v1 phase=gas replicate=repeat-0 sample=8
C -1.436452998681298 -0.309094223960100 -1.244544801282206
N -1.741179280839354 -1.002701950640389 0.091829491777285
O -1.679952152659609 -2.234901971055966 0.126775379041543
O -2.229366223036968 -0.304349324253255 1.037916052831216
H -1.214958762006999 -1.095389337148203 -1.945273355149579
H -0.464709276588533 0.222578563094001 -1.097376919486913
H -2.308819880216625 0.283830066693370 -1.462469637238480
7
maple-route1-mmgb-reference-mlip-reweighting-v1 phase=gas replicate=repeat-0 sample=9
C -1.441459765731014 -0.279579283953688 -1.156217173753082
N -1.836739884795994 -1.024927944478905 0.054213046380165
O -1.650492700500694 -2.248325708770275 0.127871673791905
O -2.168644957969243 -0.301049831563092 0.993039520488690
H -1.202923877016026 -1.031290750611487 -1.891635819151951
H -0.492470048535210 0.289037353375695 -1.022731821055312
H -2.335110907242143 0.276011339094879 -1.425590243394877
7
maple-route1-mmgb-reference-mlip-reweighting-v1 phase=gas replicate=repeat-0 sample=10
C -1.400705068437575 -0.297801828773581 -1.210605953718351
N -1.889818210650058 -1.023472523545243 0.055283568310822
O -1.660911203842553 -2.202770368699703 0.104184848808791
O -2.156418871338010 -0.333049823555928 1.072531434993994
H -1.081829245223282 -1.046816112122364 -1.983115267873086
H -0.490865284483424 0.217484228453784 -1.020740138286759
H -2.226274156494538 0.350604197260823 -1.592644963526498
7
maple-route1-mmgb-reference-mlip-reweighting-v1 phase=gas replicate=repeat-0 sample=11
C -1.419393835164102 -0.273216872114732 -1.140526915377808
N -1.847892865669172 -1.039047643202212 0.066656132497482
O -1.718540207277326 -2.237152390359203 0.053237232663627
O -2.122185254767647 -0.318472236273658 1.039414898324403
H -1.094133996807176 -0.907487506543850 -1.988087690774129
H -0.501639636091519 0.212405753643664 -0.848294015246218
H -2.184929182974794 0.451317211713682 -1.426960761834368
7
maple-route1-mmgb-reference-mlip-reweighting-v1 phase=gas replicate=repeat-0 sample=12
C -1.395111006800113 -0.213231324422195 -1.150771861570922
N -1.806191724586319 -1.029545207746977 0.087538919957302
O -1.792072213258984 -2.243924618019243 0.012331515817649
O -2.105667276558593 -0.376660300549312 1.076857474187817
H -1.144392746286445 -0.858911744192468 -1.959735265386576
H -0.429493365102368 0.348955356792297 -0.978889590494587
H -2.169364435027688 0.456946631382498 -1.441907901830714
7
maple-route1-mmgb-reference-mlip-reweighting-v1 phase=gas replicate=repeat-0 sample=13
C -1.374750049478110 -0.210873265142290 -1.113275715807589
N -1.770057330936202 -1.026334750681646 0.107887273274956
O -1.859353479758641 -2.222126676651177 -0.077011075398127
O -2.074263681566983 -0.401528550471246 1.122675464320319
H -1.227420924388473 -0.873403916423588 -1.952748206648044
H -0.458537345131866 0.385757030231849 -1.070149894069592
H -2.230477989694186 0.406093032065454 -1.393561908064467
7
maple-route1-mmgb-reference-mlip-reweighting-v1 phase=gas replicate=repeat-0 sample=14
C -1.386600068147171 -0.147223425141823 -1.075433709505625
N -1.748824130311475 -1.058177615978207 0.093321212097015
O -1.932297172972748 -2.228362848110212 -0.090368268338663
O -2.010075958400331 -0.437294294888194 1.101117744762246
H -1.151762002775685 -0.691302872833389 -2.009861215073706
H -0.546843208044649 0.432991999304543 -0.817278093099109
H -2.240204178819996 0.534243264221360 -1.291567151902779
7
maple-route1-mmgb-reference-mlip-reweighting-v1 phase=gas replicate=repeat-0 sample=15
C -1.368600773626554 -0.153661447876558 -1.098469116508720
N -1.773565714912059 -1.039750858982549 0.097739512849212
O -1.977573025403731 -2.191951676756786 -0.186546085733030
O -1.970003769344072 -0.478196830265034 1.213648393116541
H -1.107169393510039 -0.773135935543960 -1.979719403322926
H -0.474080192821062 0.400566968415527 -0.792534986633495
H -2.143486882511979 0.549338265439473 -1.387783526025779
7
maple-route1-mmgb-reference-mlip-reweighting-v1 phase=gas replicate=repeat-0 sample=16
C -1.332774355601676 -0.105299472596244 -1.000771516105999
N -1.801156563384157 -1.034751167011285 0.060583936759496
O -2.048551346118267 -2.192759103109284 -0.205708438815822
O -1.907009005900009 -0.532607816326165 1.164431649351885
H -1.149284111641606 -0.668740350429026 -1.915959719633051
H -0.398045159283290 0.431137557323549 -0.631796715949102
H -2.092087028803041 0.640271977417699 -1.177147756611186
7
maple-route1-mmgb-reference-mlip-reweighting-v1 phase=gas replicate=repeat-0 sample=17
C -1.271106219266403 -0.062054886377598 -1.012826232768766
N -1.803099663464972 -1.017036870755123 0.064459634265374
O -2.119294540834222 -2.185189408110418 -0.277023746740109
O -1.883219357476725 -0.593456877060394 1.243157404379111
H -1.251211428247212 -0.636111967193764 -1.931614450453583
H -0.318917184740496 0.384113497668484 -0.688420530194471
H -2.022287401763732 0.749115675489450 -1.135355559836875
7
maple-route1-mmgb-reference-mlip-reweighting-v1 phase=gas replicate=repeat-0 sample=18
C -1.265926255807246 -0.089015076237657 -0.940977036013557
N -1.794800754896869 -1.008149886942372 0.054639355919639
O -2.160026171371149 -2.092306747243640 -0.348241418105435
O -1.854601120381929 -0.662944404906674 1.249247023558757
H -1.298750589101165 -0.693247748083910 -1.881152605749625
H -0.339793414915562 0.229646811118031 -0.551686824420987
H -1.945324951868490 0.783344551506626 -1.016418236842001
7
maple-route1-mmgb-reference-mlip-reweighting-v1 phase=gas replicate=repeat-0 sample=19
C -1.186516508324903 0.016996288426998 -0.913684976924733
N -1.774954733507310 -1.046522464222605 0.037589327857371
O -2.299834589746653 -2.133193850156909 -0.372695506736657
O -1.813129189170106 -0.693131595623616 1.251382103680570
H -1.153296297090372 -0.452456789947310 -1.914557804759229
H -0.266428334332706 0.296498792277199 -0.388663155031096
H -1.818186280757364 0.884685467909759 -0.884963659334823
7
maple-route1-mmgb-reference-mlip-reweighting-v1 phase=gas replicate=repeat-0 sample=20
C -1.180416353920091 -0.079585590179672 -0.899289012881691
N -1.746906846796915 -1.033090887112061 0.061166969051052
O -2.324309158853925 -1.967666325199867 -0.444269594255407
O -1.814720903620132 -0.776127356411645 1.288364148604866
H -1.156774246572140 -0.622675058407168 -1.819055148597553
H -0.238710327737299 0.271325898742009 -0.404592026388977
H -1.894066763729257 0.721956354248632 -0.913047043054237
7
maple-route1-mmgb-reference-mlip-reweighting-v1 phase=gas replicate=repeat-0 sample=21
C -1.078888391999423 -0.005382724443312 -0.849719243570044
N -1.749753556358566 -1.066728332822554 0.057314998679199
O -2.450024217818008 -1.985718649226450 -0.461015522659975
O -1.781397562619034 -0.803162646245121 1.266610153755311
H -0.913155559618186 -0.534078298782433 -1.781437544615771
H -0.230290720113964 0.417889142905129 -0.321146060620105
H -1.846820908025079 0.786251325182087 -0.969425054997022
7
maple-route1-mmgb-reference-mlip-reweighting-v1 phase=gas replicate=repeat-0 sample=22
C -1.092918684531069 -0.034418083752345 -0.791680150595283
N -1.788404851694987 -1.049137571946297 0.050920643066544
O -2.476425216826893 -1.900234099970625 -0.499995001264798
O -1.720610796444013 -0.870190599050975 1.257686649028199
H -0.682654260177394 -0.649539706260157 -1.633592609760934
H -0.337249826401109 0.386280466319887 -0.164193963604675
H -1.818272493427193 0.747163297462625 -1.111609503905931
7
maple-route1-mmgb-reference-mlip-reweighting-v1 phase=gas replicate=repeat-0 sample=23
C -1.039491303502364 -0.052288078272201 -0.842576462445914
N -1.867434794296749 -0.993152445027356 0.080312816283375
O -2.487608370221762 -1.828606280679540 -0.544122498347500
O -1.699366419090340 -0.978420177310123 1.326195862754673
H -0.469363517491605 -0.659020323083357 -1.592418905017901
H -0.342019147666559 0.508390489414576 -0.177819836600682
H -1.726478993929357 0.640544546682517 -1.338136491429637
7
maple-route1-mmgb-reference-mlip-reweighting-v1 phase=gas replicate=repeat-0 sample=24
C -0.972138314943717 -0.054701783025760 -0.724705505803764
N -1.905093169346644 -0.992842199102299 0.058759487966430
O -2.584953693707582 -1.817835909078150 -0.533313629969415
O -1.634163601026876 -0.992644487567061 1.215779179026750
H -0.193610777901587 -0.601593648421534 -1.276041093226004
H -0.475438950628382 0.648320838565175 0.018607417545894
H -1.642730034914242 0.518512256202637 -1.376908549063889
7
maple-route1-mmgb-reference-mlip-reweighting-v1 phase=gas replicate=repeat-0 sample=25
C -0.970244499546574 -0.092288908591953 -0.784023821220415
N -1.866129994072528 -1.013013967541643 0.091247834910117
O -2.604999969147164 -1.693276422393357 -0.573222856570228
O -1.652032105699784 -1.051319026823943 1.295098148706721
H -0.128121008905842 -0.712427491463707 -1.102476487123650
H -0.548092698406080 0.746393392295012 -0.231728932793649
H -1.601152642289415 0.208858882537531 -1.669067476352549
7
maple-route1-mmgb-reference-mlip-reweighting-v1 phase=gas replicate=repeat-0 sample=26
C -0.891697225436850 -0.133002573345283 -0.786439539237465
N -1.857271647446596 -1.028663965907306 0.072055023008023
O -2.718685600042789 -1.633417376368543 -0.523381219925684
O -1.629202627642441 -1.060177664591132 1.255689393065893
H 0.058559967607023 -0.678368561981022 -0.869585702347769
H -0.612525972434296 0.754097716129468 -0.248249284105903
H -1.340622881655508 0.076110029207251 -1.757717965028594
7
maple-route1-mmgb-reference-mlip-reweighting-v1 phase=gas replicate=repeat-0 sample=27
C -0.853550189323339 -0.246715066583600 -0.766934908240051
N -1.861106673465549 -1.016457908608274 0.062257390438281
O -2.795237549173708 -1.555941199856282 -0.520786272002963
O -1.583677378466266 -1.045747554222410 1.236559720764331
H 0.115633464920852 -0.722808118132985 -0.728680763482137
H -0.684950082505386 0.696664188386984 -0.236894559525215
H -1.238124989303613 -0.098872805928017 -1.746308934434323
7
maple-route1-mmgb-reference-mlip-reweighting-v1 phase=gas replicate=repeat-0 sample=28
C -0.809187597609767 -0.317877891748352 -0.867470413963066
N -1.852572107290101 -0.979405229883082 0.091378571819432
O -2.806710394342437 -1.447478801849547 -0.501928770147626
O -1.619279837928989 -1.113860804542872 1.301343432878432
H 0.114101149522968 -0.840336710919019 -0.848035945266301
H -0.578918568717260 0.680427761072896 -0.509784758490152
H -1.242515386840469 -0.276924112216966 -1.879919352794940
7
maple-route1-mmgb-reference-mlip-reweighting-v1 phase=gas replicate=repeat-0 sample=29
C -0.753708975148424 -0.388959624214763 -0.764979231795905
N -1.863039249966747 -0.960609586396793 0.056004200495989
O -2.905623450933440 -1.397328179033001 -0.481940933144920
O -1.568477117345314 -1.104200306555672 1.212394722217756
H 0.123144040595024 -0.996330285333838 -0.584578814019988
H -0.508170556237302 0.625621222234672 -0.445098701174529
H -1.067667719855329 -0.429941637488127 -1.835863035170290
7
maple-route1-mmgb-reference-mlip-reweighting-v1 phase=gas replicate=repeat-0 sample=30
C -0.741982340880441 -0.443623941790694 -0.833151829366719
N -1.837091272422779 -0.956591295728714 0.071306460219598
O -2.894274975946165 -1.300229637838704 -0.494007994673144
O -1.611229361444812 -1.148898797103806 1.276671526154043
H 0.183200767080358 -1.054997476525945 -0.613987984446223
H -0.546972787510433 0.611467675947789 -0.615070889136757
H -1.087430319261802 -0.602068718089914 -1.865265872197817
7
maple-route1-mmgb-reference-mlip-reweighting-v1 phase=gas replicate=repeat-0 sample=31
C -0.710659413809135 -0.525228466048695 -0.833315024115669
N -1.821613675047224 -0.981055464206184 0.056605334008078
O -2.926283609219896 -1.208011992484318 -0.491377438026917
O -1.621825821854286 -1.149975477271135 1.278315210583737
H 0.227987477846899 -1.052747644585106 -0.494118285223741
H -0.629331514158291 0.560752565413982 -0.569648808583258
H -0.960557464006003 -0.691821058705788 -1.894696840306859
7
maple-route1-mmgb-reference-mlip-reweighting-v1 phase=gas replicate=repeat-0 sample=32
C -0.639195720928785 -0.614519346327286 -0.774761248276785
N -1.815997422241283 -1.041812099648171 0.032462572914545
O -2.980927719960182 -1.104653065688527 -0.485090680091583
O -1.638943098718873 -1.110999254021276 1.238519747809214
H 0.222390504857839 -1.131781437603659 -0.341659309175352
H -0.564692349890551 0.484328249408870 -0.604162716366489
H -0.818208251417453 -0.880273860128656 -1.844992818835762
7
maple-route1-mmgb-reference-mlip-reweighting-v1 phase=gas replicate=repeat-0 sample=33
C -0.643015475128503 -0.715274305045338 -0.811128136425536
N -1.800423568160285 -1.065840038276266 0.062000296329641
O -2.915667120157698 -0.975235860888131 -0.527826035076055
O -1.709547000270357 -1.114340914500093 1.300963979108910
H 0.217173768519981 -1.209531860210622 -0.418468106289446
H -0.540018141239935 0.360940751560920 -0.879293960790353
H -0.921564279012514 -1.151681821200782 -1.778652818771400
7
maple-route1-mmgb-reference-mlip-reweighting-v1 phase=gas replicate=repeat-0 sample=34
C -0.582632715137947 -0.827996113955560 -0.766414386230426
N -1.827133769926033 -1.024657641812349 0.040140921987683
O -2.974332674147612 -0.901956191324865 -0.506053642363723
O -1.694832937646475 -1.113743627441804 1.244717436664198
H 0.200767389473581 -1.183230735288683 -0.109277811271324
H -0.473163108906097 0.207759919976873 -0.978761716178322
H -0.611910542741918 -1.419438875009969 -1.660750132046674
7
maple-route1-mmgb-reference-mlip-reweighting-v1 phase=gas replicate=repeat-0 sample=35
C -0.595473098342397 -0.943522837917904 -0.790582501992675
N -1.824334370185368 -0.950441205652930 0.068316804896753
O -2.924567538789042 -0.823807855767746 -0.536457294931626
O -1.733731166067305 -1.145471375173184 1.276030979184530
H 0.214088089363220 -1.135220348953853 -0.082774148432739
H -0.523375840703496 0.042269590001640 -1.229332212661580
H -0.644359303410229 -1.694051640992869 -1.553744890233910
7
maple-route1-mmgb-reference-mlip-reweighting-v1 phase=gas replicate=repeat-0 sample=36
C -0.591008179044960 -1.042044836077457 -0.780344257205605
N -1.816840592653012 -0.884399101091678 0.095126378367835
O -2.894760323951471 -0.749986626310312 -0.554783608529694
O -1.770362920550284 -1.175951116233624 1.273032341376461
H 0.309013137238338 -1.144976836716040 -0.158396458427048
H -0.582641677972106 -0.140181040144137 -1.452283929337156
H -0.725660479042970 -1.941322822285311 -1.411470228518617
7
maple-route1-mmgb-reference-mlip-reweighting-v1 phase=gas replicate=repeat-0 sample=37
C -0.575840528671510 -1.123413685973587 -0.725147768210950
N -1.836035447438224 -0.883879074554858 0.073726256928640
O -2.919428689335279 -0.642291677162838 -0.531327441903539
O -1.753157631504881 -1.192740497674778 1.208124208232902
H 0.288607295164977 -1.117482523351936 -0.017213390451018
H -0.451590021580714 -0.411972291432284 -1.574889102636202
H -0.628632937555921 -2.177075079194136 -1.123422677960193
7
maple-route1-mmgb-reference-mlip-reweighting-v1 phase=gas replicate=repeat-0 sample=38
C -0.620147010231075 -1.171108125997286 -0.801970709576808
N -1.838953624332916 -0.932785151626543 0.097634275032700
O -2.808813634643912 -0.568781749566956 -0.573723933025831
O -1.823137346804886 -1.181044470968152 1.304494388653108
H 0.288616210173353 -0.965658482364181 -0.177607890321249
H -0.633969347506867 -0.602472504150346 -1.725205290949393
H -0.525904854420785 -2.247821188749763 -1.078986511607249
7
maple-route1-mmgb-reference-mlip-reweighting-v1 phase=gas replicate=repeat-0 sample=39
C -0.586244774139943 -1.252736657210509 -0.716564191926785
N -1.869679328022943 -0.975509480090454 0.069573350201163
O -2.826451839472779 -0.493809162247984 -0.557652705558184
O -1.808436057737163 -1.148276605245821 1.229736759749732
H 0.243577436576569 -0.857151722446198 -0.149802850139550
H -0.657281229681283 -0.808450407189719 -1.710679999997859
H -0.382332250504503 -2.298784548095673 -0.809100106146110
7
maple-route1-mmgb-reference-mlip-reweighting-v1 phase=gas replicate=repeat-0 sample=40
C -0.587891285012894 -1.299918584137449 -0.700874106104736
N -1.891752955028224 -1.015862151356272 0.062525759384782
O -2.791386573334075 -0.425437458762050 -0.592315599015961
O -1.820035226893293 -1.133702365877874 1.253317171769868
H 0.206191148334926 -0.731494503850354 -0.288062119545150
H -0.749131340598248 -1.096485340849837 -1.773858455219319
H -0.299034442898982 -2.315812596102874 -0.525983017018618
7
maple-route1-mmgb-reference-mlip-reweighting-v1 phase=gas replicate=repeat-0 sample=41
C -0.641463725055557 -1.389110567504698 -0.732684582299166
N -1.879400781425377 -1.000287389899801 0.071432908927339
O -2.672775492620342 -0.380316965253209 -0.596231249899216
O -1.901760902094078 -1.108058474886818 1.276118687522149
H 0.139945603077734 -0.647217433756701 -0.590949995113684
H -0.900145875929053 -1.483680086722930 -1.780046308838003
H -0.205237752345493 -2.293941926014166 -0.257080563134592
7
maple-route1-mmgb-reference-mlip-reweighting-v1 phase=gas replicate=repeat-0 sample=42
C -0.631324080044701 -1.544299550063770 -0.641088531722993
N -1.883011859027337 -0.957658394738979 0.047946868069929
O -2.691291320532327 -0.255686869016790 -0.624565662044538
O -1.888923453054587 -1.122844519756839 1.234752557473295
H 0.106829129616073 -0.730124237953227 -0.798689879558694
H -0.900269473262702 -1.986712039627726 -1.602352520299719
H -0.146897587177285 -2.198334963883284 0.118088972377673
7
maple-route1-mmgb-reference-mlip-reweighting-v1 phase=gas replicate=repeat-0 sample=43
C -0.710910128528119 -1.609723692036358 -0.668438881493886
N -1.839207636892718 -0.937379555404300 0.072089475245880
O -2.547901066212844 -0.234471423885247 -0.640169139312109
O -1.980765787019026 -1.097516098820427 1.266548372914675
H -0.143063121198264 -0.831380150660007 -1.211109437633633
H -1.205017063428550 -2.267704951090260 -1.418871817471773
H -0.059763853653466 -2.066624067134250 0.076570239605334
7
maple-route1-mmgb-reference-mlip-reweighting-v1 phase=gas replicate=repeat-0 sample=44
C -0.745147934232459 -1.733240585862761 -0.652542034212201
N -1.804164396492914 -0.893661213614482 0.063438971750617
O -2.512649944249385 -0.128464627999196 -0.646069761997527
O -2.008483595305841 -1.114688574455340 1.260051925424796
H -0.332464523316494 -1.156761425623430 -1.471087007229167
H -1.294596100331110 -2.590899505434128 -1.048720654719394
H 0.007870380768346 -1.967883611476246 0.103438596676189
7
maple-route1-mmgb-reference-mlip-reweighting-v1 phase=gas replicate=repeat-0 sample=45
C -0.828738711450487 -1.801666660304923 -0.624463150376006
N -1.782979068481638 -0.881873127032380 0.047759011161740
O -2.443712297475237 -0.072977807969219 -0.627362272433831
O -2.015314103357721 -1.113517037687252 1.224085530148057
H -0.619111624401744 -1.386993441368109 -1.619398071902412
H -1.319123981217959 -2.763757569386433 -0.684348237012786
H 0.039769962149206 -1.815050501680839 0.048437845909465
7
maple-route1-mmgb-reference-mlip-reweighting-v1 phase=gas replicate=repeat-0 sample=46
C -0.881824387434613 -1.866616248327106 -0.672745043409314
N -1.797057457892649 -0.904816064571329 0.056881357150083
O -2.338532525572525 -0.036135970413559 -0.652695975152260
O -2.058296805733998 -1.068754294369518 1.290599275774430
H -0.968993950274769 -1.585691973463770 -1.742340838324958
H -1.213922671746446 -2.894318096169804 -0.475503820125533
H 0.115802786880486 -1.688342097550716 -0.255252008052527
7
maple-route1-mmgb-reference-mlip-reweighting-v1 phase=gas replicate=repeat-0 sample=47
C -0.915739026314169 -1.942734039747198 -0.588000686699460
N -1.846944268623118 -0.925808248108354 0.013415320939168
O -2.287637393647661 0.033178701816806 -0.629482144615507
O -2.034668601653323 -1.043990190592026 1.215831491578136
H -1.198197782802990 -1.986473971204885 -1.648031624718775
H -1.052157558208283 -2.893885216213790 -0.027863930154936
H 0.106529245240440 -1.584764899377114 -0.377029913232198
7
maple-route1-mmgb-reference-mlip-reweighting-v1 phase=gas replicate=repeat-0 sample=48
C -0.949688523625782 -1.923863225462145 -0.608984511656559
N -1.912105865294156 -0.960804350738842 0.020351064371007
O -2.186752511279862 0.017286582520705 -0.685636387319720
O -2.049479510205293 -1.019048047177422 1.289905516067571
H -1.423591071881573 -2.209351662649532 -1.559998832585130
H -0.797120935128835 -2.734028012489587 0.104885190796538
H 0.019032690591090 -1.404032502208548 -0.726735923098922
7
maple-route1-mmgb-reference-mlip-reweighting-v1 phase=gas replicate=repeat-0 sample=49
C -0.951506895956359 -1.981137888771081 -0.606854260456235
N -1.880153942880803 -0.941167699506297 0.021588929904002
O -2.180917087736687 0.015764584544803 -0.638664987850310
O -2.078511780065097 -0.981197192219699 1.242683816223328
H -1.573083031835642 -2.475352980034875 -1.370758340163297
H -0.560309177249034 -2.599784071570303 0.191760838088916
H -0.119866998939961 -1.439185329054599 -1.041390081958811
7
maple-route1-mmgb-reference-mlip-reweighting-v1 phase=gas replicate=repeat-0 sample=50
C -0.996067186540161 -2.002498003902530 -0.560170487714117
N -1.823167877189454 -0.882410134182165 0.037774904601137
O -2.174726396315870 0.063436099418590 -0.694894527034913
O -2.087041192964712 -1.055521549407584 1.242485568865952
H -1.732690437963927 -2.654013068153978 -1.047368902853318
H -0.394924039083869 -2.443743751578346 0.243636859231241
H -0.350278654018440 -1.557700227149942 -1.291841954447479
7
maple-route1-mmgb-reference-mlip-reweighting-v1 phase=gas replicate=repeat-0 sample=51
C -1.027064726997335 -2.034826741605799 -0.615559043885895
N -1.749500896961162 -0.843400806650898 0.079501107443866
O -2.135339843516564 0.002574035565789 -0.654100011677316
O -2.160893926001501 -0.995747764716534 1.225177624453870
H -1.769653727393655 -2.770534594078647 -0.865339706340703
H -0.198058806390999 -2.392572081090233 0.034928938733393
H -0.618272460200551 -1.624843586242282 -1.561480326652380
7
maple-route1-mmgb-reference-mlip-reweighting-v1 phase=gas replicate=repeat-0 sample=52
C -1.068182522083934 -2.057170140001534 -0.530385871110930
N -1.752378065438093 -0.823579602326238 0.055012600814778
O -2.092722591834046 0.068379074922481 -0.705897768984919
O -2.160244703948398 -1.050360639318100 1.211837892643909
H -1.752979185144579 -2.907253335668051 -0.492801782300014
H -0.166408333270807 -2.220098560559412 0.077802558810293
H -0.826276640745678 -1.845425050504300 -1.614633779959894
7
maple-route1-mmgb-reference-mlip-reweighting-v1 phase=gas replicate=repeat-0 sample=53
C -1.050397661817271 -2.085937363598519 -0.542475007804077
N -1.836904990547100 -0.878320706788757 0.026730455117765
O -1.993376758731441 0.056475376929408 -0.670903269094993
O -2.204252781393282 -0.962107959392075 1.208255548490352
H -1.575981184730449 -3.050701573534695 -0.294315181738965
H -0.062455709208625 -2.056377271804323 -0.078395494006985
H -1.015553878284952 -1.983012378609366 -1.630002307282374
7
maple-route1-mmgb-reference-mlip-reweighting-v1 phase=gas replicate=repeat-0 sample=54
C -1.046798391175223 -2.078422149213516 -0.482455795102008
N -1.923873780144550 -0.913030323118298 -0.011325765108878
O -1.895806527048521 0.076530005670792 -0.695618283579339
O -2.230764009672358 -0.960172259003063 1.208160264939034
H -1.414754961023295 -3.040650385103824 -0.048199699097796
H -0.001680430762635 -1.892976043438425 -0.197322688166367
H -1.203311795257636 -2.110105287119409 -1.547194352575823
7
maple-route1-mmgb-reference-mlip-reweighting-v1 phase=gas replicate=repeat-0 sample=55
C -1.071840400461806 -2.094203234877718 -0.429730158407247
N -1.937220462002727 -0.920998455712053 -0.036156099019490
O -1.836172777509848 0.098590235127027 -0.676611593870110
O -2.259465696325002 -0.964130581931653 1.158202469411688
H -1.290177778874505 -2.954293272619441 0.178091707637493
H -0.011842840712518 -1.798262628839955 -0.286580577292530
H -1.329868299266958 -2.282860097386679 -1.483674775704767
7
maple-route1-mmgb-reference-mlip-reweighting-v1 phase=gas replicate=repeat-0 sample=56
C -1.087063469988381 -2.129263218952496 -0.494958413315311
N -1.861923667729470 -0.905538991084042 0.010580812904881
O -1.806294352507185 0.078708175277678 -0.680625306039084
O -2.343159005307817 -0.925578991507738 1.184491389339684
H -1.140307137343089 -2.941588082220363 0.200596964986365
H -0.045489239064702 -1.802186976224660 -0.520091406541056
H -1.463431141513792 -2.386013329400409 -1.505021603467019
7
maple-route1-mmgb-reference-mlip-reweighting-v1 phase=gas replicate=repeat-0 sample=57
C -1.190106010081239 -2.145388726129931 -0.454820351489808
N -1.712453490815142 -0.853384476050893 0.063702298586553
O -1.810098267923716 0.108460297002952 -0.704885357900073
O -2.362364672489701 -0.980337238533570 1.120523488424754
H -1.197079243619339 -2.900712391739822 0.374736428590918
H -0.166909907592895 -1.950336164104148 -0.693322704367065
H -1.779959766910075 -2.408961725234053 -1.329807331258441
7
maple-route1-mmgb-reference-mlip-reweighting-v1 phase=gas replicate=repeat-0 sample=58
C -1.207637315336024 -2.173989374823662 -0.500275745931821
N -1.680066137961712 -0.855363976480031 0.094265488286932
O -1.774738868034924 0.084719496738049 -0.674170956488121
O -2.402007747225815 -0.930298912309088 1.115501319335981
H -1.178718920330677 -2.940033615006252 0.298507147179398
H -0.204821247472670 -2.031889662996370 -0.947232463620521
H -1.939180446646052 -2.343048992399818 -1.285616934197483
7
maple-route1-mmgb-reference-mlip-reweighting-v1 phase=gas replicate=repeat-0 sample=59
C -1.257558514667060 -2.170455070341913 -0.512690601094913
N -1.802026920476492 -0.898698656758120 0.032799602046346
O -1.658379584296547 0.117433697850680 -0.652341798537523
O -2.370246496663939 -0.931983932438231 1.163426207255493
H -1.146795049117285 -2.865587835404930 0.293484383634472
H -0.251673477490162 -1.951687108922666 -1.015507336422985
H -1.987471833748368 -2.435337044239595 -1.308913151500341
7
maple-route1-mmgb-reference-mlip-reweighting-v1 phase=gas replicate=repeat-0 sample=60
C -1.322522006299591 -2.227928785479163 -0.523157824089184
N -1.888771155056329 -0.895444943181032 -0.021722805847843
O -1.592473898854996 0.157601562605414 -0.579932362188191
O -2.302837987294346 -0.913290534374570 1.137318410033606
H -1.193533312307838 -2.848601120708644 0.380110427686624
H -0.342955869080193 -2.025788232003701 -0.953296493753918
H -1.983430634030877 -2.653579599155000 -1.315179619547083
7
maple-route1-mmgb-reference-mlip-reweighting-v1 phase=gas replicate=repeat-0 sample=61
C -1.382969774305527 -2.170743548248175 -0.552061309450527
N -1.890392595818107 -0.891997273879718 0.003030834130644
O -1.504903654257770 0.090475263017335 -0.617465274069300
O -2.328381973168735 -0.903288754087225 1.183285484192240
H -1.187502799771736 -2.855300671443719 0.326421021800727
H -0.479969095565078 -1.961679013246554 -1.048250673082807
H -2.093451006940462 -2.532140700818158 -1.295896580348054
7
maple-route1-mmgb-reference-mlip-reweighting-v1 phase=gas replicate=repeat-0 sample=62
C -1.463613958409965 -2.269216367587749 -0.560873501075594
N -1.807254809539501 -0.879332543524438 0.023663788127795
O -1.503606164794967 0.145387518347822 -0.573506052452389
O -2.314116313283452 -0.873099253144068 1.136975108814769
H -1.283040697594333 -2.974790837342548 0.246937974028111
H -0.606475692981043 -2.170366174026949 -1.238644534965110
H -2.307804809843655 -2.547499066985510 -1.166303664489967
7
maple-route1-mmgb-reference-mlip-reweighting-v1 phase=gas replicate=repeat-0 sample=63
C -1.558895515733567 -2.208742757614708 -0.599356223031462
N -1.716092418402523 -0.883041844762106 0.069631236682719
O -1.472790606861855 0.114832177425052 -0.608688275231576
O -2.325887043186246 -0.898653410577402 1.171279791746187
H -1.344624670857757 -2.926462642525298 0.143245396661560
H -0.772870480927377 -2.132879421796670 -1.390036571054514
H -2.510965669945985 -2.414171634788728 -1.083888010643485
7
maple-route1-mmgb-reference-mlip-reweighting-v1 phase=gas replicate=repeat-0 sample=64
C -1.657194427355197 -2.198659716070692 -0.673676165139364
N -1.643312390501990 -0.897750431482503 0.105535758640553
O -1.460364534196515 0.096198355697923 -0.556217206194252
O -2.304525347607874 -0.871039869432184 1.156881194486584
H -1.362540233048960 -3.008022851003595 0.021376617070641
H -0.986722905855255 -2.090950093907087 -1.503210416319685
H -2.664630706478842 -2.427794140284770 -1.055858874498243
7
maple-route1-mmgb-reference-mlip-reweighting-v1 phase=gas replicate=repeat-0 sample=65
C -1.734126387620145 -2.208796554322369 -0.663841916971882
N -1.695785455725345 -0.891910550360496 0.070240695565817
O -1.408606746336835 0.142694536419179 -0.568902834787266
O -2.237574075640119 -0.911542757611701 1.187650143602665
H -1.362890304697924 -3.030580336917106 0.023551218198255
H -1.116823103774125 -2.085302164057036 -1.529859306243734
H -2.767765111248983 -2.462214023110455 -0.944940295782615
7
maple-route1-mmgb-reference-mlip-reweighting-v1 phase=gas replicate=repeat-0 sample=66
C -1.777512111444868 -2.200940656466623 -0.680767023063709
N -1.828536861727768 -0.881494385591792 0.028964785154762
O -1.385508312730883 0.082313355048757 -0.558623981890429
O -2.101404678413910 -0.874236927440012 1.234720673662423
H -1.312814929044456 -2.966164184044692 -0.072817492394750
H -1.272683125451361 -1.992318975680793 -1.662426803326534
H -2.828166758191008 -2.489075964211940 -0.854591978719331
7
maple-route1-mmgb-reference-mlip-reweighting-v1 phase=gas replicate=repeat-0 sample=67
C -1.870516532556416 -2.226173805452597 -0.661350304282394
N -1.886366863674282 -0.851718498076575 0.016135424593340
O -1.374394382037222 0.088130778568100 -0.606402580882449
O -1.978211978607621 -0.877891900830312 1.266256897213655
H -1.314456042175650 -2.869863085840649 -0.034774537117233
H -1.419796530891387 -2.101168562068784 -1.693239018344925
H -2.902495684619347 -2.636777848331270 -0.663654721455232
7
maple-route1-mmgb-reference-mlip-reweighting-v1 phase=gas replicate=repeat-0 sample=68
C -1.973162532820785 -2.186337459787921 -0.642155668334012
N -1.804005139737525 -0.875859781702220 0.036023600712314
O -1.405873967553902 0.053912704487771 -0.642641866605936
O -1.917272829209047 -0.860119399656142 1.261785201883260
H -1.324919901872553 -2.913262041204843 -0.102637235519092
H -1.711853419182396 -2.050808150770087 -1.678103048739893
H -2.986644902424829 -2.523451087665498 -0.469052661384672
7
maple-route1-mmgb-reference-mlip-reweighting-v1 phase=gas replicate=repeat-0 sample=69
C -2.060004948431382 -2.237844030437447 -0.650845741502680
N -1.674496946220019 -0.901527682425097 0.062786566710733
O -1.458608102062455 0.084879736266743 -0.667493501887772
O -1.889710950222736 -0.820462473921480 1.275544664560756
H -1.399682278586298 -3.070685442192147 -0.274694811383260
H -1.930936449249028 -2.066209086333755 -1.688889301290075
H -3.056804807754116 -2.495817811529021 -0.377636800245463
7
maple-route1-mmgb-reference-mlip-reweighting-v1 phase=gas replicate=repeat-0 sample=70
C -2.091529926916475 -2.166607195988037 -0.567531498622609
N -1.639613120942478 -0.907391297059748 0.056518468515691
O -1.495959561779810 0.053313287619940 -0.704499227671440
O -1.845861934502320 -0.855568057166498 1.242018969268249
H -1.437095729452994 -2.927990185616570 -0.252003148208366
H -2.041257646774333 -2.036000555483795 -1.666352296352953
H -3.112277991803008 -2.365288088784538 -0.212851808250633
7
maple-route1-mmgb-reference-mlip-reweighting-v1 phase=gas replicate=repeat-0 sample=71
C -2.142433366295938 -2.234351988472056 -0.629398045090625
N -1.678024889799658 -0.903276945972304 0.061088694558737
O -1.505717331353484 0.034509463230234 -0.709813795731916
O -1.750857642682374 -0.774109621853024 1.301907096738328
H -1.479641858914172 -2.996772648512123 -0.320959484884667
H -2.127323034949518 -2.160337568261414 -1.751391001534440
H -3.179537319057482 -2.418308674844403 -0.245651956486470
7
maple-route1-mmgb-reference-mlip-reweighting-v1 phase=gas replicate=repeat-0 sample=72
C -2.153352538283405 -2.207302345845373 -0.498464601237468
N -1.786439977118800 -0.864417142710548 0.038884095610272
O -1.483107045146813 0.032456931605614 -0.762020695977742
O -1.680581203549508 -0.826416334339895 1.241709479950547
H -1.327325059998746 -2.928481346274073 -0.130947914894757
H -2.159861246429293 -2.209602479623721 -1.585452390427415
H -3.141544285179220 -2.419432689790402 -0.078259128708010
7
maple-route1-mmgb-reference-mlip-reweighting-v1 phase=gas replicate=repeat-0 sample=73
C -2.191669892122628 -2.249240154406640 -0.485049879928464
N -1.862331891949125 -0.835321625262766 0.070613898021134
O -1.474152087105741 -0.028868857542150 -0.799120361273166
O -1.592874978912575 -0.753592465408874 1.249979582889932
H -1.271069228428958 -2.900557191723347 -0.277143088400251
H -2.250855836950923 -2.121397321287648 -1.556656608573784
H -3.134402672873351 -2.628444696555912 -0.100808524965224
7
maple-route1-mmgb-reference-mlip-reweighting-v1 phase=gas replicate=repeat-0 sample=74
C -2.230538926267301 -2.223469149926086 -0.416261335663349
N -1.793393582840939 -0.861227567314413 0.051379324400021
O -1.494764570593285 -0.064503184234440 -0.839214628688512
O -1.580572812142081 -0.724870059506614 1.233476547302605
H -1.393549066747819 -2.829755443198079 -0.280597011974052
H -2.501545538713430 -2.166021857900577 -1.493638543127373
H -3.125038126795534 -2.496130470958303 0.185317428648991
7
maple-route1-mmgb-reference-mlip-reweighting-v1 phase=gas replicate=repeat-0 sample=75
C -2.311591588682594 -2.252784029675730 -0.351392487827243
N -1.684881573772501 -0.894619473012207 0.025700351328435
O -1.509591853841584 -0.050564963482912 -0.878573254777478
O -1.572584719267365 -0.684307984784643 1.220948646731792
H -1.552949874863945 -2.961397189501047 -0.260416453685690
H -2.808006155858529 -2.242547579721766 -1.334981537726980
H -3.099532484244184 -2.351419060494617 0.412188374410299
7
maple-route1-mmgb-reference-mlip-reweighting-v1 phase=gas replicate=repeat-0 sample=76
C -2.378545501462030 -2.216620634997343 -0.324567775032009
N -1.637742656265432 -0.929218785871834 0.045029673443978
O -1.562086619635783 -0.143725062156116 -0.904236515900305
O -1.501252083163876 -0.594920435557711 1.212664457409233
H -1.615637499355965 -3.054720555812067 -0.391482429983457
H -2.879847055075291 -2.042775562712537 -1.240516062116058
H -3.136525459296957 -2.351213000322331 0.405504938626542
7
maple-route1-mmgb-reference-mlip-reweighting-v1 phase=gas replicate=repeat-0 sample=77
C -2.415134887708671 -2.220769127934008 -0.177919686049854
N -1.669056692069038 -0.915681260900730 0.010648494149857
O -1.549550717987106 -0.123891682190382 -0.973919663615939
O -1.454358925507760 -0.622571614650791 1.166295853264670
H -1.601457169280363 -2.995439083364103 -0.219429935434340
H -3.001172429123601 -2.131627257914920 -1.081833173315738
H -3.107438889705786 -2.340488612369962 0.647903028607020
7
maple-route1-mmgb-reference-mlip-reweighting-v1 phase=gas replicate=repeat-0 sample=78
C -2.439134027425717 -2.229975071744254 -0.179007872833575
N -1.741451457845055 -0.887705676409445 0.030132712034827
O -1.592373893761228 -0.189949287603904 -0.979033163807821
O -1.321495564666990 -0.570294206895084 1.153688080641307
H -1.632656537798146 -2.895268588319907 -0.240171221000860
H -3.107978522849209 -2.201452218455541 -1.099078836650848
H -3.099651652869733 -2.419661876064039 0.725370884856935
7
maple-route1-mmgb-reference-mlip-reweighting-v1 phase=gas replicate=repeat-0 sample=79
C -2.450492197184595 -2.177145191829875 -0.115480266892764
N -1.819906767664427 -0.838015202223536 0.046043719239794
O -1.600898739983371 -0.233074892958385 -1.016146813655932
O -1.237856820840530 -0.619410842950637 1.112895579694329
H -1.621922766755982 -2.880717122470363 -0.223055470147518
H -3.174314495211092 -2.133731392048273 -0.966266131840735
H -3.021256856060635 -2.348300377322260 0.832126216269667
7
maple-route1-mmgb-reference-mlip-reweighting-v1 phase=gas replicate=repeat-0 sample=80
C -2.540201502638371 -2.187929314563019 -0.039441947975898
N -1.837472457908313 -0.817138932890330 0.048573948794199
O -1.594874660637544 -0.207301660192904 -1.021619737437327
O -1.148536644881567 -0.649943177375247 1.041957494702113
H -1.735967438485805 -3.014290345449018 -0.245281061644375
H -3.317599204626305 -2.083136699293795 -0.773180328568244
H -2.962934714043762 -2.358836694003867 0.927640891572284
7
maple-route1-mmgb-reference-mlip-reweighting-v1 phase=gas replicate=repeat-0 sample=81
C -2.599708374546379 -2.083298042612060 -0.008953634042463
N -1.734619838180869 -0.882683916969524 0.035824960752752
O -1.715120794321662 -0.267606325397896 -1.034608416902738
O -1.057989761845209 -0.638540030376813 1.045078301318628
H -1.908422354155634 -2.887631629266482 -0.273360911282785
H -3.321469355638453 -1.848859131101491 -0.802142928136754
H -3.039615389913958 -2.283945344972777 0.956385969853270
7
maple-route1-mmgb-reference-mlip-reweighting-v1 phase=gas replicate=repeat-0 sample=82
C -2.699989565086703 -2.103706974037078 0.118530631915043
N -1.669479750914002 -0.925352572151366 -0.035934240059069
O -1.701248975190135 -0.194430081316078 -1.031473036118270
O -1.024741678229669 -0.656824097535854 0.966707094757467
H -2.171685484034775 -2.952336302857668 -0.055407257834913
H -3.549736453653716 -1.947053821574430 -0.595472092418561
H -3.000185267039672 -2.174204320850391 1.210211330497937
7
maple-route1-mmgb-reference-mlip-reweighting-v1 phase=gas replicate=repeat-0 sample=83
C -2.692594278300926 -1.982281953066332 0.129262159362241
N -1.655408592180399 -0.932927855874696 -0.034199460829741
O -1.783468382292618 -0.260948774480211 -1.040902188291918
O -0.961866566997218 -0.701784100134736 0.962027751731106
H -2.229264059471617 -2.967787952552227 -0.029047750411163
H -3.520549525005328 -1.734633489359053 -0.535144767216122
H -2.953131929490460 -1.942358385160477 1.200654798434635
7
maple-route1-mmgb-reference-mlip-reweighting-v1 phase=gas replicate=repeat-0 sample=84
C -2.784728442682102 -2.005047023494018 0.218121936046528
N -1.675779747850740 -0.910778749588717 -0.016649459115699
O -1.775087068564821 -0.249689753507731 -1.035315654932579
O -0.859506653618032 -0.707600767755491 0.864860809836078
H -2.394583472454695 -3.095507446525558 0.011839693861226
H -3.585261946991976 -1.709678415012239 -0.447109545817612
H -3.100249687767050 -1.984084644445793 1.226068452793640
7
maple-route1-mmgb-reference-mlip-reweighting-v1 phase=gas replicate=repeat-0 sample=85
C -2.744309562982847 -1.934236435868010 0.307297414061312
N -1.717106059388943 -0.862902931001117 -0.007324480269632
O -1.808653038088652 -0.271073352793700 -1.080656597821836
O -0.832194445135990 -0.793761188258078 0.813128003958376
H -2.241783714305296 -2.879072532245262 0.076277146298394
H -3.654286507327114 -1.778008446305116 -0.312313417626629
H -2.999751605233965 -1.934548659502927 1.383315297195176
7
maple-route1-mmgb-reference-mlip-reweighting-v1 phase=gas replicate=repeat-0 sample=86
C -2.783603885637354 -1.917930498397664 0.317546494757360
N -1.742374452651598 -0.810164943837886 0.042760367332081
O -1.867804872759351 -0.330951283196250 -1.054728148391889
O -0.712438232937579 -0.793331260976077 0.732748026754949
H -2.323672761804745 -2.797102723677276 0.009611079007208
H -3.727751543918163 -1.775841779482457 -0.249504810494700
H -2.993131150833876 -2.002095001426825 1.422438245778037
7
maple-route1-mmgb-reference-mlip-reweighting-v1 phase=gas replicate=repeat-0 sample=87
C -2.749984432360680 -1.906848214653183 0.414228672952530
N -1.745682288987216 -0.819369191365217 0.023412909557292
O -1.890219858158829 -0.277143425511855 -1.052664203673246
O -0.719309020572731 -0.853831718507581 0.654074614429121
H -2.438533831841398 -2.867513344355492 -0.036962802100911
H -3.730436923806911 -1.664661644933945 0.056423204994672
H -2.778775838842440 -1.944042478155999 1.495845314825900
7
maple-route1-mmgb-reference-mlip-reweighting-v1 phase=gas replicate=repeat-0 sample=88
C -2.771314484865554 -1.851668057040190 0.460466623270455
N -1.694710779322098 -0.897319873159426 -0.014279560872836
O -1.974124691523000 -0.233786874872100 -1.035231338001139
O -0.650099669197776 -0.891926095870963 0.631237040355951
H -2.753050615625281 -2.830246172064390 -0.131155712639010
H -3.679007404739826 -1.351787375824383 0.191976805063576
H -2.737157522130522 -1.952684885809167 1.515828636687297
7
maple-route1-mmgb-reference-mlip-reweighting-v1 phase=gas replicate=repeat-0 sample=89
C -2.834268398608625 -1.841171945144174 0.512444477720171
N -1.681469329805534 -0.946407314303599 -0.050009323658826
O -1.971210699517807 -0.201853821170332 -0.968634541801599
O -0.606990810743564 -0.892171676955833 0.538650249702661
H -2.920782835620803 -2.704933553499766 -0.125948401044766
H -3.794640640266437 -1.282176906253676 0.431761984367472
H -2.621886895782333 -2.092071336691437 1.572719175218537
7
maple-route1-mmgb-reference-mlip-reweighting-v1 phase=gas replicate=repeat-0 sample=90
C -2.755139338413315 -1.754416267938699 0.556923701035007
N -1.707004383871931 -0.944939041602620 -0.072554643860484
O -2.022951886949729 -0.150639380844002 -0.979256818509913
O -0.619479830595260 -1.021275978337103 0.520728690254245
H -2.887545548032966 -2.552640137956540 -0.120543482389847
H -3.707931559383193 -1.212317442848516 0.713609697951919
H -2.303899488099325 -2.120628741251526 1.521245005359164
7
maple-route1-mmgb-reference-mlip-reweighting-v1 phase=gas replicate=repeat-0 sample=91
C -2.884725018285408 -1.768120456073613 0.570425668469756
N -1.706079070078870 -0.931554658698711 -0.022980530944291
O -1.990881828873785 -0.147805045228066 -0.894033077522050
O -0.518659251030654 -1.027509623492220 0.385078594667945
H -3.219315596933407 -2.519148758154538 -0.191319038973569
H -3.720146935699537 -1.097994035678260 0.757688410618821
H -2.542505164532442 -2.224111333769722 1.496992936981349
7
maple-route1-mmgb-reference-mlip-reweighting-v1 phase=gas replicate=repeat-0 sample=92
C -2.750974313300475 -1.721851868536659 0.595583463096087
N -1.729668462146326 -0.888412436813753 -0.002885948286900
O -2.048078803588366 -0.075069982356627 -0.910005659697007
O -0.571099772617532 -1.187513879834479 0.357894072332919
H -3.173922117120550 -2.415379962222242 -0.191273786761799
H -3.486633475729186 -0.987962802656030 0.882825907718041
H -2.344613370898022 -2.204580280160422 1.467340994654309
7
maple-route1-mmgb-reference-mlip-reweighting-v1 phase=gas replicate=repeat-0 sample=93
C -2.844729987046274 -1.710639883096141 0.657480651108374
N -1.722428035015729 -0.890273651983942 0.012338025392462
O -2.000996450932495 -0.064938311473389 -0.844263553474577
O -0.538587761073894 -1.206281248444070 0.216763775527000
H -3.245166116412654 -2.323929717857022 -0.108277268553135
H -3.593133657737831 -0.965089755023116 0.998482660855600
H -2.415893579819859 -2.289812625740165 1.515799288320617
7
maple-route1-mmgb-reference-mlip-reweighting-v1 phase=gas replicate=repeat-0 sample=94
C -2.821438387008286 -1.638339580563190 0.669937915732300
N -1.714948780451439 -0.892310945747756 0.007619169783384
O -2.064133353116389 -0.019692144811636 -0.794293398825247
O -0.509039883669946 -1.313913793682365 0.159958717345757
H -3.194129570821271 -2.265414460957064 -0.096862671093553
H -3.570815880396711 -0.920887636809067 1.046860529140659
H -2.343061611585354 -2.250375525959890 1.481044640706931
7
maple-route1-mmgb-reference-mlip-reweighting-v1 phase=gas replicate=repeat-0 sample=95
C -2.771527547012103 -1.631524284989293 0.745160794205780
N -1.730604116720831 -0.899239567021637 -0.020123341585006
O -2.004030926130571 0.047278525528846 -0.737370973159572
O -0.600971533823377 -1.379218728519989 0.054986722300024
H -3.272049917021058 -2.346307234660326 0.012343699574263
H -3.442753711606430 -0.895320736117625 1.156856486945732
H -2.260877532330113 -2.203236753247654 1.510551323856516
7
maple-route1-mmgb-reference-mlip-reweighting-v1 phase=gas replicate=repeat-0 sample=96
C -2.822620884226697 -1.602069230596410 0.811490970127904
N -1.700965768859545 -0.914117145669791 -0.024387508858230
O -2.012474788001883 0.098977899109196 -0.656798242062264
O -0.560250073276083 -1.458977661400239 -0.087667668561227
H -3.461005219978319 -2.240367822437128 0.127863564276995
H -3.394387951217219 -0.717827318701499 1.162356515768211
H -2.433713674430455 -2.183175496758014 1.638177513893515
7
maple-route1-mmgb-reference-mlip-reweighting-v1 phase=gas replicate=repeat-0 sample=97
C -2.717864836198957 -1.527069441767436 0.817082669760562
N -1.728538606481836 -0.928390148638839 -0.059731755323677
O -1.990823772606443 0.133143321007655 -0.580879260722321
O -0.669575964021011 -1.549230904585016 -0.148369509724794
H -3.360866321299725 -2.141455443383604 0.232739267771872
H -3.221179340324762 -0.646820556103621 1.287571988472555
H -2.180445972397126 -2.153533389073373 1.591699556110950
7
maple-route1-mmgb-reference-mlip-reweighting-v1 phase=gas replicate=repeat-0 sample=98
C -2.784408024921091 -1.511673803129443 0.961557457578115
N -1.747200193094608 -0.938259020179816 -0.109620898923279
O -1.895177436820565 0.186753347667002 -0.537100226008875
O -0.684335526913590 -1.598227930920450 -0.288092464892322
H -3.556466435034382 -2.026325911001567 0.411815541520465
H -3.176582624325587 -0.745655612489378 1.637805959082956
H -2.268610355876941 -2.297575633669100 1.543600089365966
7
maple-route1-mmgb-reference-mlip-reweighting-v1 phase=gas replicate=repeat-0 sample=99
C -2.677964994206670 -1.417240653657375 0.901781868559959
N -1.731914797168666 -0.937436039214740 -0.095869430711859
O -1.894288536965325 0.198823774483629 -0.408923256171288
O -0.791246457335976 -1.712005321940977 -0.367155380631219
H -3.596796973591361 -1.690891856043720 0.318234965170681
H -2.874886545870537 -0.629764173859358 1.594883351280254
H -2.311046803056564 -2.269158528193362 1.409526989002268
