7
maple-route1-mmgb-reference-mlip-reweighting-v1 phase=gas replicate=repeat-1 sample=0
C -0.349170524521076 -0.860351797477081 -0.044275282414465
N -1.908182134447010 -0.908445294493871 0.055896330889849
O -2.360018483388759 -1.521365165692207 1.012356819468717
O -2.472187224156086 -0.570957401367023 -0.982580270119193
H 0.107338447579819 -1.104542128319316 0.863512854995446
H -0.084425572636708 0.204190926458842 -0.270681712099670
H 0.027119199094089 -1.449885618101934 -0.883203067432881
7
maple-route1-mmgb-reference-mlip-reweighting-v1 phase=gas replicate=repeat-1 sample=1
C -0.371482139724521 -0.842649641062408 -0.076381420088308
N -1.901884218456361 -0.896500638718688 0.037718347961385
O -2.281618943996340 -1.453209156905918 1.018858165744607
O -2.534325125484372 -0.648793071237601 -0.946427671405300
H 0.033368235899204 -1.004652921576535 0.899439269055318
H -0.006841651590929 0.060325387032101 -0.448901893689607
H -0.053267120232855 -1.634505963064870 -0.777901814373586
7
maple-route1-mmgb-reference-mlip-reweighting-v1 phase=gas replicate=repeat-1 sample=2
C -0.363027236323658 -0.798382571814319 -0.186123831193946
N -1.894113752314643 -0.944091530995720 0.041000525767666
O -2.259214724598244 -1.416598069423412 1.123977924189097
O -2.571101797394378 -0.685145740309873 -0.945404225021779
H 0.184143907480786 -0.715468267805200 0.797654928458831
H -0.102068634824553 -0.026157125466570 -0.848375482574481
H -0.078091071334369 -1.704055814690882 -0.698560790781372
7
maple-route1-mmgb-reference-mlip-reweighting-v1 phase=gas replicate=repeat-1 sample=3
C -0.389019445244150 -0.820820107690044 -0.238649408615978
N -1.870822815878642 -0.998401427907007 0.018199438771936
O -2.181680978519132 -1.333605592589031 1.134822287240101
O -2.639812101480107 -0.713811864346527 -0.877518563366277
H 0.101562046419739 -0.364565515339076 0.642922744405313
H -0.309085765602234 -0.174369449760491 -1.176069969314503
H 0.065170745994043 -1.759453214435791 -0.530841550699268
7
maple-route1-mmgb-reference-mlip-reweighting-v1 phase=gas replicate=repeat-1 sample=4
C -0.384477999788894 -0.844697687590533 -0.331249257063334
N -1.865114381400575 -1.062469047125943 0.000421813753557
O -2.108176441851141 -1.239376220400991 1.209265465674678
O -2.718386184544017 -0.727720501798502 -0.849359955916002
H -0.026527535277315 -0.142340569295784 0.393376582226033
H -0.368665496275100 -0.445642773025687 -1.411606716530978
H 0.200779155663331 -1.807946900107903 -0.322311435824498
7
maple-route1-mmgb-reference-mlip-reweighting-v1 phase=gas replicate=repeat-1 sample=5
C -0.450545410859286 -0.882481854307490 -0.459664976732897
N -1.847042525356881 -1.056787555580464 0.004775327319579
O -2.076659951838440 -1.162483595191966 1.237262755451119
O -2.700421129248043 -0.766659948786844 -0.775064463071933
H -0.110795035864723 -0.008278796062571 0.144518368244468
H -0.428537203549301 -0.794542631968755 -1.513461271888541
H 0.095869010744283 -1.817905075086587 -0.126318303426851
7
maple-route1-mmgb-reference-mlip-reweighting-v1 phase=gas replicate=repeat-1 sample=6
C -0.420866471756483 -0.949959389235627 -0.492894642825414
N -1.847442568030209 -1.018714379802341 0.009519063273667
O -1.996131666809535 -1.123259288304727 1.269830337147767
O -2.806252521760455 -0.773298326150212 -0.776456646095535
H 0.010790865599472 0.030542443939474 -0.158443322889023
H -0.468902308392452 -1.130679666514932 -1.524445136532122
H 0.068409747295910 -1.771625077904206 0.022327757704511
7
maple-route1-mmgb-reference-mlip-reweighting-v1 phase=gas replicate=repeat-1 sample=7
C -0.462836219978199 -1.011822149932109 -0.543767336516795
N -1.824876341065939 -0.942550977412356 0.033723151552435
O -1.961287896888983 -1.108978561206833 1.255295144480672
O -2.807365683707990 -0.795358235783885 -0.718829082266015
H -0.085896356816893 -0.020792339041190 -0.513785821050202
H -0.756326171216979 -1.356681820726213 -1.594380947786911
H 0.106539187770404 -1.691240531106784 0.033082891852801
7
maple-route1-mmgb-reference-mlip-reweighting-v1 phase=gas replicate=repeat-1 sample=8
C -0.479435641807614 -1.089098022916250 -0.613210504426539
N -1.826185691969319 -0.879398666750011 0.046658098916355
O -1.927277540795421 -1.102582411505223 1.280659931592243
O -2.828684907404097 -0.783969872594486 -0.693122819791845
H -0.155736707291310 -0.087095732284284 -0.767727642802221
H -0.734135174389695 -1.594595246656736 -1.581391990904116
H 0.174715214327102 -1.623992426703811 0.116464006809867
7
maple-route1-mmgb-reference-mlip-reweighting-v1 phase=gas replicate=repeat-1 sample=9
C -0.517863624150983 -1.147329046788613 -0.627312071449112
N -1.837424052239161 -0.889752251444167 0.034762598991606
O -1.880573151560834 -1.066001413055899 1.270750027503184
O -2.836026043946511 -0.758969049419513 -0.666990028966167
H -0.153123793023829 -0.145730386872003 -1.000864328951638
H -0.674351186338310 -1.821858229503315 -1.421626747689411
H 0.101373004369820 -1.477824476927458 0.280803062541091
7
maple-route1-mmgb-reference-mlip-reweighting-v1 phase=gas replicate=repeat-1 sample=10
C -0.533342952296432 -1.203361764742245 -0.655862549220922
N -1.846703819248681 -0.924577553069622 0.045692546969986
O -1.887004206787106 -1.019054503956464 1.296830248928988
O -2.801748881001221 -0.714505232065380 -0.662103424425483
H -0.241639310053429 -0.318100546119238 -1.302479336169711
H -0.763068743389412 -2.029753998458210 -1.323493400705483
H 0.148608061018722 -1.396153399194807 0.172523082596615
7
maple-route1-mmgb-reference-mlip-reweighting-v1 phase=gas replicate=repeat-1 sample=11
C -0.516220414768648 -1.277954221550206 -0.637605066511324
N -1.870876889203966 -0.961818456206931 0.047706246845324
O -1.846057129809779 -0.978997389674616 1.282894683215894
O -2.833190801187310 -0.642908818079584 -0.658066693229907
H -0.401063394928095 -0.583669786256649 -1.440356107379984
H -0.726838646176035 -2.253486392220551 -1.173080985770838
H 0.261071243898854 -1.280280208814407 0.075107874616897
7
maple-route1-mmgb-reference-mlip-reweighting-v1 phase=gas replicate=repeat-1 sample=12
C -0.579935904693873 -1.361904965129428 -0.656926585552752
N -1.876890500919304 -0.965992454612947 0.055154719264399
O -1.828889640598135 -0.943445138805151 1.268807850194458
O -2.791242369933781 -0.597158849170484 -0.636920201772438
H -0.575039849720195 -0.812109856999858 -1.551251698408460
H -0.667243521668358 -2.401072480262859 -0.974856190436143
H 0.284150203194903 -1.141565957236884 -0.008196149414854
7
maple-route1-mmgb-reference-mlip-reweighting-v1 phase=gas replicate=repeat-1 sample=13
C -0.618559354629427 -1.459751271711431 -0.701649027112772
N -1.881817662250628 -0.935278407559923 0.055723123211031
O -1.804872250217658 -0.927237604729998 1.295706061265593
O -2.781835605548176 -0.551304740622023 -0.628080925631876
H -0.605392813781233 -1.102741939740204 -1.747632776615814
H -0.571755520370137 -2.506762392971446 -0.736502229078289
H 0.215753301415899 -0.986442218636905 -0.099102097022558
7
maple-route1-mmgb-reference-mlip-reweighting-v1 phase=gas replicate=repeat-1 sample=14
C -0.682450950336173 -1.536799047768194 -0.689470967413469
N -1.861713204124027 -0.889151698121975 0.048538294889461
O -1.758076407364784 -0.925849321508649 1.262666645012412
O -2.783299544992298 -0.503640605554765 -0.597566749910081
H -0.760067586067237 -1.415841751897297 -1.813076334830917
H -0.645391407819394 -2.622447859589165 -0.481869761804241
H 0.213041204692214 -1.049665992309711 -0.290034837467614
7
maple-route1-mmgb-reference-mlip-reweighting-v1 phase=gas replicate=repeat-1 sample=15
C -0.731185474954003 -1.604743867025553 -0.730418733186702
N -1.839328814238800 -0.864192506330674 0.064029576853264
O -1.729783018955914 -0.889964958354370 1.302521190632945
O -2.772514872603027 -0.480912376144380 -0.606623856547050
H -1.078260659273433 -1.639294072541217 -1.767517232403712
H -0.731441553763816 -2.719222417340743 -0.400842256789768
H 0.268354461464360 -1.202430566796599 -0.638269058696726
7
maple-route1-mmgb-reference-mlip-reweighting-v1 phase=gas replicate=repeat-1 sample=16
C -0.784421295117369 -1.686179820779549 -0.705545479497372
N -1.836270182815829 -0.868514080313817 0.045259451139812
O -1.692925350314832 -0.841977695085275 1.252436850280139
O -2.765547424202280 -0.460001426879010 -0.569450195856246
H -1.153735884955239 -1.792999685001942 -1.711166878460435
H -0.698585649539239 -2.680077654740838 -0.234349722249708
H 0.211326249964881 -1.155192692889959 -0.690901729647552
7
maple-route1-mmgb-reference-mlip-reweighting-v1 phase=gas replicate=repeat-1 sample=17
C -0.814172083940452 -1.767042821627136 -0.708164657485921
N -1.849772849934616 -0.890774486027028 0.046082430187863
O -1.644079093504009 -0.790442754310259 1.279868681240830
O -2.778356367153735 -0.426645857599645 -0.596692801588370
H -1.186266722057645 -2.037585155532559 -1.711256790668986
H -0.535315437112135 -2.579433491429380 -0.107725355667354
H 0.053296683155115 -1.086542912554429 -0.801640852862164
7
maple-route1-mmgb-reference-mlip-reweighting-v1 phase=gas replicate=repeat-1 sample=18
C -0.863677505556572 -1.799101744200149 -0.717937816600970
N -1.845703801724531 -0.925138034820987 0.055091556958767
O -1.632713027321333 -0.727036261600095 1.255502249396633
O -2.738836817748773 -0.423939915878028 -0.566919791746621
H -1.420240795314962 -2.200679830683419 -1.588819778222834
H -0.437722186948212 -2.546874050686225 -0.051634322959430
H -0.099639328916488 -1.150586439537027 -1.072605151029576
7
maple-route1-mmgb-reference-mlip-reweighting-v1 phase=gas replicate=repeat-1 sample=19
C -0.880675144547448 -1.816552680105520 -0.704247963234324
N -1.873961286559335 -0.967210285664375 0.062047200869662
O -1.557228727185679 -0.716475451088992 1.244635122288386
O -2.766957616097644 -0.376017205180364 -0.582487198686974
H -1.539715409264121 -2.401110444182624 -1.318204234653499
H -0.324367925585798 -2.412514789105184 0.083573817306893
H -0.233770899364053 -1.221741358615893 -1.321741779352613
7
maple-route1-mmgb-reference-mlip-reweighting-v1 phase=gas replicate=repeat-1 sample=20
C -0.952464815177985 -1.861198056866665 -0.738109763430329
N -1.862815435849486 -0.987474706462413 0.070655399332818
O -1.540261201633437 -0.675827471541463 1.225960350834195
O -2.725948766047043 -0.366315892585060 -0.532979242086620
H -1.616429366171888 -2.599387499014261 -1.198602778809856
H -0.184374007762309 -2.220981941845341 -0.008653924003178
H -0.517302622905046 -1.210880675858463 -1.553408320597459
7
maple-route1-mmgb-reference-mlip-reweighting-v1 phase=gas replicate=repeat-1 sample=21
C -1.015234184471129 -1.908438380764977 -0.732087801477303
N -1.856106277785499 -0.975769552183063 0.067803833817792
O -1.456401267514009 -0.682031778572393 1.228975684764162
O -2.756313947429665 -0.329527645980983 -0.535214333470351
H -1.626390775277063 -2.811978985651532 -1.038033306242322
H -0.130419600377339 -2.043325364670461 -0.125351833857038
H -0.756283696399518 -1.284522842840053 -1.647563182400973
7
maple-route1-mmgb-reference-mlip-reweighting-v1 phase=gas replicate=repeat-1 sample=22
C -1.080709169278137 -1.949610145583677 -0.748557122911487
N -1.808413799928164 -0.943818011869224 0.051630581170130
O -1.421426283323737 -0.681354503568453 1.194122478007142
O -2.761688784862994 -0.308061550219535 -0.477569472364598
H -1.745816645830318 -2.854581937776191 -0.733779610427361
H -0.089642857293485 -2.037680304777713 -0.260555323794143
H -1.022286563650274 -1.558960136200094 -1.760232676992237
7
maple-route1-mmgb-reference-mlip-reweighting-v1 phase=gas replicate=repeat-1 sample=23
C -1.166313475926305 -1.986531567690798 -0.800397942830713
N -1.767517410563928 -0.901525406088433 0.043168269736276
O -1.377216908635274 -0.704785871431279 1.215022840803333
O -2.757780167590680 -0.278136417318793 -0.447753461851722
H -1.731553328323855 -2.833426853802385 -0.489037401361051
H -0.087988124303461 -2.035677707295874 -0.505836575647549
H -1.348743018422330 -1.828561363249892 -1.831335888227169
7
maple-route1-mmgb-reference-mlip-reweighting-v1 phase=gas replicate=repeat-1 sample=24
C -1.264154237743584 -2.014062997262748 -0.779631947901063
N -1.753190282861808 -0.880728260779727 0.034969864683386
O -1.322379799568951 -0.765867440869133 1.160890589557432
O -2.733401732519020 -0.208224496421173 -0.400441359844209
H -1.673983000487402 -2.891106945831368 -0.344091298783098
H -0.200770405947305 -1.967879979895298 -0.697262361305154
H -1.594142388538990 -1.938678235684755 -1.814339666321178
7
maple-route1-mmgb-reference-mlip-reweighting-v1 phase=gas replicate=repeat-1 sample=25
C -1.372231248299290 -2.070464839115542 -0.811741221656885
N -1.757411073566979 -0.882840668329484 0.054247134046684
O -1.259189721194463 -0.771223802925477 1.164206683523086
O -2.689201114677747 -0.144619814902010 -0.379885049440492
H -1.621775117167547 -3.042649313560595 -0.342618424396256
H -0.341800204280407 -1.989258859229055 -1.009068616899112
H -1.878992418313780 -1.992245485334132 -1.774688313430275
7
maple-route1-mmgb-reference-mlip-reweighting-v1 phase=gas replicate=repeat-1 sample=26
C -1.492731040375124 -2.074866981356530 -0.800970039465268
N -1.798124937598622 -0.901709067671791 0.083533757859539
O -1.185004918664043 -0.810729528631514 1.116889188552833
O -2.615609887842338 -0.080084815707508 -0.366781007631865
H -1.526170076039992 -3.018360186436722 -0.221635901129232
H -0.485487906726061 -1.985688942146455 -1.250687377969091
H -2.176228124423241 -2.117809431457181 -1.635618033837593
7
maple-route1-mmgb-reference-mlip-reweighting-v1 phase=gas replicate=repeat-1 sample=27
C -1.611907216103701 -2.116752131772932 -0.829738882585113
N -1.846064278993798 -0.914989937672994 0.116970044933723
O -1.103187623879093 -0.828707136154646 1.083143766555582
O -2.543389009074103 -0.002904433073171 -0.334549384869498
H -1.457164235525194 -2.976454297581739 -0.183027266261117
H -0.671866556971829 -2.064945150278095 -1.453556929278882
H -2.418850163887143 -2.329471400996630 -1.559475112485290
7
maple-route1-mmgb-reference-mlip-reweighting-v1 phase=gas replicate=repeat-1 sample=28
C -1.747200872804620 -2.086512420637172 -0.803013106440534
N -1.840118507422570 -0.915010369623996 0.128748685723548
O -1.051925547556116 -0.891040828492916 1.040178470878936
O -2.465209068076041 0.024873313244618 -0.323622646636518
H -1.468697605356763 -2.974614501606781 -0.219581152212769
H -0.940908409371708 -1.972235999895470 -1.524642275810541
H -2.658479942692067 -2.245085972457092 -1.435205298019111
7
maple-route1-mmgb-reference-mlip-reweighting-v1 phase=gas replicate=repeat-1 sample=29
C -1.861497090886800 -2.144949096729806 -0.799134853538860
N -1.811059200925849 -0.899785567977580 0.117734960231613
O -1.008219508569051 -0.947234550090001 1.010217242551003
O -2.420194487964276 0.118473983868291 -0.284636998884417
H -1.561346755621725 -3.088714365786895 -0.316441417092197
H -1.144224933305855 -2.044678192101207 -1.579605061101235
H -2.821947565399062 -2.169888458194223 -1.319232837978395
7
maple-route1-mmgb-reference-mlip-reweighting-v1 phase=gas replicate=repeat-1 sample=30
C -2.010125063777162 -2.111637996094746 -0.799862570770224
N -1.777173420423080 -0.894516113759013 0.100061024708590
O -0.971854553266448 -0.989096601029428 0.989979918696575
O -2.340404828349312 0.123359439661347 -0.256105851732192
H -1.769233519619210 -3.015637343821727 -0.268629206676107
H -1.303194231541293 -2.124725211549495 -1.626378381460319
H -2.996991734814439 -2.048678656747699 -1.200134621810500
7
maple-route1-mmgb-reference-mlip-reweighting-v1 phase=gas replicate=repeat-1 sample=31
C -2.146499589802933 -2.091151959662806 -0.768551734602202
N -1.749989489220899 -0.878917448743781 0.067747147288377
O -0.914390345003382 -1.071888088213928 0.960436430421654
O -2.286043331617004 0.173650693901513 -0.237738104030150
H -1.948948898700230 -2.912906211227540 -0.132255034793635
H -1.481752748892521 -2.249184006662166 -1.619086005746178
H -3.169576105495686 -1.973791442370022 -1.091309333644956
7
maple-route1-mmgb-reference-mlip-reweighting-v1 phase=gas replicate=repeat-1 sample=32
C -2.285482250354188 -2.114982156577581 -0.702951597648432
N -1.715092164649281 -0.882950741765235 0.028641213343775
O -0.867775616925459 -1.082986573004868 0.886558033673406
O -2.222957893406098 0.205785334478498 -0.196549055176728
H -2.158121552799353 -2.967010947744005 -0.018653704250521
H -1.667209992298002 -2.309873676017011 -1.577581862119293
H -3.336877549704720 -1.856537890429972 -0.977501040162159
7
maple-route1-mmgb-reference-mlip-reweighting-v1 phase=gas replicate=repeat-1 sample=33
C -2.405987545872449 -2.065665635540669 -0.606268172759547
N -1.681013062762229 -0.896344337954940 -0.007921289073649
O -0.803359753589469 -1.135352301763904 0.828117185301278
O -2.198002202685629 0.217620976033567 -0.195570541391017
H -2.349670800435563 -2.980761826641774 0.073195738935796
H -1.857985800292078 -2.272254786597290 -1.547718857173457
H -3.403863659670475 -1.648169241425647 -0.828132224603232
7
maple-route1-mmgb-reference-mlip-reweighting-v1 phase=gas replicate=repeat-1 sample=34
C -2.506717193782287 -2.064361273237331 -0.562677664212853
N -1.703856577826217 -0.899972510843751 -0.013861167485228
O -0.757753553862173 -1.177444170396997 0.732739328317524
O -2.127011745880119 0.262324680454702 -0.144939950523075
H -2.346551183220107 -2.904553683738549 0.140752948808644
H -2.053691259015800 -2.314439802856094 -1.572311411000771
H -3.540851376088114 -1.697522505643853 -0.609338261414926
7
maple-route1-mmgb-reference-mlip-reweighting-v1 phase=gas replicate=repeat-1 sample=35
C -2.609101416438069 -1.975112488523038 -0.513144903047297
N -1.726180930197599 -0.913066187613909 0.013152504749998
O -0.653772464810217 -1.236792633103520 0.643224103632799
O -2.111578044635482 0.248149582039756 -0.135456606986397
H -2.367835685194641 -2.776199360363452 0.163350915912796
H -2.292739380810985 -2.202773763983177 -1.543255577460243
H -3.659313668882000 -1.647404572126474 -0.359920112638684
7
maple-route1-mmgb-reference-mlip-reweighting-v1 phase=gas replicate=repeat-1 sample=36
C -2.692456493613522 -1.986981865160349 -0.436638904076803
N -1.743884572319471 -0.922355835720820 0.046148915978367
O -0.628872744025522 -1.255468091027419 0.497432212289508
O -2.038601706657213 0.282404780195355 -0.092451085028659
H -2.475149896985990 -2.914232223847080 0.140206461299817
H -2.470532934908895 -2.051112321685574 -1.479541190004106
H -3.689286996233565 -1.640330145921841 -0.149276119363033
7
maple-route1-mmgb-reference-mlip-reweighting-v1 phase=gas replicate=repeat-1 sample=37
C -2.718994815640443 -1.958418512267395 -0.349559221642453
N -1.739023704679806 -0.919874196242217 0.074931215408304
O -0.602573010962192 -1.310375723550096 0.379066133830345
O -2.040589439081558 0.305442865774619 -0.079906890109185
H -2.523404554015110 -2.949140938688815 0.123514436288965
H -2.600039233845333 -1.925253496172510 -1.425227293069131
H -3.649628316331547 -1.590121588037870 0.047487284460140
7
maple-route1-mmgb-reference-mlip-reweighting-v1 phase=gas replicate=repeat-1 sample=38
C -2.792253902684176 -1.913888609774612 -0.277047620090998
N -1.730510487152923 -0.914327154438093 0.106830858927386
O -0.563837653515511 -1.302718929296396 0.270434139943114
O -2.016256340054190 0.253655240931241 -0.069254839804586
H -2.492753235727300 -2.843641482411602 0.131509567873796
H -2.822743542456027 -1.894636363362489 -1.405903886554795
H -3.704502408696739 -1.640660301468329 0.254478333056727
7
maple-route1-mmgb-reference-mlip-reweighting-v1 phase=gas replicate=repeat-1 sample=39
C -2.827494429262432 -1.915385583983087 -0.172184867322111
N -1.713188758879876 -0.886204770645783 0.081447916354153
O -0.572051519107709 -1.362388330579883 0.191946323939031
O -1.988568366999038 0.299559259651597 -0.075511829479143
H -2.413350111998191 -2.839819995453150 0.192995177743513
H -3.050412206041720 -1.937172208753158 -1.248453259076428
H -3.685490834564644 -1.740515172741214 0.491757751812041
7
maple-route1-mmgb-reference-mlip-reweighting-v1 phase=gas replicate=repeat-1 sample=40
C -2.855904905764356 -1.881714143683539 -0.046538563715837
N -1.671790725049606 -0.904106609820765 -0.015499886742344
O -0.566407925451975 -1.358775092337304 0.139348172215424
O -1.992430594566944 0.271014578766034 -0.065611196519225
H -2.576076294367633 -2.911514613747532 0.317528148295474
H -3.237825670992096 -1.842131297742057 -1.046299005003702
H -3.589538831310741 -1.514861552345854 0.692033779158939
7
maple-route1-mmgb-reference-mlip-reweighting-v1 phase=gas replicate=repeat-1 sample=41
C -2.857812411162573 -1.892060775981213 0.084235478784943
N -1.664692223518455 -0.890923059732153 -0.108479936313971
O -0.585791799704147 -1.382512831151889 0.086329850273691
O -1.975829794553879 0.294416946203078 -0.058850699861389
H -2.548704863221125 -2.921101440869514 0.414517396556789
H -3.396727781064149 -1.898710575458771 -0.882751151746965
H -3.501175961066380 -1.514340160892611 0.894607834242885
7
maple-route1-mmgb-reference-mlip-reweighting-v1 phase=gas replicate=repeat-1 sample=42
C -2.855298169145851 -1.861673393879705 0.151717991819495
N -1.678875286274669 -0.880481441335379 -0.091705591098351
O -0.584300568713435 -1.393631144488126 0.011007837066117
O -1.971241469937040 0.274396121898126 -0.061387871483913
H -2.414847113731936 -2.815862047096851 0.356643278765016
H -3.516401290739291 -1.924070721330462 -0.773705249135716
H -3.433527802290732 -1.597937733393906 1.050545957123238
7
maple-route1-mmgb-reference-mlip-reweighting-v1 phase=gas replicate=repeat-1 sample=43
C -2.878383869580863 -1.870664831453221 0.186552106910922
N -1.673086721591653 -0.892029003597068 -0.019528833272263
O -0.549837905034530 -1.363960937675124 -0.072866619598124
O -1.991416887036623 0.256601787852755 -0.076736736658567
H -2.451560221671495 -2.864449748461126 0.301806409821931
H -3.592543486852983 -1.799322851089558 -0.638008271886432
H -3.354252683091202 -1.600105586524423 1.126619563259014
7
maple-route1-mmgb-reference-mlip-reweighting-v1 phase=gas replicate=repeat-1 sample=44
C -2.814189391062534 -1.918057674465365 0.211098147503902
N -1.673785170498634 -0.884727941322239 0.050451555536459
O -0.601975479650191 -1.388014160315927 -0.139985591786246
O -2.004019714963519 0.314575065432776 -0.089858027710343
H -2.391016131449293 -2.942400384228740 0.141763233521871
H -3.498857840477987 -1.697828011739333 -0.542370438805375
H -3.241900663504143 -1.693702941917244 1.191876162211998
7
maple-route1-mmgb-reference-mlip-reweighting-v1 phase=gas replicate=repeat-1 sample=45
C -2.838658960077063 -1.898419665040376 0.272004644596473
N -1.667631108364442 -0.908933757024405 0.075204811097537
O -0.578127729544390 -1.334620362561661 -0.227679304447767
O -2.007049560655533 0.255984215929466 -0.073147792129511
H -2.454621298111727 -2.900518369425593 0.083817943491197
H -3.555007237089391 -1.560560933976298 -0.489446595915400
H -3.250987130827571 -1.695618615698822 1.259348024414384
7
maple-route1-mmgb-reference-mlip-reweighting-v1 phase=gas replicate=repeat-1 sample=46
C -2.801877393748042 -1.909019654080778 0.327784277084456
N -1.694564395085714 -0.902094711475325 0.041319767466094
O -0.585893883517988 -1.374616503911335 -0.291548274748336
O -2.019632631848685 0.302977067254938 -0.035270460380586
H -2.257160676076593 -2.798504641007131 0.066558506813999
H -3.666701849036623 -1.669666318887992 -0.376686544074766
H -3.064994412550812 -1.783705968835892 1.379364044228964
7
maple-route1-mmgb-reference-mlip-reweighting-v1 phase=gas replicate=repeat-1 sample=47
C -2.793373827941212 -1.906718607952141 0.393974180240339
N -1.732370147257793 -0.925396252557243 -0.068980327003579
O -0.597228764482141 -1.333034499799512 -0.312793596837682
O -1.990997639212201 0.276550825077466 0.010372248381943
H -2.280588374160252 -2.848957043424768 0.112965559457267
H -3.695567406918101 -1.665698434953907 -0.172775955234528
H -2.867012674290180 -1.674265895214743 1.487223503116485
7
maple-route1-mmgb-reference-mlip-reweighting-v1 phase=gas replicate=repeat-1 sample=48
C -2.761108323901742 -1.900935426493665 0.460929640543543
N -1.750098245060594 -0.939802295545382 -0.153175479590044
O -0.594283696431025 -1.358572106312317 -0.348213811436173
O -2.003892721666736 0.302205575065576 0.051314663548175
H -2.471840639310551 -2.940808280818497 0.186440764373261
H -3.660484449100864 -1.550139747072423 0.018903343224780
H -2.694117448251330 -1.566565638843586 1.506131163324941
7
maple-route1-mmgb-reference-mlip-reweighting-v1 phase=gas replicate=repeat-1 sample=49
C -2.721364950744254 -1.894115872860491 0.507880038650458
N -1.754356806856744 -0.924472977110226 -0.104731281760541
O -0.668591016419372 -1.363675454721337 -0.392319682841960
O -1.959858881012382 0.295373091682931 0.015317794820754
H -2.514388000828467 -2.853415836154354 0.045059692956305
H -3.701730092805999 -1.520352173175237 0.158578586511729
H -2.555631152213977 -1.796003264857276 1.555051009829763
7
maple-route1-mmgb-reference-mlip-reweighting-v1 phase=gas replicate=repeat-1 sample=50
C -2.781512488122697 -1.857404018296484 0.545228903969239
N -1.701520561288150 -0.902309387175896 -0.009480271760015
O -0.628433888695232 -1.396614815061971 -0.495647228382137
O -1.985202301494041 0.287571969790443 -0.000463095081184
H -2.654526389763818 -2.718337736468911 -0.091113225657897
H -3.825849319411065 -1.492096546469273 0.380458729971417
H -2.535981388110202 -2.046051001900527 1.587724550961753
7
maple-route1-mmgb-reference-mlip-reweighting-v1 phase=gas replicate=repeat-1 sample=51
C -2.729179364516881 -1.837344713551164 0.544225967576288
N -1.651723105972672 -0.884282130646567 0.070457115702065
O -0.738483958659010 -1.428514043886111 -0.537905263440072
O -1.963521210333961 0.287649283728126 -0.030628177632029
H -2.809245100312928 -2.684647917488814 -0.181411522446383
H -3.715968998852146 -1.376734218214389 0.520122322087343
H -2.404754418883430 -2.169582009671576 1.573785915432115
7
maple-route1-mmgb-reference-mlip-reweighting-v1 phase=gas replicate=repeat-1 sample=52
C -2.718303795217081 -1.851522135112222 0.595204285834940
N -1.632202003703890 -0.888718625027254 0.046333641296593
O -0.764548829916613 -1.429213349544218 -0.585223346497483
O -1.951415986054033 0.294507755746847 -0.021839089952541
H -3.133113597611333 -2.642870783723010 -0.098994686530086
H -3.589041578563024 -1.211099292833650 0.765023753037340
H -2.380999934007101 -2.245731225299483 1.585010853288624
7
maple-route1-mmgb-reference-mlip-reweighting-v1 phase=gas replicate=repeat-1 sample=53
C -2.700490805228434 -1.805261075826659 0.655014020501402
N -1.691795129349099 -0.894850434514350 -0.049198384520923
O -0.754026076260221 -1.447334185073040 -0.618311481786676
O -1.930460932144729 0.279749197759566 0.039741596810722
H -3.163278927216771 -2.469654904767112 -0.072331698014825
H -3.588100728669274 -1.217219223082497 1.010250819746202
H -2.235068793512807 -2.354812320333626 1.477043849244564
7
maple-route1-mmgb-reference-mlip-reweighting-v1 phase=gas replicate=repeat-1 sample=54
C -2.666817198746357 -1.848720578500005 0.692084505541665
N -1.767109279549839 -0.871054721728553 -0.124461321683907
O -0.802031402821659 -1.438996628832984 -0.628242496225085
O -1.862396137271971 0.306945893775345 0.081584252368580
H -3.121787962245421 -2.475311788783631 -0.032941071903971
H -3.500658791625695 -1.442737852718176 1.246726703135220
H -2.033771160372087 -2.499088527707369 1.297719634373481
7
maple-route1-mmgb-reference-mlip-reweighting-v1 phase=gas replicate=repeat-1 sample=55
C -2.627950691009135 -1.810100711843214 0.706984755944448
N -1.776291239036351 -0.899549760117582 -0.140832914770113
O -0.815389445878616 -1.415724185269862 -0.717194631643008
O -1.877954023163314 0.262740288103894 0.159116352986369
H -3.268819792888764 -2.485152042243856 0.126969043242910
H -3.291271880668714 -1.251129135196082 1.288664201510785
H -1.960274836918303 -2.410639158420901 1.322624946054236
7
maple-route1-mmgb-reference-mlip-reweighting-v1 phase=gas replicate=repeat-1 sample=56
C -2.589718507514575 -1.883300199775315 0.725197218397430
N -1.742812262839160 -0.908939616169979 -0.067556393453295
O -0.891094891323976 -1.401424143540752 -0.787139878735746
O -1.864018783502735 0.319254511931699 0.146666687982708
H -3.256206064883595 -2.550330939903712 0.149719311147653
H -3.251441051017649 -1.257289089292467 1.319553804809100
H -1.949517478676915 -2.480274664167401 1.346139193079960
7
maple-route1-mmgb-reference-mlip-reweighting-v1 phase=gas replicate=repeat-1 sample=57
C -2.543384324424202 -1.859648071165934 0.762335253593083
N -1.680075802294815 -0.913033212000809 0.011911539673173
O -0.974575285383147 -1.392019861306536 -0.890843867393525
O -1.878597602348252 0.295020604527976 0.157470053954784
H -3.014144563302222 -2.505726760271243 0.042846605400997
H -3.376954764264277 -1.279786051835310 1.263870247873026
H -1.941013339448200 -2.501779056605948 1.440284675177986
7
maple-route1-mmgb-reference-mlip-reweighting-v1 phase=gas replicate=repeat-1 sample=58
C -2.527576715892144 -1.851656811361145 0.811282010004123
N -1.645283431828449 -0.916722308254123 0.036370484116749
O -1.034717477652659 -1.367433998643599 -0.988812658007658
O -1.875457880954180 0.273472037254714 0.190634049770241
H -2.820002650142436 -2.594075749901986 0.061373251434147
H -3.396991261277665 -1.334162668606722 1.271084158743862
H -1.879249782794232 -2.447437343042949 1.513048663368755
7
maple-route1-mmgb-reference-mlip-reweighting-v1 phase=gas replicate=repeat-1 sample=59
C -2.466391631390179 -1.919529976705323 0.795135450506586
N -1.707803631953381 -0.915457613994728 -0.010504216076988
O -1.104455734325545 -1.338776448638300 -1.001705785971718
O -1.817334130499723 0.301219754435875 0.251015666601053
H -2.687503055292866 -2.857816565723432 0.187117755357280
H -3.317048650358129 -1.377094592629002 1.193896482991888
H -1.763933623976924 -2.246298535949625 1.555094740170035
7
maple-route1-mmgb-reference-mlip-reweighting-v1 phase=gas replicate=repeat-1 sample=60
C -2.382049243433524 -1.955822568241001 0.839242057227714
N -1.829168742956287 -0.908510862098264 -0.103880300441237
O -1.124626283077792 -1.284040910348987 -1.062961456212675
O -1.774043482812258 0.263588722209520 0.348094020383248
H -2.462565764066578 -2.935265401794126 0.345119861508197
H -3.285028624952855 -1.432871537579206 1.134184691265987
H -1.703061590557198 -2.040864678365412 1.668563970194737
7
maple-route1-mmgb-reference-mlip-reweighting-v1 phase=gas replicate=repeat-1 sample=61
C -2.294953781572634 -1.980989885886185 0.825212044827427
N -1.870938308088510 -0.884344592739819 -0.098796442294768
O -1.197285500934897 -1.242722004578129 -1.101636030498326
O -1.752327558145806 0.230851774040572 0.401135747679353
H -2.072823627648270 -2.829813582566773 0.258749227870433
H -3.341760386957799 -1.747970835431503 1.018242752806679
H -1.695585806350473 -2.001351505399954 1.748017113744825
7
maple-route1-mmgb-reference-mlip-reweighting-v1 phase=gas replicate=repeat-1 sample=62
C -2.257312679195533 -2.058896358238156 0.811849793730112
N -1.748356779075386 -0.897470630501800 -0.041332892438682
O -1.311756981021319 -1.167640355825722 -1.178235205837831
O -1.785036352872224 0.241313885956886 0.440336680733811
H -1.778386612575294 -2.867223151140238 0.291433740382892
H -3.344336754594473 -2.012818923474780 0.879899749887362
H -1.803322052669043 -1.938507987546021 1.803212503530249
7
maple-route1-mmgb-reference-mlip-reweighting-v1 phase=gas replicate=repeat-1 sample=63
C -2.180285034650800 -2.098660058271632 0.783567959747469
N -1.600844055340791 -0.914931474513405 -0.019077528252799
O -1.441687266134006 -1.082143658037896 -1.220394406296089
O -1.847134158126034 0.202094107939230 0.488111789006036
H -1.607842856551976 -3.031097944840128 0.463763502718105
H -3.268493351373847 -2.040113325932142 0.641689712256287
H -1.978041355536604 -1.771574686096596 1.809861211445671
7
maple-route1-mmgb-reference-mlip-reweighting-v1 phase=gas replicate=repeat-1 sample=64
C -2.052805342421234 -2.153789894904180 0.719933499094289
N -1.646496900078653 -0.890846739258372 -0.024641185866896
O -1.538326950649005 -1.029908264961939 -1.215930779025229
O -1.828313574904228 0.186573762620315 0.561765883198560
H -1.309995351031115 -2.943775197812624 0.384311112420066
H -3.106269687095984 -2.288389266558952 0.342841893913756
H -2.078134535751766 -1.872107057490932 1.787218607255099
7
maple-route1-mmgb-reference-mlip-reweighting-v1 phase=gas replicate=repeat-1 sample=65
C -1.942760947613038 -2.234919569770118 0.711839150221400
N -1.776342814498463 -0.871338198431882 -0.046862370667681
O -1.554371081958352 -0.921538949742216 -1.263309211223953
O -1.812027912693006 0.147529933142261 0.637923908470960
H -1.048943469510381 -2.753101617517069 0.406348051280354
H -2.844135944150399 -2.697683908736159 0.237982296753788
H -2.107109554454035 -2.066341379996650 1.815764309025478
7
maple-route1-mmgb-reference-mlip-reweighting-v1 phase=gas replicate=repeat-1 sample=66
C -1.828533170341816 -2.226454859336753 0.630422368339834
N -1.885086974453689 -0.866370397721760 -0.067223878917119
O -1.575123637791936 -0.856009531513162 -1.235788616026809
O -1.819934911846835 0.072607812005087 0.699562511112659
H -0.810710437274185 -2.556526670405613 0.466757158760816
H -2.512822989440804 -2.922140726599239 0.162916767860553
H -2.081878445978504 -2.045461161015965 1.673340414236229
7
maple-route1-mmgb-reference-mlip-reweighting-v1 phase=gas replicate=repeat-1 sample=67
C -1.712527294280473 -2.283696422625171 0.555715227592158
N -1.891861206602144 -0.863349674334514 -0.051813754033523
O -1.655070316318842 -0.812522397306439 -1.220026129378906
O -1.846325536592981 0.085681656735723 0.743882592972606
H -0.655423112139854 -2.577958364775884 0.548759250157305
H -2.240067477963454 -3.022646594274452 -0.049447756763167
H -2.110299763084630 -2.186439920371360 1.522488696464884
7
maple-route1-mmgb-reference-mlip-reweighting-v1 phase=gas replicate=repeat-1 sample=68
C -1.629773844173048 -2.278275735067375 0.528525357257350
N -1.825251953291447 -0.870660548866402 -0.041298482469094
O -1.745000168392540 -0.729853251254419 -1.256886967822521
O -1.895745199521251 0.007039177883718 0.800699320401237
H -0.557619767838003 -2.489134123270692 0.626341727922595
H -1.985551093911272 -2.986713389061400 -0.236548186065835
H -2.159714592710451 -2.340980460324590 1.486600946486466
7
maple-route1-mmgb-reference-mlip-reweighting-v1 phase=gas replicate=repeat-1 sample=69
C -1.559897959547877 -2.312137946901960 0.433615558666713
N -1.746616233765111 -0.864611780597499 -0.020041511864537
O -1.836955663955774 -0.669234388246342 -1.231288988712092
O -1.943314076045836 -0.019523387521415 0.848981234036183
H -0.487079329590672 -2.497322930006182 0.619176601221073
H -1.740532387206302 -2.952458028887841 -0.450690766591860
H -2.184800842348503 -2.567577459019450 1.375817354654421
7
maple-route1-mmgb-reference-mlip-reweighting-v1 phase=gas replicate=repeat-1 sample=70
C -1.476842202239545 -2.291640642033846 0.338695481619133
N -1.713462691020699 -0.869717311747812 -0.030655934918678
O -1.926256121826527 -0.616276987799540 -1.204891299136814
O -1.958813263593230 -0.091225398386200 0.918289493085230
H -0.416907859662292 -2.446451212707374 0.677413634980301
H -1.582847093002122 -2.951730551776282 -0.557872326453514
H -2.193788097982760 -2.497528623802660 1.180518982740545
7
maple-route1-mmgb-reference-mlip-reweighting-v1 phase=gas replicate=repeat-1 sample=71
C -1.396083707655664 -2.308958698101762 0.259751814477529
N -1.759021203578647 -0.889016615499060 -0.021071088956170
O -1.978295189330180 -0.535816612334860 -1.182643040053749
O -1.947122823236505 -0.140481679746864 0.964134645366495
H -0.388170481528707 -2.378503178085303 0.705050953913665
H -1.381402927968134 -2.910501338247030 -0.665260196555356
H -2.115789862861957 -2.628843144124325 0.987223152709099
7
maple-route1-mmgb-reference-mlip-reweighting-v1 phase=gas replicate=repeat-1 sample=72
C -1.327210323158101 -2.303064323384156 0.158223262990918
N -1.842333038661753 -0.919748323287772 -0.000018926970329
O -2.001296686286017 -0.477632334462371 -1.151628117561400
O -1.921904309427029 -0.178871829047513 1.018177638075288
H -0.371139192291671 -2.273015240356760 0.626621196585772
H -1.217711033701378 -2.721621101860138 -0.816874599482731
H -1.999044671325354 -2.875592984250959 0.775947383645535
7
maple-route1-mmgb-reference-mlip-reweighting-v1 phase=gas replicate=repeat-1 sample=73
C -1.266987048893249 -2.257813573131461 0.060334787367174
N -1.894347401861016 -0.939733877897480 0.007298706195108
O -2.047257644308423 -0.400439489582020 -1.108430823129351
O -1.889726957529739 -0.282910271949545 1.062938249489618
H -0.370978503272269 -2.154439831564003 0.635856911161723
H -1.092024727086210 -2.566049187519775 -0.957114477346417
H -1.896561279334732 -2.989175875286602 0.564339657699795
7
maple-route1-mmgb-reference-mlip-reweighting-v1 phase=gas replicate=repeat-1 sample=74
C -1.188189176022376 -2.272077944133802 -0.058941528134274
N -1.864532355999571 -0.926395821243886 0.018228329821080
O -2.107904940268347 -0.339514698571846 -1.057860399863466
O -1.923013588710756 -0.334303533086695 1.119530970750084
H -0.393668225566366 -2.333658704432425 0.721897766706039
H -0.917767016732998 -2.518984269092975 -1.117586615852131
H -1.911725812507213 -3.037019024945348 0.210376036251152
7
maple-route1-mmgb-reference-mlip-reweighting-v1 phase=gas replicate=repeat-1 sample=75
C -1.164553471602108 -2.211613817320113 -0.149150592987758
N -1.777844917241131 -0.888152183536109 0.024451367628200
O -2.182135969031653 -0.308076584549676 -1.008221385843504
O -1.943826606666779 -0.456595152521752 1.159236238622382
H -0.501513994674489 -2.413487433251133 0.733095021610417
H -0.746241222285325 -2.296851446463851 -1.178243371649394
H -1.956259018355903 -2.992131315030840 -0.160300311882184
7
maple-route1-mmgb-reference-mlip-reweighting-v1 phase=gas replicate=repeat-1 sample=76
C -1.139959533029756 -2.216200188065272 -0.250300457041213
N -1.716381755989762 -0.837097425364720 0.032799046650055
O -2.236556359257488 -0.233776089686808 -0.954096899310849
O -1.970294046451920 -0.575031856100991 1.196849963495416
H -0.578278473906609 -2.490177321903330 0.652495245024190
H -0.597614925302575 -2.172514636676298 -1.172306839474175
H -1.898336184005730 -3.007655650058085 -0.453193924730859
7
maple-route1-mmgb-reference-mlip-reweighting-v1 phase=gas replicate=repeat-1 sample=77
C -1.112326543934822 -2.153334500367967 -0.365333585414006
N -1.748593408596470 -0.850319568142232 0.051269551678889
O -2.221821615203809 -0.180698591793008 -0.879293891553815
O -1.983857357382083 -0.681089433471944 1.219311752200814
H -0.644795362566927 -2.524791893354900 0.519650867257637
H -0.485290728630460 -1.995932467904383 -1.219805292279648
H -1.838676007237630 -2.873138213936616 -0.704110443156892
7
maple-route1-mmgb-reference-mlip-reweighting-v1 phase=gas replicate=repeat-1 sample=78
C -1.075721531474200 -2.119945952355949 -0.462657604620870
N -1.818578135774074 -0.888931201568196 0.059115355520098
O -2.193608314885510 -0.084548285252553 -0.817063362501047
O -1.986745697728050 -0.777797923472144 1.246647513673389
H -0.696664176573897 -2.652536824100620 0.390038115005746
H -0.345399760706212 -1.870972090365479 -1.233532647265196
H -1.797986207654399 -2.718588824065555 -0.930927553532345
7
maple-route1-mmgb-reference-mlip-reweighting-v1 phase=gas replicate=repeat-1 sample=79
C -1.059541871185493 -2.083063441853113 -0.540584586662383
N -1.883522202988382 -0.920587109134391 0.054957337692038
O -2.161915450612118 0.012466932326766 -0.740595334987265
O -1.984820357565845 -0.886853349597038 1.250373700689997
H -0.718589645562372 -2.697687847056883 0.297013307488603
H -0.231637876377443 -1.688436345779879 -1.156110908233267
H -1.713444366842798 -2.667316221687328 -1.192026920816076
7
maple-route1-mmgb-reference-mlip-reweighting-v1 phase=gas replicate=repeat-1 sample=80
C -1.086463952205650 -1.997746099282629 -0.647650968108457
N -1.902737596809536 -0.939351906346186 0.055604856899230
O -2.127624928112496 0.047120918918916 -0.643917928455644
O -1.986501193428163 -0.989763852818530 1.253532292648754
H -0.758319543653982 -2.720753408448281 0.162064400662915
H -0.202527228586513 -1.456966661235311 -1.031658335175629
H -1.635526007515682 -2.536317943479839 -1.494452538042789
7
maple-route1-mmgb-reference-mlip-reweighting-v1 phase=gas replicate=repeat-1 sample=81
C -1.073968443982458 -1.970410965886216 -0.750472375539260
N -1.888638354368225 -0.930928023103954 0.055175703833518
O -2.158780295210112 0.136753216571464 -0.540262307863592
O -1.974321149202304 -1.111253723874438 1.252129114173047
H -0.851374772124946 -2.831277339589204 -0.046848104633718
H -0.091092121833324 -1.482917908261872 -1.081931281443975
H -1.703761084763502 -2.331478561476878 -1.627729115148741
7
maple-route1-mmgb-reference-mlip-reweighting-v1 phase=gas replicate=repeat-1 sample=82
C -1.104919813670574 -1.889555191712953 -0.826473582895180
N -1.794206632954025 -0.906848089868453 0.083182447630689
O -2.189595785497261 0.132187908949483 -0.465887478631061
O -1.986360253234412 -1.209836167835497 1.231691567193133
H -0.952021287795069 -2.847026990911233 -0.304855332302422
H -0.103106511993038 -1.459505482303971 -1.188586200978883
H -1.854649420979911 -2.010987287911970 -1.604061344582419
7
maple-route1-mmgb-reference-mlip-reweighting-v1 phase=gas replicate=repeat-1 sample=83
C -1.102605106561270 -1.852113788555836 -0.900276556428490
N -1.704170327702553 -0.856484597580356 0.106411352600832
O -2.258750464173617 0.148296955766717 -0.405439576094087
O -1.994827743448415 -1.304180062331581 1.215791885470452
H -1.004381514179695 -2.809820415703887 -0.411481140427338
H -0.128927418705535 -1.506755313442556 -1.139042067207098
H -1.806177295230788 -1.913109714453599 -1.699895419939246
7
maple-route1-mmgb-reference-mlip-reweighting-v1 phase=gas replicate=repeat-1 sample=84
C -1.095092519325624 -1.755396035750913 -0.936896567513686
N -1.731643613148302 -0.877449899497285 0.090908512398855
O -2.252643111120169 0.153672545611777 -0.328682925186789
O -1.990266322572407 -1.383065821705012 1.182533790377706
H -0.994043272280722 -2.712457002453376 -0.494044902621975
H -0.125279881005576 -1.421371779838846 -0.952173512667270
H -1.698432709782043 -1.774211744419017 -1.828757828576347
7
maple-route1-mmgb-reference-mlip-reweighting-v1 phase=gas replicate=repeat-1 sample=85
C -1.036676155546552 -1.697700184276810 -1.019816398296625
N -1.837655847060727 -0.935328181922138 0.067750742971109
O -2.239611409435466 0.206475025455486 -0.236347525028576
O -1.968158442849634 -1.443957637336844 1.196437074464963
H -0.918664469382759 -2.714812293292723 -0.739557233814903
H -0.027411739692471 -1.302869250407915 -1.002551221286823
H -1.654064000838545 -1.642733205255500 -1.918714565595332
7
maple-route1-mmgb-reference-mlip-reweighting-v1 phase=gas replicate=repeat-1 sample=86
C -1.073803716779139 -1.598051282122349 -1.011683516505883
N -1.922376876098654 -0.973888588710935 0.037869997541200
O -2.192849235549279 0.218231862964336 -0.128887938915804
O -1.907839928422571 -1.520350036961345 1.110925756180219
H -0.900792365231848 -2.672180538810834 -0.804498816967702
H -0.043651805438345 -1.130653657264716 -0.994912492463635
H -1.730771576414273 -1.486350321111316 -1.882280245101350
7
maple-route1-mmgb-reference-mlip-reweighting-v1 phase=gas replicate=repeat-1 sample=87
C -1.104411623804183 -1.528590921307765 -1.119746523593820
N -1.940487999650175 -0.967846127641965 0.045194165327023
O -2.166793580380219 0.253923717136816 -0.021315247573945
O -1.897284391429231 -1.623477753830607 1.102035766170661
H -0.847127736727172 -2.630823056682517 -0.941217423322824
H -0.105289385361068 -1.054458783203898 -1.050888852451395
H -1.682970422460538 -1.431395718755857 -2.072723638858348
7
maple-route1-mmgb-reference-mlip-reweighting-v1 phase=gas replicate=repeat-1 sample=88
C -1.165902167540567 -1.460928038191068 -1.175346116029649
N -1.796211071066463 -0.927436612168824 0.096224619018970
O -2.172018859151655 0.224277526460189 0.074827391462978
O -1.952042695710099 -1.699068617047248 1.018489447436846
H -0.989501568404836 -2.535590390103791 -1.047522601447916
H -0.156280881929387 -1.030958856568017 -1.189530415421286
H -1.819966821930895 -1.255279830859629 -2.072834913967391
7
maple-route1-mmgb-reference-mlip-reweighting-v1 phase=gas replicate=repeat-1 sample=89
C -1.192839255303488 -1.405306307379241 -1.224011915155514
N -1.691926850033920 -0.902909321175492 0.153591978405244
O -2.180179830860356 0.247356639486306 0.146238641689332
O -1.992601064569149 -1.802708547725759 0.950258225143910
H -1.188874549991338 -2.468618849679222 -1.209193907302553
H -0.183272575542614 -1.026315704611168 -1.430699222911400
H -1.943632927163614 -1.037305906324743 -1.927832489798104
7
maple-route1-mmgb-reference-mlip-reweighting-v1 phase=gas replicate=repeat-1 sample=90
C -1.193998038220805 -1.319738141629194 -1.226722852314437
N -1.737956249087962 -0.934607117605912 0.122448993586423
O -2.122065960824596 0.207163242764790 0.240682550570577
O -2.010597239521719 -1.822906160290827 0.883428844329735
H -1.248698046171554 -2.407193952691942 -1.297259215393473
H -0.180118098276637 -0.901122128433932 -1.340578025380148
H -1.860713118222753 -0.840900326533224 -1.897259612188799
7
maple-route1-mmgb-reference-mlip-reweighting-v1 phase=gas replicate=repeat-1 sample=91
C -1.170172776186341 -1.261589196685116 -1.293187871113207
N -1.851987558629760 -0.950945476575669 0.084786837856680
O -2.056193667689450 0.260017919681825 0.350846185107016
O -2.009315330906634 -1.919020384350699 0.865450183498014
H -1.173780474027689 -2.380172930519882 -1.364299099824064
H -0.185418112100146 -0.798583263496325 -1.208446749956315
H -1.695564697781411 -0.757208082842587 -2.114977904571120
7
maple-route1-mmgb-reference-mlip-reweighting-v1 phase=gas replicate=repeat-1 sample=92
C -1.167995054864970 -1.178638985346321 -1.230055592422494
N -1.942848960873107 -0.960899861097540 0.034457980547944
O -1.991257247818776 0.180811312326238 0.431036380656748
O -1.998185473153733 -1.917408255765471 0.766524325134997
H -1.115902177523247 -2.276506411447841 -1.315823736529683
H -0.229336929072872 -0.622016197988140 -1.031089580420538
H -1.685662666434798 -0.658227831295972 -2.093099894225264
7
maple-route1-mmgb-reference-mlip-reweighting-v1 phase=gas replicate=repeat-1 sample=93
C -1.100439458453102 -1.106397137704943 -1.263327714329782
N -1.919300135087494 -0.963007917684908 0.056846682070458
O -2.003489310208691 0.203511123634294 0.502258011013193
O -2.063509332263277 -2.010435496641532 0.718292169138703
H -1.086499941235431 -2.177874718608519 -1.510120201034235
H -0.141752485177937 -0.520954555216017 -1.186788162088320
H -1.708444154497781 -0.569253525828066 -2.026670816537133
7
maple-route1-mmgb-reference-mlip-reweighting-v1 phase=gas replicate=repeat-1 sample=94
C -1.130667715078086 -1.026323497225387 -1.245593221325862
N -1.741461914653074 -0.964851244369081 0.137070320252695
O -2.040356751363559 0.133462841167765 0.552726588515744
O -2.148990114847286 -2.011124444766728 0.583473741241196
H -1.110087809869013 -2.098255817840373 -1.570052791885068
H -0.201782028906933 -0.453962984481351 -1.222379253993092
H -1.786956458885850 -0.520034795340449 -1.914884365858231
7
maple-route1-mmgb-reference-mlip-reweighting-v1 phase=gas replicate=repeat-1 sample=95
C -1.157366146659825 -0.940586383771764 -1.249851242464324
N -1.672995584080369 -0.978223123254515 0.188661714887202
O -2.032203514304625 0.115180422578369 0.594335312916074
O -2.196339527519164 -2.061925399350070 0.503866119480316
H -1.003660904407630 -1.959404590612388 -1.613052559875811
H -0.272831105687963 -0.359018120202861 -1.216467175318713
H -1.843204023258569 -0.483405545521005 -1.940839344258659
7
maple-route1-mmgb-reference-mlip-reweighting-v1 phase=gas replicate=repeat-1 sample=96
C -1.129771574817442 -0.895611231994303 -1.253927919468888
N -1.765103976144338 -0.964846267898433 0.118870840260348
O -1.965688457756789 0.073303853781584 0.711271028310011
O -2.217635367692405 -2.076153102394867 0.449765750233107
H -0.872756341582508 -1.874230417340935 -1.603643646409017
H -0.225756506024139 -0.291578895034680 -1.115649456817386
H -1.789550015083982 -0.469952208473917 -2.018270643775093
7
maple-route1-mmgb-reference-mlip-reweighting-v1 phase=gas replicate=repeat-1 sample=97
C -1.092705919187413 -0.856166363290966 -1.230085887315963
N -1.885029157557908 -0.941691307006175 0.051487030051153
O -1.870745778397701 0.029609997532284 0.786304646744812
O -2.245534378492535 -2.091453798446247 0.411859584329921
H -0.698617430768502 -1.826750604000647 -1.551719225229564
H -0.250599730049376 -0.115599155388158 -1.084773466440068
H -1.781540282402301 -0.551901881529556 -2.039992200519652
7
maple-route1-mmgb-reference-mlip-reweighting-v1 phase=gas replicate=repeat-1 sample=98
C -1.085460402585618 -0.814902799624883 -1.190364632339078
N -1.951241355701071 -0.903985908814347 0.018199702873050
O -1.786712197127958 -0.045269584256681 0.871887227353438
O -2.281653800021235 -2.083208902237478 0.317768789862001
H -0.565946227619369 -1.789869525179171 -1.443512154790826
H -0.326684369184602 -0.024565937309091 -1.064466466943203
H -1.761937906062105 -0.639386010229934 -2.050332668607615
7
maple-route1-mmgb-reference-mlip-reweighting-v1 phase=gas replicate=repeat-1 sample=99
C -1.091013248806963 -0.747862824864273 -1.198512073322583
N -1.853577308555078 -0.941417184288016 0.046340132297437
O -1.758038471738993 -0.107608693019403 0.946015847745816
O -2.389966733314939 -2.060219778613762 0.221945736352089
H -0.352899110262984 -1.536502559439088 -1.351506786295810
H -0.532989308108375 0.182126727220696 -1.100952825116015
H -1.790542021887445 -0.755399745222296 -2.064193559382679
