15
Scanning combination 1/37: [0.0036]  Energy = -271.5347657125
C   0.0009677872  1.5051504461 -0.0000090497
C   0.0028473325  0.0031222469 -0.0000513287
C   1.1966443008 -0.7067467530  0.0000170209
C   1.1990290353 -2.0944365339  0.0000227677
C   0.0007286773 -2.7896763521 -0.0000079494
C  -1.1992194676 -2.0907364749  0.0000055349
C  -1.1957670937 -0.7058977832 -0.0000360828
H   1.0176185306  1.8944764303  0.0000125806
H  -0.5117718140  1.8940214266  0.8805567266
H  -0.5117543003  1.8940639861 -0.8805526451
H   2.1343345224 -0.1635865481  0.0000161693
H   2.1389174528 -2.6308457719 -0.0000146983
H  -0.0001889697 -3.8708192525 -0.0000092776
H  -2.1384377616 -2.6286706925  0.0000374420
H  -2.1340623945 -0.1627183789  0.0000151312
15
Scanning combination 2/37: [10.0036]  Energy = -271.5347640697
C   0.0009675387  1.5053490248 -0.0000090441
C   0.0028471914  0.0032349957 -0.0000513255
C   1.1966411049 -0.7068190230  0.0000170187
C   1.1990610267 -2.0944997884  0.0001158561
C   0.0006870467 -2.7898835604  0.0000092717
C  -1.1991663160 -2.0909064399  0.0000958981
C  -1.1956613422 -0.7058911417  0.0000259707
H   1.0022173937  1.8947650355 -0.1766203932
H  -0.3511443594  1.8944874295  0.9562834387
H  -0.6569284560  1.8940651331 -0.7781368887
H   2.1344417530 -0.1636877454 -0.0000531792
H   2.1389837635 -2.6309481150 -0.0000330584
H  -0.0002181401 -3.8711217792 -0.0000395602
H  -2.1385136516 -2.6286795055  0.0000187866
H  -2.1340865516 -0.1627642660 -0.0000559169
15
Scanning combination 3/37: [20.0036]  Energy = -271.5347589879
C   0.0009672776  1.5055577198 -0.0000090382
C   0.0028470843  0.0033206384 -0.0000513231
C   1.1967384141 -0.7069769630  0.0000170214
C   1.1991513348 -2.0944119038  0.0002666580
C   0.0005026917 -2.7900901080  0.0000466293
C  -1.1990483735 -2.0912007287  0.0002461438
C  -1.1954952487 -0.7058028536  0.0001288107
H   0.9563903393  1.8950327502 -0.3479093828
H  -0.1797097822  1.8949736493  1.0030122957
H  -0.7820270761  1.8940390038 -0.6519969547
H   2.1345555837 -0.1637897692 -0.0001736214
H   2.1390412548 -2.6310377760 -0.0000633538
H  -0.0002460724 -3.8713986547 -0.0000921975
H  -2.1385791159 -2.6286901563 -0.0000124930
H  -2.1340678742 -0.1628235240 -0.0001766814
15
Scanning combination 4/37: [30.0036]  Energy = -271.5347542347
C   0.0009670242  1.5057601930 -0.0000090325
C   0.0028469920  0.0033943488 -0.0000513211
C   1.1969449426 -0.7072094389  0.0000170301
C   1.1992894710 -2.0941911522  0.0004255166
C   0.0002056203 -2.7902856661  0.0000982673
C  -1.1988778987 -2.0916136486  0.0004114984
C  -1.1952357301 -0.7056480860  0.0002390528
H   0.8815428401  1.8952943184 -0.5086674418
H  -0.0026479843  1.8954584752  1.0192308410
H  -0.8832352353  1.8940022951 -0.5060557243
H   2.1346951624 -0.1638904558 -0.0003128523
H   2.1390893883 -2.6311110505 -0.0000955447
H  -0.0002757900 -3.8716560524 -0.0001509719
H  -2.1386360715 -2.6287070772 -0.0000462127
H  -2.1340021696 -0.1628936558 -0.0003118480
15
Scanning combination 5/37: [40.0036]  Energy = -271.5347515536
C   0.0009667901  1.5059472832 -0.0000090273
C   0.0028468982  0.0034692929 -0.0000513189
C   1.1972341277 -0.7074708435  0.0000170442
C   1.1994490060 -2.0939042866  0.0005428341
C  -0.0001374007 -2.7904692276  0.0001566524
C  -1.1986833848 -2.0920821040  0.0005419771
C  -1.1948999552 -0.7054724560  0.0003251721
H   0.7799460942  1.8955550946 -0.6540339276
H   0.1746365953  1.8959227895  1.0043519349
H  -0.9575046341  1.8939736456 -0.3448277993
H   2.1348693159 -0.1639912324 -0.0004325946
H   2.1391275082 -2.6311662035 -0.0001193864
H  -0.0003060760 -3.8718961384 -0.0002012782
H  -2.1386873785 -2.6287335969 -0.0000716415
H  -2.1338875811 -0.1629758218 -0.0004228975
15
Scanning combination 6/37: [50.0036]  Energy = -271.5347505022
C   0.0009665744  1.5061196288 -0.0000090224
C   0.0028468009  0.0035471002 -0.0000513168
C   1.1975504991 -0.7077001071  0.0000170611
C   1.1995921878 -2.0936398158  0.0005790062
C  -0.0004448432 -2.7906415822  0.0002129587
C  -1.1985036147 -2.0925200366  0.0005956684
C  -1.1945373077 -0.7053314147  0.0003629834
H   0.6546666385  1.8958108495 -0.7796113403
H   0.3466869589  1.8963505028  0.9587615509
H  -1.0026358485  1.8939728545 -0.1732641267
H   2.1350754054 -0.1640936630 -0.0004993906
H   2.1391562755 -2.6312058805 -0.0001260188
H  -0.0003252854 -3.8721203238 -0.0002295118
H  -2.1387347068 -2.6287691605 -0.0000794314
H  -2.1337316300 -0.1630694421 -0.0004787480
15
Scanning combination 7/37: [60.0036]  Energy = -271.5347495077
C   0.0009663690  1.5062838186 -0.0000090178
C   0.0028467141  0.0036164869 -0.0000513148
C   1.1978243572 -0.7078421814  0.0000170774
C   1.1996848479 -2.0934883905  0.0005269554
C  -0.0006111961 -2.7908067113  0.0002466171
C  -1.1983733695 -2.0928377951  0.0005572066
C  -1.1942129538 -0.7052732535  0.0003448534
H   0.5094771045  1.8960511156 -0.8815871468
H   0.5081815966  1.8967287025  0.8838275175
H  -1.0173305281  1.8940191094  0.0034088315
H   2.1352996493 -0.1641962289 -0.0004944507
H   2.1391777888 -2.6312339992 -0.0001142711
H  -0.0003543569 -3.8723301004 -0.0002257667
H  -2.1387784960 -2.6288093885 -0.0000682506
H  -2.1335509862 -0.1631683899 -0.0004633855
15
Scanning combination 8/37: [70.0036]  Energy = -271.5347487367
C   0.0009661682  1.5064442837 -0.0000090133
C   0.0028466456  0.0036712107 -0.0000513133
C   1.1979965703 -0.7078654437  0.0000170895
C   1.1997060998 -2.0935043164  0.0003918858
C  -0.0006080321 -2.7909632302  0.0002546029
C  -1.1983121999 -2.0929820109  0.0004309278
C  -1.1939867516 -0.7053285411  0.0002716942
H   0.3487527820  1.8962639765 -0.9568420411
H   0.6541252011  1.8970483518  0.7818626761
H  -1.0012140198  1.8941298888  0.1798501108
H   2.1355204375 -0.1642992344 -0.0004185527
H   2.1391952118 -2.6312592310 -0.0000846251
H  -0.0003759465 -3.8725273850 -0.0001894850
H  -2.1388171219 -2.6288479050 -0.0000385312
H  -2.1333688167 -0.1632648682 -0.0003790676
15
Scanning combination 9/37: [80.0036]  Energy = -271.5347501342
C   0.0009659756  1.5065982106 -0.0000090089
C   0.0028465930  0.0037132115 -0.0000513121
C   1.1980333565 -0.7077723551  0.0000170948
C   1.1996507931 -2.0936977065  0.0002075144
C  -0.0004274369 -2.7911121891  0.0002386874
C  -1.1983262112 -2.0929405687  0.0002489814
C  -1.1938949062 -0.7054985063  0.0001591117
H   0.1773537157  1.8964399085 -1.0030466816
H   0.7800250095  1.8973055734  0.6560431305
H  -0.9548289245  1.8943192332  0.3507614586
H   2.1357139686 -0.1644037097 -0.0002919222
H   2.1392118976 -2.6312890329 -0.0000442240
H  -0.0003905939 -3.8727132489 -0.0001328784
H  -2.1388483161 -2.6288778785  0.0000024968
H  -2.1332093212 -0.1633535484 -0.0002458916
15
Scanning combination 10/37: [90.0036]  Energy = -271.5347555402
C   0.0009658002  1.5067383261 -0.0000090050
C   0.0028465428  0.0037533762 -0.0000513109
C   1.1979319454 -0.7075954797  0.0000170923
C   1.1995387973 -2.0940320629  0.0000171196
C  -0.0001106762 -2.7912539430  0.0002155614
C  -1.1983990258 -2.0927491029  0.0000588358
C  -1.1939406688 -0.7057547906  0.0000330693
H   0.0004887098  1.8965727887 -1.0187433833
H   0.8820402675  1.8975023702  0.5102893295
H  -0.8796034964  1.8945946620  0.5110355370
H   2.1358607638 -0.1645129375 -0.0001485569
H   2.1392305468 -2.6313281601 -0.0000032016
H  -0.0004005916 -3.8728886793 -0.0000827794
H  -2.1388704630 -2.6288943753  0.0000446180
H  -2.1330919033 -0.1634337983 -0.0000973610
15
Scanning combination 11/37: [100.0036]  Energy = -271.5347636404
C   0.0009656475  1.5068603687 -0.0000090016
C   0.0028464808  0.0038028859 -0.0000513096
C   1.1977303803 -0.7073880711  0.0000170832
C   1.1993973806 -2.0944297947 -0.0001321600
C   0.0002469151 -2.7913877621  0.0002068919
C  -1.1984997696 -2.0924860502 -0.0000923231
C  -1.1940908270 -0.7060446953 -0.0000773786
H  -0.1764394824  1.8966597915 -1.0034072073
H   0.9570992752  1.8976462395  0.3491216527
H  -0.7778005882  1.8949537651  0.6558905863
H   2.1359518097 -0.1646311671 -0.0000265167
H   2.1392530492 -2.6313794655  0.0000296208
H  -0.0003894704 -3.8730544942 -0.0000623410
H  -2.1388830073 -2.6288954046  0.0000791740
H  -2.1330260726 -0.1635080781  0.0000278001
15
Scanning combination 12/37: [110.0036]  Energy = -271.5347712718
C   0.0009655118  1.5069688021 -0.0000089985
C   0.0028464074  0.0038615479 -0.0000513079
C   1.1974887948 -0.7072117644  0.0000170703
C   1.1992639331 -2.0948081951 -0.0001937148
C   0.0005867858 -2.7915141437  0.0001530411
C  -1.1985892767 -2.0922362621 -0.0001628611
C  -1.1942853247 -0.7063024049 -0.0001392752
H  -0.3480055827  1.8967016312 -0.9574789198
H   1.0029829626  1.8977489300  0.1775018204
H  -0.6524518156  1.8953835121  0.7809916814
H   2.1359922861 -0.1647603835  0.0000424484
H   2.1392785314 -2.6314413140  0.0000439946
H  -0.0003927196 -3.8732109229 -0.0000228232
H  -2.1388868558 -2.6288835240  0.0000957384
H  -2.1330090184 -0.1635781456  0.0000965775
15
Scanning combination 13/37: [120.0036]  Energy = -271.5347749561
C   0.0009653812  1.5070731948 -0.0000089956
C   0.0028463383  0.0039167655 -0.0000513063
C   1.1972709604 -0.7071169547  0.0000170569
C   1.1991816847 -2.0950725349 -0.0001599450
C   0.0007960447 -2.7916357710  0.0001185039
C  -1.1986298487 -2.0920961421 -0.0001403282
C  -1.1944515274 -0.7064724154 -0.0001369680
H  -0.5089426408  1.8967021057 -0.8823608977
H   1.0183781042  1.8978246663  0.0006694784
H  -0.5072800401  1.8958634346  0.8825633472
H   2.1359983276 -0.1648949825  0.0000413111
H   2.1393060245 -2.6315080786  0.0000381438
H  -0.0003928562 -3.8733587834 -0.0000170675
H  -2.1388835398 -2.6288634042  0.0000919883
H  -2.1330266131 -0.1636445451  0.0000918780
15
Scanning combination 14/37: [130.0036]  Energy = -271.5347739223
C   0.0009652472  1.5071802848 -0.0000089926
C   0.0028462843  0.0039599604 -0.0000513051
C   1.1971417015 -0.7071358279  0.0000170468
C   1.1991688988 -2.0951682509 -0.0000400396
C   0.0008298960 -2.7917520999  0.0001077628
C  -1.1986006156 -2.0921208688 -0.0000321355
C  -1.1945266592 -0.7065229982 -0.0000730240
H  -0.6543204314  1.8966681159 -0.7803723024
H   1.0028990593  1.8978884381 -0.1760208806
H  -0.3466076561  1.8963704368  0.9574962710
H   2.1359923081 -0.1650283125 -0.0000292234
H   2.1393337807 -2.6315731746  0.0000141824
H  -0.0003914338 -3.8734991345 -0.0000430506
H  -2.1388759609 -2.6288426818  0.0000695489
H  -2.1330560693 -0.1637077624  0.0000165113
15
Scanning combination 15/37: [140.0036]  Energy = -271.5347708995
C   0.0009651118  1.5072885156 -0.0000089895
C   0.0028462451  0.0039912790 -0.0000513043
C   1.1971371446 -0.7072710728  0.0000170426
C   1.1992307833 -2.0950814539  0.0001357133
C   0.0006869658 -2.7918639385  0.0001213522
C  -1.1984986114 -2.0923229430  0.0001318161
C  -1.1944749115 -0.7064560446  0.0000311341
H  -0.7797081944  1.8966104342 -0.6546653831
H   0.9570804719  1.8979542750 -0.3472581865
H  -0.1752495613  1.8968825788  1.0034473449
H   2.1359983527 -0.1651544538 -0.0001506492
H   2.1393591008 -2.6316288522 -0.0000208742
H  -0.0003923719 -3.8736327105 -0.0000910830
H  -2.1388675127 -2.6288287924  0.0000351692
H  -2.1330721438 -0.1637704075 -0.0001075159
15
Scanning combination 16/37: [150.0036]  Energy = -271.5347690595
C   0.0009649840  1.5073906170 -0.0000089866
C   0.0028462051  0.0040232031 -0.0000513034
C   1.1972667944 -0.7074950897  0.0000170459
C   1.1993460758 -2.0948477756  0.0003117747
C   0.0004154500 -2.7919690057  0.0001498451
C  -1.1983392434 -2.0926666126  0.0003074791
C  -1.1942960381 -0.7063043536  0.0001428797
H  -0.8813105141  1.8965439171 -0.5091108286
H   0.8823444150  1.8980319875 -0.5079232528
H   0.0016135646  1.8973801752  1.0189282397
H   2.1360363712 -0.1652742501 -0.0002907292
H   2.1393791362 -2.6316713408 -0.0000570050
H  -0.0004009592 -3.8737599939 -0.0001425234
H  -2.1388612202 -2.6288269696 -0.0000011789
H  -2.1330542349 -0.1638369694 -0.0002451561
15
Scanning combination 17/37: [160.0036]  Energy = -271.5347695020
C   0.0009648699  1.5074817727 -0.0000089841
C   0.0028461540  0.0040640767 -0.0000513022
C   1.1974935254 -0.7077540790  0.0000170554
C   1.1994906713 -2.0945449915  0.0004436460
C   0.0000759379 -2.7920689745  0.0001939937
C  -1.1981522249 -2.0930740022  0.0004454130
C  -1.1940226802 -0.7061213801  0.0002322218
H  -0.9560730165  1.8964864101 -0.3481652635
H   0.7809481197  1.8981236490 -0.6532229624
H   0.1785848577  1.8978460028  1.0033767727
H   2.1361168762 -0.1653887386 -0.0004112633
H   2.1393920267 -2.6316971120 -0.0000844060
H  -0.0004024681 -3.8738808204 -0.0001915894
H  -2.1388584334 -2.6288402320 -0.0000291008
H  -2.1329926621 -0.1639122188 -0.0003582693
15
Scanning combination 18/37: [170.0036]  Energy = -271.5347709915
C   0.0009647667  1.5075642409 -0.0000089817
C   0.0028460948  0.0041113639 -0.0000513009
C   1.1977583002 -0.7079847700  0.0000170685
C   1.1996213150 -2.0942643069  0.0004987785
C  -0.0002245025 -2.7921659990  0.0002307190
C  -1.1979804065 -2.0934551623  0.0005080289
C  -1.1937116316 -0.7059649665  0.0002754966
H  -1.0017623273  1.8964574104 -0.1767307740
H   0.6559181171  1.8982228563 -0.7788108574
H   0.3502229027  1.8982655440  0.9572009184
H   2.1362373022 -0.1654986836 -0.0004789138
H   2.1393990097 -2.6317080983 -0.0000953694
H  -0.0004010224 -3.8739957003 -0.0002151500
H  -2.1388589890 -2.6288655897 -0.0000405766
H  -2.1328908540 -0.1639966079 -0.0004160863
15
Scanning combination 19/37: [180.0036]  Energy = -271.5347713857
C   0.0009646649  1.5076455853 -0.0000089795
C   0.0028460380  0.0041567304 -0.0000512996
C   1.1979909086 -0.7081297563  0.0000170816
C   1.1997018366 -2.0940920941  0.0004567329
C  -0.0003914960 -2.7922581650  0.0002530657
C  -1.1978587403 -2.0937259356  0.0004753830
C  -1.1934312600 -0.7058878844  0.0002625891
H  -1.0170252436  1.8964761699 -0.0000087101
H   0.5109722783  1.8983177066 -0.8808985564
H   0.5112279315  1.8986273647  0.8817849679
H   2.1363841116 -0.1656051557 -0.0004746439
H   2.1394011478 -2.6317107301 -0.0000861840
H  -0.0004072406 -3.8741053755 -0.0002080795
H  -2.1388620480 -2.6288985985 -0.0000316858
H  -2.1327639411 -0.1640862918 -0.0004027939
15
Scanning combination 20/37: [190.0036]  Energy = -271.5347703869
C   0.0009645577  1.5077312458 -0.0000089770
C   0.0028459976  0.0041890556 -0.0000512987
C   1.1981292526 -0.7081553905  0.0000170911
C   1.1997128243 -2.0940867822  0.0003310088
C  -0.0003879230 -2.7923475150  0.0002564502
C  -1.1978063122 -2.0938270499  0.0003556087
C  -1.1932438172 -0.7059224946  0.0001961016
H  -1.0014259202  1.8965600235  0.1766536833
H   0.3504295070  1.8983954024 -0.9563618204
H   0.6566295367  1.8989235396  0.7794508569
H   2.1365352953 -0.1657075290 -0.0003991155
H   2.1394007541 -2.6317116473 -0.0000590876
H  -0.0004115318 -3.8742101394 -0.0001745358
H  -2.1388656547 -2.6289322880 -0.0000045595
H  -2.1326337220 -0.1641734213 -0.0003208434
15
Scanning combination 21/37: [200.0036]  Energy = -271.5347703300
C   0.0009644482  1.5078187846 -0.0000089746
C   0.0028459742  0.0042077500 -0.0000512982
C   1.1981324548 -0.7080632676  0.0000170940
C   1.1996550472 -2.0942595573  0.0001519374
C  -0.0002080639 -2.7924350815  0.0002404731
C  -1.1978283070 -2.0937457416  0.0001798781
C  -1.1931871420 -0.7060712768  0.0000916073
H  -0.9554556132  1.8967227148  0.3479216451
H   0.1791039106  1.8984458321 -1.0028405817
H   0.7819602663  1.8991512207  0.6533766263
H   2.1366659832 -0.1658062160 -0.0002724671
H   2.1394015189 -2.6317172623 -0.0000208448
H  -0.0004124512 -3.8743106437 -0.0001239397
H  -2.1388666900 -2.6289591299  0.0000338889
H  -2.1325236460 -0.1642526077 -0.0001902970
15
Scanning combination 22/37: [210.0036]  Energy = -271.5347726036
C   0.0009643459  1.5079005516 -0.0000089723
C   0.0028459502  0.0042269450 -0.0000512976
C   1.1980111949 -0.7078864998  0.0000170900
C   1.1995326511 -2.0945721956 -0.0000323712
C   0.0000899947 -2.7925167210  0.0002298259
C  -1.1979097614 -2.0935202751 -0.0000062557
C  -1.1932654640 -0.7063071088 -0.0000284915
H  -0.8805147088  1.8969716106  0.5086303278
H   0.0021793262  1.8984623313 -1.0188285449
H   0.8834026170  1.8993134244  0.5074783926
H   2.1367555527 -0.1659071651 -0.0001284278
H   2.1394064871 -2.6317352181  0.0000198308
H  -0.0003923203 -3.8744072814 -0.0000862751
H  -2.1388626673 -2.6289737992  0.0000752373
H  -2.1324528299 -0.1643236171 -0.0000445405
15
Scanning combination 23/37: [220.0036]  Energy = -271.5347773350
C   0.0009642561  1.5079723373 -0.0000089703
C   0.0028459161  0.0042541705 -0.0000512969
C   1.1977901318 -0.7076796042  0.0000170794
C   1.1993847412 -2.0949583742 -0.0001716837
C   0.0004725485 -2.7925950002  0.0001655016
C  -1.1980199943 -2.0932163968 -0.0001493826
C  -1.1934467305 -0.7065757384 -0.0001290726
H  -0.7788672635  1.8973037894  0.6539350673
H  -0.1749395087  1.8984417653 -1.0037461899
H   0.9579040407  1.8994187329  0.3462676011
H   2.1367957420 -0.1660137265 -0.0000052312
H   2.1394157421 -2.6317659478  0.0000499065
H  -0.0003949997 -3.8744994854 -0.0000194205
H  -2.1388524844 -2.6289747237  0.0001064014
H  -2.1324307304 -0.1643882542  0.0000778309
15
Scanning combination 24/37: [230.0036]  Energy = -271.5347816019
C   0.0009641755  1.5080367004 -0.0000089684
C   0.0028458728  0.0042888048 -0.0000512959
C   1.1975262759 -0.7075004413  0.0000170650
C   1.1992550986 -2.0953170953 -0.0002355603
C   0.0007965238 -2.7926706994  0.0001137074
C  -1.1981160728 -2.0929370542 -0.0002170414
C  -1.1936707920 -0.7068151838 -0.0001835280
H  -0.6535721901  1.8977058055  0.7794497061
H  -0.3467988962  1.8983840959 -0.9579866640
H   1.0032605462  1.8994801605  0.1746945521
H   2.1367894636 -0.1661265666  0.0000655777
H   2.1394303954 -2.6318077090  0.0000633691
H  -0.0003833215 -3.8745876010  0.0000176631
H  -2.1388359593 -2.6289631096  0.0001213113
H  -2.1324548668 -0.1644485370  0.0001443792
15
Scanning combination 25/37: [240.0036]  Energy = -271.5347823948
C   0.0009640944  1.5081015585 -0.0000089666
C   0.0028458302  0.0043228456 -0.0000512949
C   1.1972962044 -0.7074035816  0.0000170507
C   1.1991671261 -2.0955659499 -0.0002011353
C   0.0009987712 -2.7927426603  0.0000786792
C  -1.1981666825 -2.0927668188 -0.0001920908
C  -1.1938652110 -0.7069672810 -0.0001747920
H  -0.5083942766  1.8981566966  0.8813690933
H  -0.5080835825  1.8982923966 -0.8829235208
H   1.0181694645  1.8995133578 -0.0020132652
H   2.1367520326 -0.1662435570  0.0000663507
H   2.1394493037 -2.6318570936  0.0000566251
H  -0.0003697536 -3.8746720839  0.0000228081
H  -2.1388148543 -2.6289437207  0.0001160254
H  -2.1325109932 -0.1645045473  0.0001377658
15
Scanning combination 26/37: [250.0036]  Energy = -271.5347794728
C   0.0009640058  1.5081723159 -0.0000089646
C   0.0028458016  0.0043456723 -0.0000512943
C   1.1971526596 -0.7074198423  0.0000170396
C   1.1991525053 -2.0956457518 -0.0000803016
C   0.0010282449 -2.7928135817  0.0000673180
C  -1.1981495787 -2.0927642541 -0.0000818183
C  -1.1939669020 -0.7070009040 -0.0001062113
H  -0.3477016880  1.8986328893  0.9565786658
H  -0.6538063586  1.8981726906 -0.7808728205
H   1.0022524255  1.8995348258 -0.1785130021
H   2.1367064736 -0.1663565017 -0.0000023275
H   2.1394689634 -2.6319052436  0.0000318792
H  -0.0003585472 -3.8747530536 -0.0000029256
H  -2.1387919972 -2.6289242688  0.0000922769
H  -2.1325766794 -0.1645569793  0.0000608356
15
Scanning combination 27/37: [260.0036]  Energy = -271.5347751971
C   0.0009639134  1.5082461547 -0.0000089626
C   0.0028457821  0.0043612234 -0.0000512938
C   1.1971409945 -0.7075525338  0.0000170350
C   1.1992080802 -2.0955469328  0.0000906231
C   0.0008794472 -2.7928806186  0.0000830280
C  -1.1980587365 -2.0929382079  0.0000836451
C  -1.1939414916 -0.7069177791  0.0000013248
H  -0.1763480490  1.8991120324  1.0027517880
H  -0.7794834909  1.8980348739 -0.6550111923
H   0.9560492717  1.8995599048 -0.3495040868
H   2.1366762520 -0.1664626750 -0.0001221417
H   2.1394868407 -2.6319462988 -0.0000038393
H  -0.0003477294 -3.8748310459 -0.0000534235
H  -2.1387706515 -2.6289124819  0.0000567339
H  -2.1326268678 -0.1646083174 -0.0000644321
15
Scanning combination 28/37: [270.0036]  Energy = -271.5347727964
C   0.0009638267  1.5083154369 -0.0000089606
C   0.0028457616  0.0043776190 -0.0000512934
C   1.1972582196 -0.7077736468  0.0000170374
C   1.1993236260 -2.0953018337  0.0002691225
C   0.0005983072 -2.7929459335  0.0001161971
C  -1.1979114675 -2.0932541662  0.0002604282
C  -1.1937874276 -0.7067499941  0.0001156373
H   0.0004635086  1.8995742785  1.0184321585
H  -0.8812830642  1.8978927954 -0.5092569607
H   0.8809861865  1.8995993069 -0.5098765971
H   2.1366813631 -0.1665602804 -0.0002608274
H   2.1394999534 -2.6319737546 -0.0000408334
H  -0.0003413532 -3.8749059805 -0.0001102056
H  -2.1387532398 -2.6289131833  0.0000193088
H  -2.1326412910 -0.1646631112 -0.0002030566
15
Scanning combination 29/37: [280.0036]  Energy = -271.5347731249
C   0.0009637524  1.5083748508 -0.0000089589
C   0.0028457265  0.0044056941 -0.0000512926
C   1.1974761082 -0.7080301110  0.0000170463
C   1.1994645397 -2.0949863455  0.0004029463
C   0.0002617719 -2.7930077175  0.0001589440
C  -1.1977380811 -2.0936372812  0.0003997605
C  -1.1935378370 -0.7065507164  0.0002062633
H   0.1773353109  1.9000024192  1.0030950949
H  -0.9561409909  1.8977635162 -0.3481261872
H   0.7793245658  1.8996555960 -0.6548460860
H   2.1367309869 -0.1666524010 -0.0003802847
H   2.1395072537 -2.6319861981 -0.0000689560
H  -0.0003368999 -3.8749779771 -0.0001591605
H  -2.1387410623 -2.6289286252 -0.0000095629
H  -2.1326103014 -0.1647260472 -0.0003169571
15
Scanning combination 30/37: [290.0036]  Energy = -271.5347743297
C   0.0009636869  1.5084271712 -0.0000089575
C   0.0028456791  0.0044435935 -0.0000512915
C   1.1977339307 -0.7082573775  0.0000170590
C   1.1995927561 -2.0946939815  0.0004546483
C  -0.0000390883 -2.7930665481  0.0001980134
C  -1.1975775528 -2.0939952646  0.0004629164
C  -1.1932498632 -0.7063791873  0.0002509130
H   0.3488465200  1.9003823271  0.9571804451
H  -1.0018443813  1.8976657830 -0.1765748727
H   0.6540953225  1.8997225322 -0.7800750641
H   2.1368231453 -0.1667409366 -0.0004471805
H   2.1395085548 -2.6319857259 -0.0000805843
H  -0.0003314869 -3.8750468902 -0.0001854706
H  -2.1387338268 -2.6289569880 -0.0000218319
H  -2.1325376588 -0.1647982482 -0.0003754576
15
Scanning combination 31/37: [300.0036]  Energy = -271.5347745312
C   0.0009636206  1.5084801287 -0.0000089560
C   0.0028456370  0.0044771988 -0.0000512906
C   1.1979581043 -0.7083979658  0.0000170716
C   1.1996742707 -2.0945106221  0.0004155436
C  -0.0002114309 -2.7931257050  0.0002198804
C  -1.1974661575 -2.0942428339  0.0004317126
C  -1.1929911658 -0.7062867904  0.0002389490
H   0.5097338995  1.9007031588  0.8820888896
H  -1.0170842186  1.8976181134  0.0001636679
H   0.5090205570  1.8997880241 -0.8817854371
H   2.1369436865 -0.1668242749 -0.0004427493
H   2.1395057290 -2.6319763181 -0.0000722883
H  -0.0003299579 -3.8751131170 -0.0001793858
H  -2.1387303294 -2.6289923146 -0.0000138799
H  -2.1324382853 -0.1648747958 -0.0003628233
15
Scanning combination 32/37: [310.0036]  Energy = -271.5347733966
C   0.0009635474  1.5085386876 -0.0000089543
C   0.0028456090  0.0044996174 -0.0000512899
C   1.1980904263 -0.7084196880  0.0000170808
C   1.1996846174 -2.0944940949  0.0002932144
C  -0.0002093032 -2.7931822178  0.0002233554
C  -1.1974241513 -2.0943228387  0.0003140688
C  -1.1928237409 -0.7063059938  0.0001731938
H   0.6550700210  1.9009577769  0.7801370854
H  -1.0014775334  1.8976374223  0.1767412749
H   0.3484221938  1.8998388567 -0.9568652926
H   2.1370702630 -0.1669031210 -0.0003676612
H   2.1395014144 -2.6319662008 -0.0000462077
H  -0.0003310339 -3.8751772676 -0.0001475816
H  -2.1387280319 -2.6290285815  0.0000121347
H  -2.1323342994 -0.1649492973 -0.0002815449
15
Scanning combination 33/37: [320.0036]  Energy = -271.5347731863
C   0.0009634703  1.5086002414 -0.0000089526
C   0.0028455975  0.0045087862 -0.0000512897
C   1.1980889085 -0.7083232978  0.0000170834
C   1.1996265890 -2.0946527716  0.0001164695
C  -0.0000453102 -2.7932388433  0.0002261260
C  -1.1974562443 -2.0942241501  0.0001384467
C  -1.1927850366 -0.7064398002  0.0000671091
H   0.7804260031  1.9011441388  0.6544744426
H  -0.9555601040  1.8977371440  0.3478528421
H   0.1771147594  1.8998642321 -1.0029685901
H   2.1371783182 -0.1669776441 -0.0002419369
H   2.1394985528 -2.6319615598 -0.0000075516
H  -0.0003162136 -3.8752393413 -0.0001122698
H  -2.1387240412 -2.6290576754  0.0000509579
H  -2.1322489898 -0.1650160204 -0.0001517087
15
Scanning combination 34/37: [330.0036]  Energy = -271.5347761390
C   0.0009633994  1.5086569306 -0.0000089510
C   0.0028455848  0.0045189103 -0.0000512894
C   1.1979643916 -0.7081430837  0.0000170793
C   1.1995032930 -2.0949565548 -0.0000603209
C   0.0002747897 -2.7932912075  0.0001811033
C  -1.1975473710 -2.0939768782 -0.0000432258
C  -1.1928800635 -0.7066597841 -0.0000506809
H   0.8820072441  1.9012659746  0.5089685895
H  -0.8807537640  1.8979244111  0.5083845616
H   0.0002789254  1.8998568318 -1.0186040040
H   2.1372470676 -0.1670541685 -0.0000992641
H   2.1395000379 -2.6319694432  0.0000309103
H  -0.0003170911 -3.8752996695 -0.0000471583
H  -2.1387159222 -2.6290747819  0.0000899622
H  -2.1322013983 -0.1650745759 -0.0000067868
15
Scanning combination 35/37: [340.0036]  Energy = -271.5347817202
C   0.0009633409  1.5087037081 -0.0000089497
C   0.0028455608  0.0045381170 -0.0000512889
C   1.1977406642 -0.7079303086  0.0000170687
C   1.1993584843 -2.0953250521 -0.0001962173
C   0.0006261155 -2.7933417475  0.0001334928
C  -1.1976635013 -2.0936608495 -0.0001864628
C  -1.1930766464 -0.7069151669 -0.0001516956
H   0.9567592796  1.9013324957  0.3480732909
H  -0.7793149076  1.8981964786  0.6535481285
H  -0.1766882062  1.8998126040 -1.0032060539
H   2.1372680948 -0.1671356587  0.0000226096
H   2.1395061875 -2.6319908637  0.0000608496
H  -0.0002980683 -3.8753575093  0.0000046797
H  -2.1387019136 -2.6290774803  0.0001207869
H  -2.1322012092 -0.1651271528  0.0001150140
15
Scanning combination 36/37: [350.0036]  Energy = -271.5347871875
C   0.0009632915  1.5087431557 -0.0000089486
C   0.0028455261  0.0045658001 -0.0000512881
C   1.1974753268 -0.7077464484  0.0000170542
C   1.1992265208 -2.0956712026 -0.0002560966
C   0.0009476349 -2.7933909517  0.0000843059
C  -1.1977707012 -2.0933652679 -0.0002531644
C  -1.1933139780 -0.7071403238 -0.0002063969
H   1.0024476468  1.9013570804  0.1766881457
H  -0.6542684414  1.8985401728  0.7790011947
H  -0.3483444995  1.8997308063 -0.9571795356
H   2.1372443395 -0.1672232064  0.0000921167
H   2.1395177833 -2.6320236075  0.0000738998
H  -0.0002827902 -3.8754130889  0.0000390688
H  -2.1386823304 -2.6290674493  0.0001349872
H  -2.1322458637 -0.1651755625  0.0001809362
15
Scanning combination 37/37: [360.0036]  Energy = -271.5347890406
C   0.0009632412  1.5087833605 -0.0000089474
C   0.0028454905  0.0045942624 -0.0000512873
C   1.1972438827 -0.7076437412  0.0000170400
C   1.1991374359 -2.0959081274 -0.0002192836
C   0.0011462431 -2.7934374204  0.0000502704
C  -1.1978308100 -2.0931790112 -0.0002269827
C  -1.1935216962 -0.7072796551 -0.0001983800
H   1.0177174533  1.9013554981  0.0000127754
H  -0.5093303583  1.8989350692  0.8809590026
H  -0.5093891491  1.8996138100 -0.8819054510
H   2.1371907890 -0.1673151010  0.0000918411
H   2.1395332345 -2.6320639968  0.0000669181
H  -0.0002666779 -3.8754666585  0.0000430890
H  -2.1386590465 -2.6290499039  0.0001290616
H  -2.1323211906 -0.1652201228  0.0001736199
