23
Frame 5  Energy = -425.8945472202 Hartree
C       0.01281710      1.03557796      0.21751384
C      -0.37371095      1.09328681      1.70169333
C       0.81623483      0.65710395      2.56538230
C       0.55360738      0.80216944      4.07013786
C       1.82118561      0.70965270      4.91080473
C       1.63431327      1.10779484      6.33610861
O       0.74738863      1.79101729      6.77112654
O       2.60705313      0.59329374      7.13756908
C       2.51461158      0.90617899      8.51418045
H      -0.76891646      1.50972395     -0.38935884
H       0.94772119      1.62177360      0.13440525
H       0.29589385      0.01845947     -0.12297877
H      -1.27077275      0.45408240      1.87945433
H      -0.62991719      2.14460838      1.88124249
H       1.00451366     -0.36254591      2.32892306
H       1.74067336      1.25631168      2.39657701
H       0.07897502      1.81338565      4.25948710
H      -0.18754683      0.07739010      4.40602849
H       2.27691181     -0.27785430      4.91480377
H       2.56816020      1.45392563      4.63681098
H       3.35203050      0.39261197      8.94502519
H       1.61271887      0.47704162      8.96001560
H       2.56772751      1.97656542      8.67608904
23
Frame 10  Energy = -425.8943769874 Hartree
C       0.01146932      1.03426376      0.21878409
C      -0.37512287      1.09382611      1.70188099
C       0.81620437      0.65624882      2.56539444
C       0.55599639      0.80330620      4.07137544
C       1.81677494      0.71130558      4.91161396
C       1.63615015      1.10524524      6.33786059
O       0.74574592      1.79249828      6.77031483
O       2.60687564      0.59565355      7.13738447
C       2.51559580      0.90524166      8.51364527
H      -0.76063995      1.50684101     -0.38574089
H       0.94146583      1.61846990      0.13970096
H       0.30034596      0.01329688     -0.12832640
H      -1.26300365      0.44163816      1.87934219
H      -0.62723953      2.13707491      1.88529842
H       1.00066261     -0.36464481      2.31878821
H       1.73916171      1.25989027      2.41187749
H       0.07022618      1.79979937      4.27100326
H      -0.18777666      0.07801739      4.41572835
H       2.27934696     -0.28420884      4.90650556
H       2.57102669      1.45129888      4.63622227
H       3.34584446      0.38883059      8.94750927
H       1.61996027      0.47364860      8.96425860
H       2.57206926      1.98886424      8.66771883
23
Frame 15  Energy = -425.8942572478 Hartree
C       0.01026914      1.03287769      0.22013501
C      -0.37648034      1.09423899      1.70192138
C       0.81611875      0.65563107      2.56570068
C       0.55816647      0.80465442      4.07260587
C       1.81238564      0.71291337      4.91241871
C       1.63786469      1.10258510      6.33977470
O       0.74408468      1.79394618      6.76950429
O       2.60675384      0.59806641      7.13710389
C       2.51647158      0.90433160      8.51324406
H      -0.75192415      1.50287230     -0.38283215
H       0.93421568      1.61545904      0.14385693
H       0.30342593      0.00987611     -0.13302881
H      -1.25357020      0.43070895      1.87963191
H      -0.62525213      2.12904774      1.89017605
H       0.99800276     -0.36835331      2.30829252
H       1.73623483      1.26266192      2.42543278
H       0.06260141      1.78410419      4.28195611
H      -0.18734623      0.07874761      4.42561582
H       2.28184088     -0.28972654      4.89744621
H       2.57409896      1.44814585      4.63396954
H       3.34124603      0.38512072      8.95097978
H       1.62646145      0.47102050      8.96768410
H       2.57624632      2.00068069      8.65993209
23
Frame 20  Energy = -425.8941482453 Hartree
C       0.00930236      1.03137702      0.22158539
C      -0.37773081      1.09451587      1.70180516
C       0.81604261      0.65524427      2.56623100
C       0.56009139      0.80606261      4.07381805
C       1.80819663      0.71441319      4.91328264
C       1.63938582      1.09993053      6.34194230
O       0.74253394      1.79540801      6.76869475
O       2.60660845      0.60049567      7.13656457
C       2.51721608      0.90352541      8.51285564
H      -0.74354263      1.49779560     -0.38120169
H       0.92619079      1.61262542      0.14717275
H       0.30489669      0.00844103     -0.13696855
H      -1.24263466      0.42132040      1.88056420
H      -0.62386891      2.12141189      1.89589687
H       0.99632938     -0.37348674      2.29738153
H       1.73196525      1.26485200      2.43758133
H       0.05598528      1.76711081      4.29234769
H      -0.18633951      0.07966601      4.43519250
H       2.28382210     -0.29392240      4.88788061
H       2.57697592      1.44418343      4.63002736
H       3.33838208      0.38134744      8.95524666
H       1.63244833      0.46949646      8.97045361
H       2.58026571      2.01056102      8.65274733
23
Frame 25  Energy = -425.8938800137 Hartree
C       0.00843956      1.02975677      0.22305524
C      -0.37886470      1.09457604      1.70158353
C       0.81591595      0.65502133      2.56689020
C       0.56180819      0.80748757      4.07503421
C       1.80418714      0.71588485      4.91430782
C       1.64068515      1.09732129      6.34435018
O       0.74106261      1.79697101      6.76778813
O       2.60637226      0.60286917      7.13597848
C       2.51800725      0.90297210      8.51246631
H      -0.73588250      1.49234145     -0.38119723
H       0.91830197      1.61024847      0.14964984
H       0.30479726      0.00879350     -0.13990675
H      -1.23045826      0.41322192      1.88201100
H      -0.62320585      2.11516586      1.90276294
H       0.99602275     -0.37927965      2.28651690
H       1.72652355      1.26648425      2.44758076
H       0.05040536      1.74925269      4.30195394
H      -0.18449935      0.08079856      4.44432675
H       2.28497787     -0.29655577      4.87806226
H       2.57953316      1.43914877      4.62466287
H       3.33760267      0.37780857      8.96011747
H       1.63778633      0.46915589      8.97291203
H       2.58400330      2.01813527      8.64589775
23
Frame 30  Energy = -425.8940209146 Hartree
C       0.00773508      1.02791481      0.22457780
C      -0.37976085      1.09430262      1.70117266
C       0.81575180      0.65490280      2.56786085
C       0.56330940      0.80885749      4.07625297
C       1.80041392      0.71712292      4.91548511
C       1.64171403      1.09467500      6.34691733
O       0.73971206      1.79844349      6.76684986
O       2.60615712      0.60523129      7.13530622
C       2.51892819      0.90269292      8.51208579
H      -0.72925750      1.48712740     -0.38269043
H       0.91074896      1.60876429      0.15151280
H       0.30279783      0.01095500     -0.14200025
H      -1.21793227      0.40667350      1.88416851
H      -0.62379865      2.11054081      1.91070604
H       0.99698618     -0.38500601      2.27614838
H       1.72013004      1.26753552      2.45557149
H       0.04554214      1.73148433      4.31067755
H      -0.18161830      0.08201923      4.45268224
H       2.28478831     -0.29738116      4.86838900
H       2.58176923      1.43355701      4.61827909
H       3.33851845      0.37432252      8.96575474
H       1.64194802      0.46974238      8.97518755
H       2.58704612      2.02277102      8.63953904
23
Frame 35  Energy = -425.8938689786 Hartree
C       0.00724287      1.02593681      0.22604961
C      -0.38041396      1.09371628      1.70069564
C       0.81549643      0.65475930      2.56900406
C       0.56467126      0.81013423      4.07749010
C       1.79693962      0.71817351      4.91672967
C       1.64246323      1.09213414      6.34969027
O       0.73852466      1.79987000      6.76590060
O       2.60591134      0.60746239      7.13461967
C       2.51987721      0.90281896      8.51170777
H      -0.72449065      1.48180841     -0.38583533
H       0.90430765      1.60824339      0.15270392
H       0.29917192      0.01458006     -0.14318042
H      -1.20541840      0.40135608      1.88696430
H      -0.62506780      2.10726877      1.91947675
H       0.99930043     -0.39046625      2.26651830
H       1.71328579      1.26791479      2.46183854
H       0.04104422      1.71471166      4.31884946
H      -0.17741517      0.08344064      4.46022772
H       2.28344102     -0.29589402      4.85864532
H       2.58364863      1.42738718      4.61060623
H       3.34090175      0.37167529      8.97172557
H       1.64486563      0.47109386      8.97718579
H       2.58961454      2.02400997      8.63387171
23
Frame 40  Energy = -425.8941723758 Hartree
C       0.00702284      1.02383146      0.22756113
C      -0.38093926      1.09279235      1.70015024
C       0.81512652      0.65460119      2.57025078
C       0.56583364      0.81115691      4.07877980
C       1.79383768      0.71904609      4.91789502
C       1.64286435      1.08981122      6.35269730
O       0.73750917      1.80120093      6.76487650
O       2.60568908      0.60954357      7.13388654
C       2.52093969      0.90320544      8.51136364
H      -0.72146500      1.47677195     -0.39078532
H       0.89912768      1.60840245      0.15342334
H       0.29414974      0.01969025     -0.14334439
H      -1.19325958      0.39732851      1.89022073
H      -0.62753541      2.10555325      1.92920496
H       1.00218642     -0.39484024      2.25802052
H       1.70623275      1.26802020      2.46608318
H       0.03702942      1.69966712      4.32622794
H      -0.17196502      0.08464018      4.46655537
H       2.28077240     -0.29215875      4.84909292
H       2.58495932      1.42076487      4.60145451
H       3.34444388      0.36998625      8.97765865
H       1.64678895      0.47317951      8.97858552
H       2.59162177      2.02193609      8.62898156
23
Frame 45  Energy = -425.8942539897 Hartree
C       0.00694755      1.02176665      0.22913902
C      -0.38118132      1.09159557      1.69964736
C       0.81465248      0.65444132      2.57152599
C       0.56679555      0.81192567      4.08006662
C       1.79115824      0.71972987      4.91901150
C       1.64272466      1.08775637      6.35575907
O       0.73663358      1.80246648      6.76376709
O       2.60543415      0.61160643      7.13310851
C       2.52205607      0.90376861      8.51123169
H      -0.72041983      1.47236553     -0.39774514
H       0.89546348      1.60970695      0.15352366
H       0.28833457      0.02584083     -0.14243295
H      -1.18170587      0.39413572      1.89385563
H      -0.63137835      2.10548579      1.93954301
H       1.00586005     -0.39796537      2.25093543
H       1.69912610      1.26826461      2.46827252
H       0.03308973      1.68759205      4.33283289
H      -0.16565492      0.08520496      4.47179809
H       2.27706256     -0.28636987      4.83967884
H       2.58576503      1.41371643      4.59137360
H       3.34875461      0.36895265      8.98329611
H       1.64749816      0.47604179      8.97929291
H       2.59305957      2.01668992      8.62513988
23
Frame 50  Energy = -425.8944194215 Hartree
C       0.00695079      1.01976386      0.23078924
C      -0.38102882      1.09022911      1.69919055
C       0.81408196      0.65425516      2.57286855
C       0.56753712      0.81230845      4.08129128
C       1.78896567      0.72033893      4.92011370
C       1.64218790      1.08589398      6.35881825
O       0.73588262      1.80365328      6.76258968
O       2.60518200      0.61362009      7.13228014
C       2.52330997      0.90449041      8.51118003
H      -0.72120092      1.46839531     -0.40597697
H       0.89336227      1.61196639      0.15284650
H       0.28168283      0.03242083     -0.14077672
H      -1.17116839      0.39109124      1.89816854
H      -0.63660421      2.10663153      1.95051133
H       1.01040932     -0.39932607      2.24522037
H       1.69237306      1.26849048      2.46804716
H       0.02849677      1.67947709      4.33888096
H      -0.15863467      0.08532428      4.47622480
H       2.27254216     -0.27880959      4.83040626
H       2.58592174      1.40627863      4.58050972
H       3.35356500      0.36902475      8.98880161
H       1.64720084      0.47958327      8.97941559
H       2.59407843      2.00879185      8.62224463
23
Frame 55  Energy = -425.8940940257 Hartree
C       0.00704074      1.01773074      0.23251290
C      -0.38060313      1.08884861      1.69873054
C       0.81337347      0.65397489      2.57418462
C       0.56808309      0.81241878      4.08253719
C       1.78717745      0.72085857      4.92132332
C       1.64127990      1.08417318      6.36178998
O       0.73530248      1.80468837      6.76135955
O       2.60497967      0.61552848      7.13139557
C       2.52461750      0.90524305      8.51131423
H      -0.72358182      1.46436887     -0.41570196
H       0.89260965      1.61550673      0.15112694
H       0.27443503      0.03879358     -0.13879738
H      -1.16269479      0.38828200      1.90343751
H      -0.64304092      2.10861104      1.96179438
H       1.01539748     -0.39878955      2.24060814
H       1.68670769      1.26897436      2.46577937
H       0.02331344      1.67547937      4.34435737
H      -0.15086574      0.08462469      4.47999360
H       2.26733814     -0.26999418      4.82125127
H       2.58527308      1.39843673      4.56906313
H       3.35869490      0.37050782      8.99317934
H       1.64583474      0.48401202      8.97914321
H       2.59511113      1.99845045      8.62022045
23
Frame 60  Energy = -425.8938197951 Hartree
C       0.00718280      1.01577641      0.23425376
C      -0.37990637      1.08750941      1.69822937
C       0.81246874      0.65367247      2.57557085
C       0.56826358      0.81220314      4.08382656
C       1.78580863      0.72123715      4.92252160
C       1.63998400      1.08273077      6.36473373
O       0.73488089      1.80560561      6.76011265
O       2.60485531      0.61737506      7.13043027
C       2.52607255      0.90605745      8.51160915
H      -0.72723474      1.46032421     -0.42668442
H       0.89329926      1.62024155      0.14833824
H       0.26665470      0.04409900     -0.13625489
H      -1.15642073      0.38495940      1.90933570
H      -0.65076870      2.11095535      1.97302840
H       1.02115088     -0.39623108      2.23778635
H       1.68229101      1.26985152      2.46174875
H       0.01743836      1.67541407      4.34902343
H      -0.14243339      0.08294042      4.48263925
H       2.26155233     -0.26046091      4.81238339
H       2.58385452      1.39062476      4.55707213
H       3.36379108      0.37330687      8.99662900
H       1.64307363      0.48926678      8.97836085
H       2.59598703      1.98642146      8.61934894
23
Frame 65  Energy = -425.8937462393 Hartree
C       0.00731201      1.01404600      0.23597178
C      -0.37894501      1.08618784      1.69777862
C       0.81137224      0.65327261      2.57719118
C       0.56815267      0.81169743      4.08520804
C       1.78491739      0.72151469      4.92367539
C       1.63823219      1.08164529      6.36754428
O       0.73457978      1.80645471      6.75885950
O       2.60487087      0.61915578      7.12952540
C       2.52764191      0.90688414      8.51198285
H      -0.73160145      1.45611793     -0.43822048
H       0.89501752      1.62587213      0.14461090
H       0.25853067      0.04770915     -0.13344067
H      -1.15226773      0.38146583      1.91596564
H      -0.65943832      2.11264478      1.98406871
H       1.02753291     -0.39199446      2.23692757
H       1.67925502      1.27154194      2.45537968
H       0.01111175      1.67910926      4.35313507
H      -0.13361173      0.07999060      4.48398316
H       2.25504975     -0.25085326      4.80401724
H       2.58148602      1.38302502      4.54473881
H       3.36829487      0.37716977      8.99902808
H       1.63943749      0.49521377      8.97737809
H       2.59664550      1.97417071      8.61980080
23
Frame 70  Energy = -425.8937294825 Hartree
C       0.00738298      1.01260964      0.23762063
C      -0.37769681      1.08493179      1.69744851
C       0.81015443      0.65277741      2.57894779
C       0.56773863      0.81086099      4.08657460
C       1.78445167      0.72178904      4.92475155
C       1.63599443      1.08087536      6.37022966
O       0.73444028      1.80717337      6.75765674
O       2.60502666      0.62073750      7.12858671
C       2.52933459      0.90758567      8.51240341
H      -0.73619393      1.45168206     -0.44929148
H       0.89766545      1.63186725      0.14000760
H       0.25064613      0.04908838     -0.13061873
H      -1.15035280      0.37773178      1.92318086
H      -0.66865249      2.11310550      1.99472262
H       1.03406089     -0.38596174      2.23788723
H       1.67731527      1.27417472      2.44684308
H       0.00455162      1.68598966      4.35647592
H      -0.12503668      0.07567575      4.48440906
H       2.24848916     -0.24207704      4.79607935
H       2.57854194      1.37553118      4.53230048
H       3.37229711      0.38216554      9.00011285
H       1.63473126      0.50140196      8.97591678
H       2.59725705      1.96278065      8.62154429
23
Frame 75  Energy = -425.8937918686 Hartree
C       0.00751123      1.01157803      0.23918273
C      -0.37625280      1.08379457      1.69731823
C       0.80889150      0.65218754      2.58072827
C       0.56701831      0.80982161      4.08787568
C       1.78440122      0.72203154      4.92576741
C       1.63346725      1.08026587      6.37278205
O       0.73437364      1.80783042      6.75651423
O       2.60530314      0.62216201      7.12768307
C       2.53116885      0.90808623      8.51295561
H      -0.74107455      1.44667701     -0.45924102
H       0.90067829      1.63785910      0.13484354
H       0.24319392      0.04778284     -0.12805136
H      -1.15034930      0.37400106      1.93058357
H      -0.67822452      2.11183497      2.00452692
H       1.04089773     -0.37829495      2.24039939
H       1.67639979      1.27755202      2.43606942
H      -0.00154241      1.69521812      4.35886395
H      -0.11725026      0.06984164      4.48430496
H       2.24212355     -0.23482296      4.78910613
H       2.57532027      1.36836708      4.51984392
H       3.37577770      0.38815176      8.99981317
H       1.62924263      0.50848675      8.97400300
H       2.59770104      1.95301870      8.62440284
23
Frame 80  Energy = -425.8940539403 Hartree
C       0.00762453      1.01087593      0.24069135
C      -0.37467744      1.08275614      1.69741311
C       0.80765047      0.65158766      2.58250726
C       0.56596115      0.80860116      4.08910804
C       1.78466765      0.72228624      4.92664895
C       1.63074911      1.07988569      6.37513463
O       0.73439937      1.80838967      6.75545108
O       2.60581857      0.62347876      7.12686275
C       2.53300767      0.90833704      8.51366389
H      -0.74547598      1.44113789     -0.46776392
H       0.90384937      1.64367940      0.12906042
H       0.23642795      0.04361926     -0.12569525
H      -1.15245366      0.37032995      1.93799824
H      -0.68774295      2.10856190      2.01361580
H       1.04830608     -0.36960003      2.24415489
H       1.67643631      1.28108589      2.42329255
H      -0.00708194      1.70591297      4.36024253
H      -0.11039659      0.06301572      4.48374460
H       2.23651522     -0.22933806      4.78351045
H       2.57181536      1.36177828      4.50772498
H       3.37881432      0.39490862      8.99856722
H       1.62337536      0.51613869      8.97167300
H       2.59797150      1.94592705      8.62837316
23
Frame 85  Energy = -425.8942171868 Hartree
C       0.00770414      1.01059898      0.24213554
C      -0.37311231      1.08166204      1.69778811
C       0.80636592      0.65112911      2.58432445
C       0.56460779      0.80732715      4.09032875
C       1.78506375      0.72262954      4.92748596
C       1.62779295      1.07969898      6.37724791
O       0.73446406      1.80883844      6.75442156
O       2.60647448      0.62461944      7.12606333
C       2.53499410      0.90831308      8.51444777
H      -0.74926468      1.43522437     -0.47465476
H       0.90679220      1.64897389      0.12281763
H       0.23069479      0.03675613     -0.12340359
H      -1.15627611      0.36673653      1.94487915
H      -0.69706543      2.10379082      2.02170919
H       1.05621764     -0.36022546      2.24961663
H       1.67690486      1.28457741      2.40906054
H      -0.01107623      1.71687277      4.36027394
H      -0.10433851      0.05541123      4.48250503
H       2.23175441     -0.22646013      4.77883740
H       2.56794333      1.35622002      4.49597267
H       3.38138637      0.40227111      8.99644236
H       1.61736099      0.52369125      8.96843940
H       2.59834555      1.94232642      8.63383840
23
Frame 90  Energy = -425.8942352285 Hartree
C       0.00780483      1.01066101      0.24334449
C      -0.37161035      1.08056173      1.69834781
C       0.80496844      0.65083761      2.58613993
C       0.56295153      0.80610726      4.09157672
C       1.78564439      0.72298106      4.92826670
C       1.62457913      1.07973708      6.37912426
O       0.73455017      1.80927898      6.75345844
O       2.60723018      0.62561412      7.12525764
C       2.53707746      0.90800393      8.51537433
H      -0.75194684      1.42849562     -0.47940068
H       0.90904628      1.65360225      0.11602749
H       0.22546875      0.02781952     -0.12112875
H      -1.16113929      0.36378118      1.95128831
H      -0.70590034      2.09709557      2.02847350
H       1.06448245     -0.35118788      2.25675364
H       1.67759107      1.28805744      2.39322409
H      -0.01346184      1.72733461      4.35886133
H      -0.09928650      0.04669209      4.48054874
H       2.22825127     -0.22619740      4.77474317
H       2.56375018      1.35160176      4.48491803
H       3.38346536      0.41008268      8.99369062
H       1.61156883      0.53115918      8.96459155
H       2.59858277      1.94248805      8.64078727
23
Frame 95  Energy = -425.8941579701 Hartree
C       0.00811985      1.01102676      0.24431751
C      -0.37011602      1.07945856      1.69905079
C       0.80360023      0.65081296      2.58798193
C       0.56098312      0.80496633      4.09281083
C       1.78651073      0.72340528      4.92902919
C       1.62124479      1.07993929      6.38075013
O       0.73469377      1.80971841      6.75258942
O       2.60809109      0.62647543      7.12444851
C       2.53913338      0.90746044      8.51641775
H      -0.75342542      1.42081400     -0.48181817
H       0.91018001      1.65723029      0.10902657
H       0.22097519      0.01714743     -0.11858359
H      -1.16643469      0.36137794      1.95710421
H      -0.71411575      2.08877501      2.03367593
H       1.07325025     -0.34250224      2.26482896
H       1.67777802      1.29118752      2.37643502
H      -0.01416267      1.73671437      4.35575756
H      -0.09526424      0.03689630      4.47798265
H       2.22542658     -0.22927967      4.77113798
H       2.55942942      1.34783013      4.47458917
H       3.38584483      0.41804660      8.99056130
H       1.60618751      0.53897980      8.95993748
H       2.59899891      1.94663227      8.64898339
23
Frame 100  Energy = -425.8939789684 Hartree
C       0.00848131      1.01174869      0.24517552
C      -0.36857922      1.07824743      1.69997260
C       0.80231211      0.65102210      2.58987870
C       0.55863211      0.80395729      4.09400644
C       1.78751637      0.72401904      4.92980555
C       1.61786193      1.08027031      6.38209276
O       0.73483669      1.81019546      6.75171200
O       2.60904975      0.62714450      7.12356910
C       2.54109562      0.90676270      8.51760723
H      -0.75363756      1.41215931     -0.48175699
H       0.91008902      1.65946251      0.10211530
H       0.21729384      0.00572349     -0.11577234
H      -1.17216075      0.36013261      1.96238283
H      -0.72176965      2.07883106      2.03763678
H       1.08241173     -0.33504683      2.27391711
H       1.67754367      1.29395734      2.35906220
H      -0.01332154      1.74483804      4.35097206
H      -0.09219122      0.02576927      4.47499408
H       2.22338170     -0.23543081      4.76847724
H       2.55528404      1.34499571      4.46499194
H       3.38839632      0.42570432      8.98695142
H       1.60119200      0.54701092      8.95505142
H       2.59952905      1.95429132      8.65816456
23
Frame 105  Energy = -425.8941880745 Hartree
C       0.00886461      1.01278821      0.24584132
C      -0.36712479      1.07690146      1.70120690
C       0.80108469      0.65152887      2.59173848
C       0.55586543      0.80306047      4.09525900
C       1.78871110      0.72474393      4.93048417
C       1.61439034      1.08082859      6.38318097
O       0.73497743      1.81065709      6.75091454
O       2.61015243      0.62772184      7.12274653
C       2.54299972      0.90591817      8.51870600
H      -0.75243068      1.40316102     -0.47936746
H       0.90849912      1.65981767      0.09526305
H       0.21446913     -0.00562531     -0.11275280
H      -1.17760027      0.36000681      1.96687244
H      -0.72873244      2.06775419      2.04034818
H       1.09214131     -0.32945660      2.28335860
H       1.67670171      1.29638428      2.34149777
H      -0.01067918      1.75108377      4.34458157
H      -0.09026401      0.01381525      4.47149768
H       2.22235828     -0.24370379      4.76682721
H       2.55167723      1.34300439      4.45636764
H       3.39074345      0.43275615      8.98332591
H       1.59703386      0.55520458      8.94983959
H       2.60027461      1.96484794      8.66821526
23
Frame 110  Energy = -425.8940656888 Hartree
C       0.00924533      1.01391351      0.24625503
C      -0.36580312      1.07537950      1.70279336
C       0.80003652      0.65246429      2.59355893
C       0.55275695      0.80236668      4.09658490
C       1.79011633      0.72536848      4.93102453
C       1.61089843      1.08156187      6.38390460
O       0.73509424      1.81113343      6.75025474
O       2.61137501      0.62817888      7.12197879
C       2.54476322      0.90503158      8.51977539
H      -0.75045718      1.39345401     -0.47490452
H       0.90565800      1.65863470      0.08838225
H       0.21262177     -0.01625081     -0.10877749
H      -1.18251013      0.36079616      1.97007926
H      -0.73491313      2.05634375      2.04199523
H       1.10271994     -0.32586778      2.29318077
H       1.67491705      1.29792729      2.32429524
H      -0.00600467      1.75512619      4.33637018
H      -0.08950237      0.00163508      4.46744100
H       2.22197757     -0.25353513      4.76642230
H       2.54826905      1.34217567      4.44876875
H       3.39344981      0.43898580      8.97984425
H       1.59368478      0.56330331      8.94466090
H       2.60102024      1.97700016      8.67866644
23
Frame 115  Energy = -425.8944217141 Hartree
C       0.00968589      1.01508473      0.24638257
C      -0.36455569      1.07372314      1.70466214
C       0.79914746      0.65375872      2.59545059
C       0.54935927      0.80189884      4.09794832
C       1.79160997      0.72587979      4.93134355
C       1.60743598      1.08246137      6.38433200
O       0.73508917      1.81170534      6.74967160
O       2.61265054      0.62859159      7.12132867
C       2.54638249      0.90426487      8.52082955
H      -0.74767283      1.38338367     -0.46845924
H       0.90173269      1.65581058      0.08154376
H       0.21152809     -0.02566199     -0.10373535
H      -1.18698410      0.36257563      1.97203064
H      -0.74067105      2.04438112      2.04269407
H       1.11394276     -0.32444880      2.30325068
H       1.67187500      1.29860616      2.30770155
H       0.00007997      1.75686470      4.32695885
H      -0.08972637     -0.01030637      4.46313714
H       2.22179365     -0.26384811      4.76723670
H       2.54528976      1.34260341      4.44230771
H       3.39681936      0.44445317      8.97651715
H       1.59146279      0.57102313      8.93909648
H       2.60173922      1.98952651      8.68930148
23
Frame 120  Energy = -425.8944994892 Hartree
C       0.01006205      1.01629480      0.24628725
C      -0.36344742      1.07189677      1.70672875
C       0.79843821      0.65543581      2.59734391
C       0.54569131      0.80152758      4.09940598
C       1.79334385      0.72633356      4.93144526
C       1.60420832      1.08335909      6.38443859
O       0.73499717      1.81234141      6.74916955
O       2.61390149      0.62885707      7.12082242
C       2.54782575      0.90381747      8.52194232
H      -0.74451265      1.37337161     -0.46058914
H       0.89698967      1.65136240      0.07469344
H       0.21109991     -0.03327823     -0.09772217
H      -1.19047564      0.36516910      1.97256843
H      -0.74592043      2.03236212      2.04262174
H       1.12533743     -0.32533320      2.31338566
H       1.66713222      1.29858556      2.29213184
H       0.00723499      1.75626560      4.31678659
H      -0.09055020     -0.02136487      4.45847606
H       2.22165432     -0.27436320      4.76951720
H       2.54265413      1.34442796      4.43746818
H       3.40037330      0.44868281      8.97408566
H       1.59022955      0.57800514      8.93330471
H       2.60226612      2.00145077      8.69994625
23
Frame 125  Energy = -425.8945896320 Hartree
C       0.01042861      1.01744565      0.24612050
C      -0.36255300      1.06984416      1.70892953
C       0.79787153      0.65749733      2.59914454
C       0.54177501      0.80117118      4.10088628
C       1.79523353      0.72663999      4.93131619
C       1.60120308      1.08418162      6.38414175
O       0.73482055      1.81304167      6.74881439
O       2.61515635      0.62909938      7.12042654
C       2.54920170      0.90371984      8.52295890
H      -0.74128828      1.36329671     -0.45200834
H       0.89177903      1.64544091      0.06774561
H       0.21106564     -0.03885994     -0.09057326
H      -1.19319481      0.36872306      1.97199068
H      -0.75100019      2.02101366      2.04220893
H       1.13658390     -0.32801328      2.32329957
H       1.66106423      1.29762509      2.27776875
H       0.01517693      1.75385591      4.30649703
H      -0.09213727     -0.03190112      4.45291353
H       2.22125591     -0.28454953      4.77332685
H       2.54037914      1.34739136      4.43429156
H       3.40478358      0.45191683      8.97267494
H       1.58955250      0.58447841      8.92738872
H       2.60294964      2.01188504      8.71030712
23
Frame 130  Energy = -425.8946216766 Hartree
C       0.01083444      1.01840683      0.24586384
C      -0.36183481      1.06737994      1.71124637
C       0.79751644      0.65990040      2.60091721
C       0.53774783      0.80079687      4.10229052
C       1.79727238      0.72665397      4.93107345
C       1.59847711      1.08507008      6.38344994
O       0.73449909      1.81389567      6.74861877
O       2.61646354      0.62936919      7.12020979
C       2.55051122      0.90399486      8.52394913
H      -0.73918857      1.35383311     -0.44347659
H       0.88658670      1.63866363      0.06064358
H       0.21138031     -0.04173719     -0.08191774
H      -1.19521752      0.37320164      1.97023429
H      -0.75578563      2.01074898      2.04127351
H       1.14783711     -0.33227316      2.33300394
H       1.65390883      1.29600020      2.26456712
H       0.02308223      1.75009380      4.29596042
H      -0.09435921     -0.04149920      4.44632848
H       2.22041824     -0.29351780      4.77837799
H       2.53900905      1.35131396      4.43264642
H       3.40985778      0.45393811      8.97203225
H       1.58938026      0.59030130      8.92172384
H       2.60366041      2.01960406      8.71979402
23
Frame 135  Energy = -425.8947844860 Hartree
C       0.01140559      1.01914531      0.24559373
C      -0.36123876      1.06459741      1.71362317
C       0.79743199      0.66251357      2.60258725
C       0.53358584      0.80045171      4.10370789
C       1.79936029      0.72647930      4.93065963
C       1.59604016      1.08603652      6.38244370
O       0.73399268      1.81484936      6.74856042
O       2.61777683      0.62967992      7.12007528
C       2.55171105      0.90472208      8.52486457
H      -0.73871874      1.34524251     -0.43520546
H       0.88183944      1.63112910      0.05368970
H       0.21189720     -0.04196273     -0.07198988
H      -1.19633690      0.37840319      1.96733678
H      -0.76037952      2.00194728      2.03997850
H       1.15839327     -0.33709984      2.34295577
H       1.64587635      1.29419545      2.25302329
H       0.03078309      1.74546498      4.28548802
H      -0.09663189     -0.04956419      4.43896593
H       2.21901969     -0.30058110      4.78491662
H       2.53803059      1.35652627      4.43223023
H       3.41548252      0.45482780      8.97216948
H       1.58959203      0.59496685      8.91640505
H       2.60444738      2.02413499      8.72868108
23
Frame 140  Energy = -425.8946360857 Hartree
C       0.01205393      1.01949888      0.24548177
C      -0.36073564      1.06140634      1.71600584
C       0.79772782      0.66525385      2.60412705
C       0.52944027      0.80000943      4.10507313
C       1.80147807      0.72604601      4.92999217
C       1.59388401      1.08702921      6.38111279
O       0.73329095      1.81589802      6.74860336
O       2.61911325      0.62991517      7.12004662
C       2.55278631      0.90596752      8.52572327
H      -0.74018413      1.33785819     -0.42769857
H       0.87796656      1.62370955      0.04670985
H       0.21276822     -0.03995732     -0.06127972
H      -1.19656851      0.38371715      1.96311313
H      -0.76492259      1.99542170      2.03836685
H       1.16795125     -0.34210362      2.35358569
H       1.63735931      1.29227312      2.24312637
H       0.03802944      1.74012892      4.27506212
H      -0.09912879     -0.05563129      4.43107813
H       2.21709697     -0.30563127      4.79291853
H       2.53731585      1.36275006      4.43344370
H       3.42123166      0.45467248      8.97304368
H       1.58970187      0.59856597      8.91141634
H       2.60520426      2.02553759      8.73676588
23
Frame 145  Energy = -425.8948901298 Hartree
C       0.01268552      1.01954667      0.24539420
C      -0.36039406      1.05799885      1.71845800
C       0.79829472      0.66809289      2.60553243
C       0.52540902      0.79947259      4.10636779
C       1.80368216      0.72534263      4.92909755
C       1.59200193      1.08803495      6.37942887
O       0.73247175      1.81703668      6.74882583
O       2.62045385      0.63019084      7.12001265
C       2.55381300      0.90763922      8.52649053
H      -0.74400947      1.33151015     -0.42117716
H       0.87532643      1.61672775      0.03953894
H       0.21407743     -0.03586263     -0.04952336
H      -1.19628413      0.38902832      1.95767033
H      -0.76907882      1.99149724      2.03685174
H       1.17665259     -0.34659046      2.36453913
H       1.62846306      1.29041718      2.23507639
H       0.04433602      1.73518522      4.26521101
H      -0.10188078     -0.05962976      4.42291210
H       2.21461255     -0.30891035      4.80205859
H       2.53681994      1.36985320      4.43644092
H       3.42682672      0.45369421      8.97459364
H       1.58997900      0.60115000      8.90715148
H       2.60587175      2.02363345      8.74368996
23
Frame 150  Energy = -425.8948520723 Hartree
C       0.01342299      1.01936086      0.24551093
C      -0.36022283      1.05442899      1.72087734
C       0.79910694      0.67091263      2.60687729
C       0.52152023      0.79876120      4.10756494
C       1.80583901      0.72435608      4.92804166
C       1.59052269      1.08905983      6.37738411
O       0.73146321      1.81830956      6.74923745
O       2.62175406      0.63047068      7.11996978
C       2.55483924      0.90969617      8.52713071
H      -0.75000369      1.32628090     -0.41624853
H       0.87410911      1.61046859      0.03204801
H       0.21568586     -0.03007368     -0.03722704
H      -1.19590030      0.39397419      1.95116334
H      -0.77291888      1.99010276      2.03537494
H       1.18393310     -0.35074324      2.37586855
H       1.61954015      1.28892246      2.22879786
H       0.04905967      1.73154426      4.25644385
H      -0.10446906     -0.06177731      4.41411590
H       2.21194287     -0.31031394      4.81205254
H       2.53664836      1.37771403      4.44099928
H       3.43176901      0.45207754      8.97623364
H       1.59071351      0.60275481      8.90392501
H       2.60665693      2.01865976      8.74933590
23
Frame 155  Energy = -425.8948559227 Hartree
C       0.01426424      1.01879907      0.24573238
C      -0.36022606      1.05069689      1.72327529
C       0.80016118      0.67365519      2.60821487
C       0.51784550      0.79777460      4.10859809
C       1.80799352      0.72315474      4.92682309
C       1.58953433      1.09018719      6.37494753
O       0.73023780      1.81971266      6.74976905
O       2.62301341      0.63075824      7.12005962
C       2.55588504      0.91213727      8.52772904
H      -0.75848381      1.32205195     -0.41241381
H       0.87456537      1.60489317      0.02437847
H       0.21775372     -0.02302423     -0.02472022
H      -1.19513015      0.39799625      1.94375700
H      -0.77615674      1.99140171      2.03382082
H       1.18985034     -0.35408725      2.38759414
H       1.61123560      1.28821300      2.22410760
H       0.05189121      1.72970771      4.24918207
H      -0.10790366     -0.06192957      4.40477895
H       2.20902028     -0.30981667      4.82278337
H       2.53677796      1.38574485      4.44652916
H       3.43586104      0.44984330      8.97809627
H       1.59162599      0.60301248      8.90151550
H       2.60795868      2.01085275      8.75373428
23
Frame 160  Energy = -425.8949535427 Hartree
C       0.01513321      1.01787847      0.24611173
C      -0.36033641      1.04689333      1.72562926
C       0.80141087      0.67620501      2.60948214
C       0.51442424      0.79649052      4.10948772
C       1.81003247      0.72176046      4.92543870
C       1.58892882      1.09133892      6.37221042
O       0.72878310      1.82118435      6.75047993
O       2.62422842      0.63103008      7.12019052
C       2.55694204      0.91474931      8.52836360
H      -0.76914258      1.31909211     -0.40951308
H       0.87697899      1.60047542      0.01652810
H       0.22065609     -0.01577278     -0.01216808
H      -1.19470976      0.40085979      1.93568230
H      -0.77910777      1.99452340      2.03191926
H       1.19386097     -0.35635115      2.39928338
H       1.60390239      1.28878544      2.22109859
H       0.05277352      1.73013626      4.24364924
H      -0.11197212     -0.06028629      4.39517186
H       2.20602129     -0.30742666      4.83419430
H       2.53719730      1.39370423      4.45305694
H       3.43858208      0.44716896      8.97995220
H       1.59268078      0.60199840      8.89997006
H       2.60953301      2.00050594      8.75676076
23
Frame 165  Energy = -425.8949494398 Hartree
C       0.01601715      1.01673047      0.24669064
C      -0.36051039      1.04292769      1.72795169
C       0.80279910      0.67849016      2.61075806
C       0.51124186      0.79501778      4.11014536
C       1.81194488      0.72010578      4.92382095
C       1.58873516      1.09248075      6.36932000
O       0.72724783      1.82267049      6.75130691
O       2.62537879      0.63130430      7.12035859
C       2.55806066      0.91758603      8.52895248
H      -0.78120349      1.31721439     -0.40720261
H       0.88084406      1.59741144      0.00875026
H       0.22423447     -0.00949448      0.00004128
H      -1.19506392      0.40222213      1.92730670
H      -0.78149127      1.99889929      2.03010141
H       1.19637113     -0.35701441      2.41107431
H       1.59805392      1.29055969      2.21956357
H       0.05146045      1.73333634      4.23944444
H      -0.11679822     -0.05734182      4.38589433
H       2.20296670     -0.30368286      4.84630719
H       2.53744739      1.40136489      4.46073090
H       3.44000460      0.44391598      8.98118821
H       1.59402853      0.59963375      8.89910181
H       2.61137721      1.98883555      8.75883694
23
Frame 170  Energy = -425.8950445530 Hartree
C       0.01687927      1.01553127      0.24744946
C      -0.36081217      1.03897146      1.73019369
C       0.80433860      0.68048676      2.61202023
C       0.50833368      0.79346454      4.11056113
C       1.81366375      0.71839238      4.92215661
C       1.58886111      1.09356452      6.36627626
O       0.72556950      1.82414663      6.75225052
O       2.62640532      0.63153819      7.12059561
C       2.55918915      0.92050867      8.52940662
H      -0.79451449      1.31589885     -0.40510857
H       0.88567249      1.59555294      0.00144884
H       0.22874354     -0.00473639      0.01157096
H      -1.19648682      0.40167768      1.91835563
H      -0.78283265      2.00399752      2.02800464
H       1.19688457     -0.35585854      2.42300362
H       1.59363913      1.29393142      2.21929068
H       0.04829307      1.73923477      4.23669801
H      -0.12210981     -0.05322653      4.37710222
H       2.20027167     -0.29893170      4.85870213
H       2.53761525      1.40843223      4.46915847
H       3.44010668      0.44043270      8.98196563
H       1.59574681      0.59621956      8.89875619
H       2.61342131      1.97672586      8.75991448
23
Frame 175  Energy = -425.8949414827 Hartree
C       0.01762496      1.01426937      0.24827504
C      -0.36120430      1.03506588      1.73236843
C       0.80601400      0.68223119      2.61318456
C       0.50574144      0.79196413      4.11075419
C       1.81523389      0.71666101      4.92051859
C       1.58934643      1.09466540      6.36310611
O       0.72379182      1.82563422      6.75334293
O       2.62748139      0.63176988      7.12088241
C       2.56033601      0.92332979      8.52972887
H      -0.80825592      1.31499748     -0.40322401
H       0.89157113      1.59461305     -0.00558293
H       0.23395633     -0.00125149      0.02188821
H      -1.19896330      0.39903440      1.90914497
H      -0.78305274      2.00970158      2.02572424
H       1.19616375     -0.35314577      2.43489206
H       1.59126692      1.29869256      2.22019609
H       0.04356255      1.74689612      4.23514537
H      -0.12822165     -0.04790352      4.36914005
H       2.19818977     -0.29361754      4.87116190
H       2.53787683      1.41491726      4.47846346
H       3.43876089      0.43688998      8.98219593
H       1.59753065      0.59180709      8.89931051
H       2.61562928      1.96521703      8.76037343
23
Frame 180  Energy = -425.8947145002 Hartree
C       0.01820801      1.01310882      0.24923361
C      -0.36173179      1.03129866      1.73442084
C       0.80762270      0.68364865      2.61429720
C       0.50343020      0.79048749      4.11076112
C       1.81661515      0.71490303      4.91884335
C       1.59011604      1.09589039      6.35979946
O       0.72204208      1.82711123      6.75447215
O       2.62856905      0.63201471      7.12127230
C       2.56141728      0.92594310      8.53000817
H      -0.82175157      1.31426330     -0.40108984
H       0.89775846      1.59459616     -0.01199712
H       0.23998240      0.00051521      0.03091486
H      -1.20268287      0.39427816      1.89981726
H      -0.78207237      2.01560099      2.02295781
H       1.19420881     -0.34867558      2.44624909
H       1.59122672      1.30490853      2.22255524
H       0.03753223      1.75540682      4.23498667
H      -0.13533153     -0.04210372      4.36223122
H       2.19714148     -0.28841910      4.88352056
H       2.53813740      1.42113882      4.48896113
H       3.43581271      0.43331163      8.98170109
H       1.59967490      0.58642500      8.90076934
H       2.61822839      1.95544464      8.76020492
23
Frame 185  Energy = -425.8945584264 Hartree
C       0.01858701      1.01208362      0.25022706
C      -0.36230216      1.02776842      1.73640700
C       0.80920409      0.68473415      2.61542413
C       0.50143419      0.78913165      4.11049666
C       1.81783852      0.71317776      4.91709929
C       1.59120815      1.09717048      6.35640192
O       0.72026419      1.82856753      6.75559624
O       2.62956170      0.63237962      7.12176772
C       2.56255748      0.92830514      8.53019589
H      -0.83454707      1.31376085     -0.39816908
H       0.90345667      1.59507370     -0.01805345
H       0.24676430      0.00011730      0.03828285
H      -1.20751486      0.38796458      1.89079408
H      -0.77971922      2.02104715      2.02008748
H       1.19105929     -0.34306962      2.45715475
H       1.59330477      1.31258382      2.22601236
H       0.03050952      1.76413626      4.23633437
H      -0.14323691     -0.03614826      4.35593386
H       2.19719465     -0.28414578      4.89589331
H       2.53799626      1.42668614      4.50024987
H       3.43128496      0.42965536      8.98122172
H       1.60219365      0.57973630      8.90296049
H       2.62128623      1.94790674      8.75986244
23
Frame 190  Energy = -425.8946312332 Hartree
C       0.01884048      1.01120574      0.25121836
C      -0.36292381      1.02450030      1.73828690
C       0.81091525      0.68557296      2.61661400
C       0.49968703      0.78796829      4.11000290
C       1.81878519      0.71161511      4.91534701
C       1.59251530      1.09865551      6.35302995
O       0.71840621      1.82990509      6.75669022
O       2.63051530      0.63288181      7.12226514
C       2.56376358      0.93023569      8.53028481
H      -0.84599136      1.31306156     -0.39406217
H       0.90833388      1.59590700     -0.02325201
H       0.25395126     -0.00258303      0.04397002
H      -1.21351220      0.38018848      1.88211170
H      -0.77586563      2.02573286      2.01704884
H       1.18701246     -0.33705046      2.46714607
H       1.59705485      1.32140058      2.23090284
H       0.02295054      1.77203227      4.23865132
H      -0.15217307     -0.03037806      4.35044129
H       2.19843377     -0.28112036      4.90791417
H       2.53753786      1.43153919      4.51192461
H       3.42554692      0.42604812      8.98023292
H       1.60534200      0.57243285      8.90598949
H       2.62438653      1.94394835      8.75940920
23
Frame 195  Energy = -425.8944001382 Hartree
C       0.01895414      1.01048678      0.25220665
C      -0.36378636      1.02147593      1.73995514
C       0.81266269      0.68631377      2.61789424
C       0.49814143      0.78709710      4.10936946
C       1.81929617      0.71022114      4.91372730
C       1.59394122      1.10030978      6.34982023
O       0.71653411      1.83115563      6.75776293
O       2.63149171      0.63343934      7.12277428
C       2.56496038      0.93172485      8.53038999
H      -0.85541387      1.31228382     -0.38891033
H       0.91227550      1.59672624     -0.02753700
H       0.26136272     -0.00738305      0.04844651
H      -1.22031497      0.37140701      1.87373458
H      -0.77082002      2.02931369      2.01405283
H       1.18250309     -0.33110908      2.47626035
H       1.60237678      1.33135538      2.23752918
H       0.01517559      1.77849744      4.24193131
H      -0.16261122     -0.02485264      4.34586083
H       2.20097229     -0.27957375      4.91952612
H       2.53697802      1.43598397      4.52350940
H       3.41871665      0.42240170      8.97862512
H       1.60907608      0.56487137      8.90993685
H       2.62768784      1.94435812      8.75880462
23
Frame 200  Energy = -425.8946149997 Hartree
C       0.01901472      1.00984255      0.25310390
C      -0.36486391      1.01876140      1.74137212
C       0.81440310      0.68693603      2.61914538
C       0.49677436      0.78659838      4.10843904
C       1.81946883      0.70904859      4.91228243
C       1.59549100      1.10213137      6.34673038
O       0.71481298      1.83223199      6.75886195
O       2.63244328      0.63407666      7.12327034
C       2.56607384      0.93284020      8.53042063
H      -0.86235328      1.31105676     -0.38230102
H       0.91492673      1.59747123     -0.03092443
H       0.26900766     -0.01402604      0.05134920
H      -1.22723698      0.36200681      1.86519574
H      -0.76437179      2.03145268      2.01124854
H       1.17755117     -0.32536167      2.48423396
H       1.60869165      1.34200701      2.24589860
H       0.00752084      1.78273637      4.24584611
H      -0.17433510     -0.01940357      4.34232178
H       2.20529620     -0.27957765      4.93037450
H       2.53651750      1.43985225      4.53471340
H       3.41124256      0.41819025      8.97681116
H       1.61366745      0.55739548      8.91445843
H       2.63135618      1.94925602      8.75771708
23
Frame 205  Energy = -425.8946888786 Hartree
C       0.01893518      1.00932862      0.25397895
C      -0.36603468      1.01631099      1.74253668
C       0.81624781      0.68759478      2.62027313
C       0.49559786      0.78644034      4.10732850
C       1.81934738      0.70803656      4.91095939
C       1.59715929      1.10414926      6.34377629
O       0.71327164      1.83315149      6.75991123
O       2.63323319      0.63485501      7.12367471
C       2.56704250      0.93357931      8.53040675
H      -0.86663600      1.30944806     -0.37451277
H       0.91612393      1.59817449     -0.03315220
H       0.27705120     -0.02218842      0.05276174
H      -1.23374244      0.35250400      1.85689551
H      -0.75710593      2.03197762      2.00848679
H       1.17266757     -0.32033783      2.49101839
H       1.61557238      1.35255877      2.25612570
H       0.00076932      1.78441551      4.25069317
H      -0.18687574     -0.01428551      4.34002544
H       2.21105002     -0.28139831      4.94030514
H       2.53645815      1.44314665      4.54570852
H       3.40403974      0.41359805      8.97532061
H       1.61909078      0.55011417      8.91937860
H       2.63525102      1.95829765      8.75624351
23
Frame 210  Energy = -425.8945950539 Hartree
C       0.01873367      1.00881038      0.25481192
C      -0.36733772      1.01400077      1.74354679
C       0.81805766      0.68824429      2.62137550
C       0.49467349      0.78666316      4.10610304
C       1.81885767      0.70718868      4.90962972
C       1.59886068      1.10642553      6.34099098
O       0.71186713      1.83383591      6.76094361
O       2.63385240      0.63567713      7.12398857
C       2.56787073      0.93402085      8.53028570
H      -0.86841131      1.30732329     -0.36569941
H       0.91591404      1.59902399     -0.03447661
H       0.28493429     -0.03106535      0.05308906
H      -1.23920882      0.34273721      1.84937798
H      -0.74895495      2.03116901      2.00580872
H       1.16824770     -0.31648279      2.49675097
H       1.62245207      1.36265733      2.26807424
H      -0.00466453      1.78356751      4.25640033
H      -0.19993068     -0.00943524      4.33891586
H       2.21843681     -0.28458569      4.94902591
H       2.53671785      1.44570136      4.55622489
H       3.39694739      0.40865799      8.97417846
H       1.62510345      0.54312400      8.92458388
H       2.63945235      1.97083162      8.75440910
23
Frame 215  Energy = -425.8944225234 Hartree
C       0.01839298      1.00828244      0.25560665
C      -0.36878857      1.01190022      1.74439689
C       0.81987062      0.68880700      2.62244999
C       0.49389300      0.78723659      4.10483845
C       1.81807550      0.70644263      4.90845445
C       1.60054145      1.10894320      6.33841761
O       0.71066551      1.83438585      6.76197010
O       2.63430530      0.63653387      7.12421075
C       2.56857007      0.93425388      8.53008873
H      -0.86765114      1.30458649     -0.35593343
H       0.91425352      1.59991070     -0.03487505
H       0.29213680     -0.03973210      0.05235606
H      -1.24357376      0.33281293      1.84250424
H      -0.73966508      2.02870255      2.00321109
H       1.16431240     -0.31426209      2.50119356
H       1.62923945      1.37174731      2.28160662
H      -0.00891486      1.78006298      4.26265232
H      -0.21319351     -0.00469002      4.33865194
H       2.22701041     -0.28898800      4.95658266
H       2.53739358      1.44774942      4.56585033
H       3.39013793      0.40343550      8.97303171
H       1.63160419      0.53688600      8.92969191
H       2.64372446      1.98565437      8.75217464
23
Frame 220  Energy = -425.8944293844 Hartree
C       0.01796418      1.00762575      0.25635885
C      -0.37031499      1.00994849      1.74510146
C       0.82162257      0.68934847      2.62350245
C       0.49323604      0.78820468      4.10358027
C       1.81696379      0.70563948      4.90739100
C       1.60215767      1.11157135      6.33610106
O       0.70967441      1.83475128      6.76302062
O       2.63466057      0.63746900      7.12433737
C       2.56915235      0.93426644      8.52982005
H      -0.86488457      1.30138604     -0.34566722
H       0.91088247      1.60077033     -0.03435246
H       0.29864490     -0.04743285      0.05086570
H      -1.24671473      0.32323276      1.83616720
H      -0.72973901      2.02453058      2.00065464
H       1.16109642     -0.31404006      2.50381613
H       1.63546515      1.37991152      2.29676315
H      -0.01184222      1.77415453      4.26964841
H      -0.22642872      0.00035012      4.33908641
H       2.23665269     -0.29420241      4.96280042
H       2.53821936      1.44937718      4.57463629
H       3.38386631      0.39773302      8.97194438
H       1.63823351      0.53124048      8.93496089
H       2.64769528      2.00123093      8.74947375
23
Frame 225  Energy = -425.8942232083 Hartree
C       0.01753014      1.00690044      0.25708847
C      -0.37195247      1.00810134      1.74562907
C       0.82321635      0.69005179      2.62453112
C       0.49260829      0.78937000      4.10233492
C       1.81551894      0.70482776      4.90649555
C       1.60363276      1.11441046      6.33400221
O       0.70894098      1.83487460      6.76408094
O       2.63488150      0.63846803      7.12433439
C       2.56966695      0.93420626      8.52946313
H      -0.86071144      1.29773831     -0.33534790
H       0.90571369      1.60154546     -0.03264445
H       0.30386047     -0.05374158      0.04836481
H      -1.24802763      0.31459920      1.83073762
H      -0.71941951      2.01890225      1.99851407
H       1.15901700     -0.31597015      2.50479698
H       1.64061626      1.38695967      2.31326817
H      -0.01330877      1.76619389      4.27701505
H      -0.23923169      0.00553630      4.34036698
H       2.24701118     -0.29916436      4.96753407
H       2.53932912      1.45018575      4.58250402
H       3.37874807      0.39149953      8.97120817
H       1.64521298      0.52631731      8.94016661
H       2.65113042      2.01651973      8.74614751
23
Frame 230  Energy = -425.8942384981 Hartree
C       0.01722573      1.00591952      0.25780994
C      -0.37372352      1.00630991      1.74601633
C       0.82471960      0.69090616      2.62560441
C       0.49211450      0.79073054      4.10109984
C       1.81385828      0.70399250      4.90575699
C       1.60501811      1.11744608      6.33210607
O       0.70846091      1.83483278      6.76505957
O       2.63498206      0.63946216      7.12428696
C       2.57016542      0.93422125      8.52906234
H      -0.85567850      1.29326780     -0.32531934
H       0.89875660      1.60217127     -0.03002879
H       0.30818979     -0.05798896      0.04536982
H      -1.24715916      0.30736752      1.82621756
H      -0.70923537      2.01265163      1.99652004
H       1.15796962     -0.31966582      2.50434721
H       1.64458430      1.39302305      2.33115432
H      -0.01373130      1.75686107      4.28471519
H      -0.25148751      0.01141881      4.34241137
H       2.25773411     -0.30344030      4.97073318
H       2.54098331      1.45026162      4.58921212
H       3.37488346      0.38488614      8.97072003
H       1.65243152      0.52202159      8.94576475
H       2.65434993      2.02984876      8.74248151
23
Frame 235  Energy = -425.8944048089 Hartree
C       0.01704500      1.00472900      0.25862849
C      -0.37562987      1.00464634      1.74622829
C       0.82622072      0.69187308      2.62678808
C       0.49171302      0.79215954      4.09981794
C       1.81201712      0.70311171      4.90530774
C       1.60622236      1.12060872      6.33055235
O       0.70822775      1.83465073      6.76592676
O       2.63491797      0.64050939      7.12427592
C       2.57057655      0.93436085      8.52876466
H      -0.85011071      1.28858838     -0.31574230
H       0.89058476      1.60288645     -0.02629437
H       0.31168819     -0.05998329      0.04213961
H      -1.24403305      0.30144683      1.82278160
H      -0.69973813      2.00632241      1.99513345
H       1.15801996     -0.32453273      2.50249236
H       1.64727041      1.39770454      2.34988859
H      -0.01361799      1.74659935      4.29310079
H      -0.26240459      0.01784638      4.34544838
H       2.26832361     -0.30645551      4.97228900
H       2.54310236      1.44950701      4.59423368
H       3.37221967      0.37834845      8.97043143
H       1.65926146      0.51855036      8.95159468
H       2.65729228      2.04061374      8.73816275
23
Frame 240  Energy = -425.8947320709 Hartree
C       0.01697965      1.00315455      0.25955875
C      -0.37744988      1.00305858      1.74622163
C       0.82756375      0.69296212      2.62803141
C       0.49139774      0.79362736      4.09862796
C       1.80997239      0.70213350      4.90511269
C       1.60729989      1.12392611      6.32933877
O       0.70826809      1.83431601      6.76657324
O       2.63477019      0.64161017      7.12418937
C       2.57079027      0.93468810      8.52856563
H      -0.84463326      1.28426658     -0.30724102
H       0.88190077      1.60393392     -0.02197204
H       0.31447581     -0.05950007      0.03841082
H      -1.23901501      0.29701604      1.82041210
H      -0.69144531      2.00035777      1.99438898
H       1.15889576     -0.33025920      2.49924405
H       1.64860408      1.40122014      2.36890921
H      -0.01290164      1.73621309      4.30186656
H      -0.27121357      0.02488788      4.34893975
H       2.27814871     -0.30790420      4.97274958
H       2.54539168      1.44772292      4.59786835
H       3.37087738      0.37197463      8.97024262
H       1.66584170      0.51605167      8.95735907
H       2.66002480      2.04838689      8.73326019
23
Frame 245  Energy = -425.8948873199 Hartree
C       0.01703031      1.00112323      0.26053608
C      -0.37912708      1.00153358      1.74609080
C       0.82868140      0.69420108      2.62924498
C       0.49105038      0.79509963      4.09747814
C       1.80777441      0.70101899      4.90502572
C       1.60822798      1.12743749      6.32858260
O       0.70852482      1.83384722      6.76709763
O       2.63445179      0.64271982      7.12401006
C       2.57094371      0.93524751      8.52836553
H      -0.83991646      1.28022086     -0.30017398
H       0.87318160      1.60545575     -0.01687643
H       0.31611315     -0.05644236      0.03384253
H      -1.23229016      0.29371995      1.81899727
H      -0.68424210      1.99530687      1.99448020
H       1.16077417     -0.33639333      2.49477939
H       1.64873159      1.40341032      2.38816063
H      -0.01145546      1.72611737      4.31095808
H      -0.27780066      0.03241801      4.35278006
H       2.28660164     -0.30746124      4.97199025
H       2.54776636      1.44510935      4.60025845
H       3.37066257      0.36577545      8.97022810
H       1.67179167      0.51457941      8.96300779
H       2.66256316      2.05286968      8.72784605
23
Frame 250  Energy = -425.8950396396 Hartree
C       0.01720671      0.99871658      0.26166060
C      -0.38067770      0.99991938      1.74577285
C       0.82954791      0.69531738      2.63050470
C       0.49073610      0.79640422      4.09632150
C       1.80545471      0.69983820      4.90509496
C       1.60911467      1.13105995      6.32822090
O       0.70898655      1.83325170      6.76754642
O       2.63404898      0.64393366      7.12363198
C       2.57103382      0.93595329      8.52807547
H      -0.83647866      1.27637638     -0.29521293
H       0.86413206      1.60757047     -0.01117145
H       0.31684611     -0.05168001      0.02842482
H      -1.22422459      0.29170234      1.81861884
H      -0.67828666      1.99177900      1.99538580
H       1.16342216     -0.34192027      2.48943756
H       1.64763713      1.40421082      2.40749329
H      -0.00960304      1.71729535      4.31991597
H      -0.28213322      0.04046516      4.35690526
H       2.29417813     -0.30502664      4.96980768
H       2.55010999      1.44187961      4.60122072
H       3.37157521      0.36010541      8.97022822
H       1.67662827      0.51389846      8.96844934
H       2.66479710      2.05374291      8.72183511
23
Frame 255  Energy = -425.8951796297 Hartree
C       0.01744003      0.99596658      0.26295466
C      -0.38198281      0.99822525      1.74522400
C       0.83030201      0.69621332      2.63180410
C       0.49046627      0.79753847      4.09523628
C       1.80300808      0.69868478      4.90539472
C       1.61001844      1.13468398      6.32822453
O       0.70966111      1.83261135      6.76788403
O       2.63356403      0.64523349      7.12315359
C       2.57114729      0.93685646      8.52770709
H      -0.83478688      1.27338393     -0.29282822
H       0.85542522      1.61056633     -0.00484358
H       0.31661634     -0.04531807      0.02253989
H      -1.21501853      0.29059557      1.81944000
H      -0.67414655      1.98971347      1.99696625
H       1.16682379     -0.34656273      2.48281864
H       1.64572832      1.40411882      2.42644279
H      -0.00753922      1.71036772      4.32888603
H      -0.28424115      0.04871110      4.36109061
H       2.30048046     -0.30074548      4.96615965
H       2.55259588      1.43771820      4.60074513
H       3.37362082      0.35531812      8.96991917
H       1.68049105      0.51380930      8.97364332
H       2.66646780      2.05088458      8.71539776
23
Frame 260  Energy = -425.8952161784 Hartree
C       0.01774330      0.99285105      0.26432545
C      -0.38294959      0.99641584      1.74452324
C       0.83096215      0.69690992      2.63303173
C       0.49031679      0.79849746      4.09422034
C       1.80049926      0.69747323      4.90593384
C       1.61084686      1.13831502      6.32859564
O       0.71050188      1.83186339      6.76816940
O       2.63301459      0.64660821      7.12269873
C       2.57131124      0.93790133      8.52734529
H      -0.83514904      1.27094316     -0.29288349
H       0.84744885      1.61477409      0.00160731
H       0.31568984     -0.03754327      0.01613055
H      -1.20510944      0.28976085      1.82128799
H      -0.67187620      1.98927793      1.99925722
H       1.17072872     -0.34995187      2.47523803
H       1.64367660      1.40318972      2.44494803
H      -0.00601864      1.70586627      4.33807835
H      -0.28472931      0.05726871      4.36507170
H       2.30566074     -0.29461830      4.96138946
H       2.55526474      1.43261156      4.59887288
H       3.37654598      0.35128951      8.96916844
H       1.68341111      0.51442035      8.97858946
H       2.66789067      2.04453460      8.70882448
23
Frame 265  Energy = -425.8952330689 Hartree
C       0.01813142      0.98947014      0.26591057
C      -0.38361501      0.99469596      1.74359086
C       0.83153317      0.69745637      2.63431831
C       0.49023186      0.79933929      4.09335203
C       1.79786364      0.69627697      4.90676398
C       1.61158253      1.14191698      6.32926585
O       0.71145079      1.83106642      6.76838490
O       2.63233095      0.64805536      7.12222727
C       2.57151629      0.93902806      8.52702530
H      -0.83749515      1.26897834     -0.29498594
H       0.84080611      1.62055784      0.00860521
H       0.31429131     -0.02877199      0.00912700
H      -1.19535189      0.28889229      1.82454425
H      -0.67151219      1.99068421      2.00211238
H       1.17502507     -0.35176086      2.46685946
H       1.64160390      1.40188039      2.46192303
H      -0.00514013      1.70420087      4.34732245
H      -0.28342549      0.06598202      4.36900402
H       2.30958382     -0.28710715      4.95531150
H       2.55739735      1.42702571      4.59546333
H       3.38025314      0.34851517      8.96795245
H       1.68476826      0.51582900      8.98316454
H       2.66893144      2.03490196      8.70197394
23
Frame 270  Energy = -425.8952456274 Hartree
C       0.01849171      0.98587620      0.26767109
C      -0.38389956      0.99309642      1.74241134
C       0.83201257      0.69779065      2.63562566
C       0.49027399      0.80001407      4.09261741
C       1.79515920      0.69511486      4.90785861
C       1.61231591      1.14539578      6.33023419
O       0.71263551      1.83018970      6.76856669
O       2.63151667      0.64959013      7.12169717
C       2.57177404      0.94023987      8.52680576
H      -0.84141783      1.26707913     -0.29917494
H       0.83568846      1.62769493      0.01582039
H       0.31264087     -0.01969987      0.00131911
H      -1.18639954      0.28787466      1.82942042
H      -0.67289698      1.99358659      2.00570526
H       1.17946639     -0.35185908      2.45786423
H       1.63958800      1.40022064      2.47750667
H      -0.00426658      1.70555834      4.35649063
H      -0.28064320      0.07434543      4.37285099
H       2.31222368     -0.27809345      4.94849018
H       2.55850610      1.42099906      4.59102059
H       3.38454525      0.34708990      8.96611616
H       1.68520708      0.51819530      8.98759517
H       2.66962085      2.02292374      8.69492408
23
Frame 275  Energy = -425.8948947010 Hartree
C       0.01878497      0.98218107      0.26954896
C      -0.38371066      0.99162740      1.74105245
C       0.83232152      0.69793940      2.63690676
C       0.49040106      0.80052243      4.09202814
C       1.79246252      0.69405789      4.90908945
C       1.61303506      1.14882684      6.33146430
O       0.71390763      1.82920549      6.76866526
O       2.63058635      0.65126486      7.12111844
C       2.57220694      0.94135472      8.52666501
H      -0.84644182      1.26573605     -0.30523224
H       0.83201001      1.63619028      0.02329451
H       0.31108604     -0.01149251     -0.00727147
H      -1.17876973      0.28650301      1.83566818
H      -0.67608665      1.99704670      2.01013613
H       1.18409926     -0.35031668      2.44827006
H       1.63809861      1.39874259      2.49164887
H      -0.00315722      1.70976463      4.36557058
H      -0.27644442      0.08198128      4.37677869
H       2.31363501     -0.26795776      4.94040703
H       2.55897950      1.41468090      4.58508822
H       3.38910550      0.34706037      8.96420521
H       1.68460861      0.52155189      8.99156186
H       2.67036294      2.00969166      8.68801268
23
Frame 280  Energy = -425.8949125287 Hartree
C       0.01889346      0.97844669      0.27144743
C      -0.38305456      0.99039232      1.73952608
C       0.83247132      0.69790096      2.63807447
C       0.49071769      0.80090454      4.09161782
C       1.78981258      0.69311415      4.91049204
C       1.61369881      1.15216412      6.33293369
O       0.71524822      1.82808994      6.76877776
O       2.62956738      0.65307294      7.12057501
C       2.57261861      0.94242330      8.52659620
H      -0.85191420      1.26429232     -0.31257103
H       0.82922008      1.64565934      0.03088633
H       0.30984715     -0.00492816     -0.01643711
H      -1.17255611      0.28419533      1.84370819
H      -0.68084034      2.00093384      2.01478349
H       1.18930047     -0.34652863      2.43837494
H       1.63739739      1.39782247      2.50415734
H      -0.00177001      1.71626981      4.37400783
H      -0.27153089      0.08852844      4.38053505
H       2.31398744     -0.25765225      4.93167374
H       2.55885160      1.40783369      4.57781313
H       3.39357703      0.34878940      8.96186705
H       1.68348525      0.52578935      8.99489734
H       2.67121557      1.99621933      8.68166272
23
Frame 285  Energy = -425.8952261294 Hartree
C       0.01889597      0.97483711      0.27328432
C      -0.38205280      0.98943568      1.73792887
C       0.83237172      0.69760807      2.63916941
C       0.49116537      0.80118443      4.09143155
C       1.78717299      0.69231681      4.91206151
C       1.61438652      1.15532609      6.33469405
O       0.71663864      1.82697559      6.76892652
O       2.62847564      0.65490955      7.11989631
C       2.57307881      0.94331123      8.52658351
H      -0.85721567      1.26265389     -0.32064881
H       0.82713817      1.65610475      0.03887487
H       0.30904756     -0.00025214     -0.02599240
H      -1.16792434      0.28094719      1.85324254
H      -0.68704520      2.00473896      2.01958020
H       1.19448100     -0.34040579      2.42863949
H       1.63782210      1.39746797      2.51487831
H      -0.00009402      1.72445770      4.38150097
H      -0.26609757      0.09363546      4.38468130
H       2.31318067     -0.24784607      4.92248277
H       2.55793564      1.40043355      4.56944131
H       3.39831973      0.35203869      8.95921868
H       1.68165756      0.53099068      8.99778861
H       2.67196591      1.98394735      8.67622034
23
Frame 290  Energy = -425.8951375961 Hartree
C       0.01878695      0.97147766      0.27516790
C      -0.38069033      0.98872922      1.73627733
C       0.83212694      0.69704605      2.64016242
C       0.49162464      0.80153110      4.09144745
C       1.78454101      0.69164355      4.91374759
C       1.61515458      1.15818370      6.33657114
O       0.71802491      1.82592115      6.76912391
O       2.62721620      0.65677411      7.11913845
C       2.57351368      0.94380338      8.52673385
H      -0.86177033      1.26114846     -0.32908434
H       0.82536590      1.66682709      0.04705724
H       0.30853457      0.00211774     -0.03619200
H      -1.16496534      0.27685100      1.86422925
H      -0.69443658      2.00802271      2.02417128
H       1.19960825     -0.33222531      2.41912378
H       1.63858729      1.39790756      2.52357722
H       0.00207347      1.73361835      4.38800555
H      -0.26045262      0.09680209      4.38939509
H       2.31159515     -0.23938893      4.91295172
H       2.55612595      1.39295067      4.55985683
H       3.40311735      0.35696670      8.95603457
H       1.67940001      0.53750771      8.99993949
H       2.67303115      1.97417651      8.67180543
23
Frame 295  Energy = -425.8952422788 Hartree
C       0.01849866      0.96839428      0.27709155
C      -0.37908283      0.98829567      1.73467211
C       0.83168439      0.69630375      2.64103590
C       0.49218162      0.80197085      4.09172960
C       1.78194485      0.69126616      4.91550900
C       1.61608625      1.16072546      6.33854383
O       0.71940358      1.82497129      6.76933203
O       2.62588891      0.65863890      7.11840619
C       2.57398806      0.94380141      8.52694262
H      -0.86523818      1.25972322     -0.33735725
H       0.82307559      1.67753654      0.05548561
H       0.30879967      0.00196098     -0.04729637
H      -1.16291617      0.27202958      1.87650150
H      -0.70294481      2.01021398      2.02806817
H       1.20468327     -0.32220194      2.41040038
H       1.64002459      1.39904957      2.53045463
H       0.00521801      1.74306815      4.39311857
H      -0.25455339      0.09781777      4.39489045
H       2.30993370     -0.23320082      4.90296221
H       2.55336651      1.38579223      4.54910473
H       3.40749661      0.36338801      8.95231888
H       1.67663902      0.54481074      9.00152047
H       2.67484467      1.96778007      8.66847186
23
Frame 300  Energy = -425.8952411900 Hartree
C       0.01791655      0.96557871      0.27887291
C      -0.37722329      0.98807126      1.73308628
C       0.83104355      0.69526783      2.64185459
C       0.49298173      0.80249062      4.09226184
C       1.77937776      0.69116106      4.91735931
C       1.61715967      1.16291248      6.34053799
O       0.72068588      1.82416697      6.76953913
O       2.62455420      0.66049920      7.11764266
C       2.57455100      0.94326384      8.52713622
H      -0.86700604      1.25825635     -0.34499898
H       0.82042422      1.68822383      0.06435158
H       0.30984473     -0.00093886     -0.05890908
H      -1.16177278      0.26653632      1.89007992
H      -0.71233474      2.01092314      2.03111658
H       1.21002732     -0.31092507      2.40165863
H       1.64207028      1.40065119      2.53491431
H       0.00949082      1.75269743      4.39681841
H      -0.24905358      0.09667773      4.40094312
H       2.30815715     -0.22923007      4.89270204
H       2.55009802      1.37909968      4.53767622
H       3.41122608      0.37076119      8.94803389
H       1.67360091      0.55256789      9.00220405
H       2.67744340      1.96574976      8.66587789
