23
Frame 5  Energy = -425.8945490170 Hartree
C      -0.00196324      1.10734015      0.14193310
C      -0.28864895      1.20975872      1.63998261
C       0.84058244      0.67119018      2.53989272
C       0.56900450      0.92621760      4.03760285
C       1.83949497      0.72137239      4.88023857
C       1.65365268      1.04432195      6.31803487
O       0.78120521      1.74987600      6.78605628
O       2.61086424      0.51409945      7.14065065
C       2.47599109      0.86630097      8.49866451
H      -0.80101237      1.45781019     -0.46624188
H       0.86697625      1.68530489     -0.07489847
H       0.15885411      0.04610528     -0.16421991
H      -1.20037578      0.65923673      1.91931373
H      -0.59011728      2.21741961      1.85645916
H       0.93659155     -0.41325858      2.33368876
H       1.83019757      1.04829640      2.19649796
H       0.25806211      1.95361662      4.06556106
H      -0.15848895      0.20163435      4.43301239
H       2.13083534     -0.34994177      4.80529605
H       2.70497694      1.33745381      4.60669775
H       3.37887498      0.51271176      8.94210595
H       1.55097051      0.48751215      8.92342216
H       2.44755303      1.97481838      8.71740155
23
Frame 10  Energy = -425.8944892123 Hartree
C      -0.00160584      1.10657303      0.14232818
C      -0.28945118      1.20851465      1.64166691
C       0.83873704      0.66949160      2.53856048
C       0.56979370      0.92577350      4.03953704
C       1.83848838      0.72059784      4.87572269
C       1.65350759      1.04765771      6.32023727
O       0.78124670      1.74967463      6.78700939
O       2.61086995      0.51529900      7.14144150
C       2.47491910      0.86704910      8.49915052
H      -0.79823285      1.45936916     -0.46263053
H       0.86528695      1.68232176     -0.06857791
H       0.16197792      0.04543716     -0.15828848
H      -1.19910335      0.65692608      1.91154327
H      -0.59405641      2.21216357      1.85942964
H       0.94265394     -0.42043944      2.32220407
H       1.82790374      1.05187573      2.21291477
H       0.26085885      1.94430909      4.07166151
H      -0.14778349      0.19336237      4.43835571
H       2.12342548     -0.35274172      4.80191260
H       2.70120033      1.34256034      4.60916220
H       3.38108262      0.51237274      8.94176228
H       1.55287365      0.48899041      8.92225332
H       2.44825484      1.97937886      8.71537085
23
Frame 15  Energy = -425.8943664614 Hartree
C      -0.00123631      1.10547096      0.14284725
C      -0.29035968      1.20714045      1.64331539
C       0.83696108      0.66754468      2.53714113
C       0.57084768      0.92512401      4.04140694
C       1.83758457      0.71961079      4.87127751
C       1.65328435      1.05105950      6.32286591
O       0.78130920      1.74942727      6.78779137
O       2.61078287      0.51652943      7.14200429
C       2.47385578      0.86816801      8.49986750
H      -0.79739400      1.46229685     -0.45975939
H       0.86552098      1.68003249     -0.06280201
H       0.16562717      0.04660073     -0.15185157
H      -1.19783364      0.65446343      1.90339371
H      -0.59736089      2.20927772      1.86347225
H       0.94809986     -0.42616120      2.31159698
H       1.82453391      1.05613234      2.23037843
H       0.26219472      1.93582670      4.07927464
H      -0.13778982      0.18679756      4.44270407
H       2.11605226     -0.35346214      4.79848930
H       2.69692187      1.34696895      4.61049727
H       3.38354050      0.51051731      8.94290933
H       1.55495252      0.48973699      8.92146964
H       2.44905615      1.98171340      8.71117915
23
Frame 20  Energy = -425.8940993388 Hartree
C      -0.00088011      1.10404371      0.14346691
C      -0.29127877      1.20556504      1.64497103
C       0.83516248      0.66543911      2.53564216
C       0.57219747      0.92416602      4.04300824
C       1.83669819      0.71843406      4.86693958
C       1.65297193      1.05458977      6.32575810
O       0.78136162      1.74913903      6.78848939
O       2.61059205      0.51783165      7.14234779
C       2.47283649      0.86960369      8.50064754
H      -0.79854057      1.46635890     -0.45805261
H       0.86833937      1.67878699     -0.05801462
H       0.16961227      0.04966959     -0.14460822
H      -1.19654180      0.65146351      1.89453119
H      -0.59957439      2.20890801      1.86820772
H       0.95258864     -0.43000190      2.30160054
H       1.82037043      1.06112953      2.24857069
H       0.26191330      1.92931195      4.08854185
H      -0.12863154      0.18163774      4.44632270
H       2.10922864     -0.35251964      4.79491623
H       2.69240172      1.35063184      4.61057903
H       3.38626046      0.50732938      8.94590544
H       1.55690898      0.48957452      8.92091482
H       2.44993607      1.98164391      8.70545518
23
Frame 25  Energy = -425.8942058695 Hartree
C      -0.00054441      1.10227719      0.14433031
C      -0.29221630      1.20381262      1.64657446
C       0.83344487      0.66305254      2.53414274
C       0.57381279      0.92293118      4.04433522
C       1.83586318      0.71709803      4.86274888
C       1.65266153      1.05814200      6.32887735
O       0.78141094      1.74878807      6.78917127
O       2.61030203      0.51924782      7.14251787
C       2.47197208      0.87139877      8.50150747
H      -0.80140418      1.47163944     -0.45733181
H       0.87339144      1.67817654     -0.05433234
H       0.17388377      0.05409772     -0.13707673
H      -1.19538695      0.64769550      1.88536968
H      -0.60075854      2.21056492      1.87362049
H       0.95648315     -0.43170630      2.29246286
H       1.81549252      1.06695541      2.26710564
H       0.25966850      1.92509974      4.09903827
H      -0.12047967      0.17850972      4.44924095
H       2.10325363     -0.35002163      4.79111276
H       2.68744178      1.35360480      4.60948683
H       3.38836719      0.50320122      8.95009016
H       1.55845279      0.48848451      8.92104538
H       2.45110687      1.97902013      8.69807043
23
Frame 30  Energy = -425.8943222001 Hartree
C      -0.00016538      1.10030713      0.14543838
C      -0.29322625      1.20182097      1.64810747
C       0.83183469      0.66048901      2.53267812
C       0.57571251      0.92144754      4.04542914
C       1.83511359      0.71569613      4.85871266
C       1.65220837      1.06152438      6.33205793
O       0.78150331      1.74852791      6.78988866
O       2.60993093      0.52062514      7.14250617
C       2.47132899      0.87341804      8.50235517
H      -0.80579346      1.47757805     -0.45736113
H       0.88019965      1.67817907     -0.05194237
H       0.17858964      0.05960458     -0.12942653
H      -1.19423493      0.64293383      1.87585039
H      -0.60069441      2.21403254      1.87998192
H       0.96003646     -0.43126575      2.28456164
H       1.81013135      1.07366877      2.28532893
H       0.25542069      1.92349894      4.11108165
H      -0.11331350      0.17688571      4.45164308
H       2.09841725     -0.34632469      4.78733154
H       2.68236224      1.35590387      4.60714084
H       3.38982918      0.49871856      8.95498448
H       1.55964664      0.48670157      8.92188140
H       2.45235633      1.97389447      8.68929864
23
Frame 35  Energy = -425.8940649271 Hartree
C       0.00021892      1.09819946      0.14664757
C      -0.29423214      1.19980754      1.64954666
C       0.83032735      0.65772423      2.53135207
C       0.57784731      0.91965983      4.04633229
C       1.83441130      0.71427170      4.85475689
C       1.65160578      1.06475191      6.33528299
O       0.78156836      1.74844287      6.79066418
O       2.60948587      0.52199267      7.14233022
C       2.47079236      0.87560489      8.50332732
H      -0.81126978      1.48365120     -0.45815432
H       0.88828013      1.67866736     -0.05069920
H       0.18362473      0.06531904     -0.12199119
H      -1.19316395      0.63699691      1.86604025
H      -0.59952427      2.21884859      1.88720843
H       0.96287138     -0.42863112      2.27788178
H       1.80471756      1.08121890      2.30331443
H       0.24917372      1.92394596      4.12429168
H      -0.10737575      0.17665976      4.45366591
H       2.09458401     -0.34192158      4.78337883
H       2.67775982      1.35783312      4.60331451
H       3.39041359      0.49408627      8.96060373
H       1.56051964      0.48413822      8.92340634
H       2.45331608      1.96670351      8.67969065
23
Frame 40  Energy = -425.8939023118 Hartree
C       0.00054775      1.09604440      0.14799218
C      -0.29524822      1.19779059      1.65093478
C       0.82879780      0.65478662      2.53003855
C       0.58023547      0.91751786      4.04705510
C       1.83369236      0.71284982      4.85112156
C       1.65098955      1.06774194      6.33859054
O       0.78166303      1.74845648      6.79144723
O       2.60903033      0.52332709      7.14196392
C       2.47041906      0.87781265      8.50442533
H      -0.81733086      1.48975696     -0.45897768
H       0.89663932      1.67919926     -0.05060019
H       0.18886100      0.07095465     -0.11470521
H      -1.19268006      0.62992202      1.85645153
H      -0.59733900      2.22401032      1.89495049
H       0.96508096     -0.42387046      2.27250402
H       1.79914915      1.09006760      2.32059154
H       0.24125687      1.92625627      4.13835398
H      -0.10289930      0.17756743      4.45525039
H       2.09167356     -0.33725148      4.77951429
H       2.67338861      1.35931527      4.59794077
H       3.38966459      0.48897493      8.96681942
H       1.56072044      0.48082712      8.92555438
H       2.45405079      1.95839253      8.66921336
23
Frame 45  Energy = -425.8937648832 Hartree
C       0.00089978      1.09401110      0.14948834
C      -0.29625973      1.19580002      1.65223607
C       0.82724783      0.65180080      2.52872112
C       0.58287273      0.91509542      4.04766317
C       1.83303621      0.71152436      4.84777908
C       1.65044904      1.07055987      6.34185084
O       0.78161358      1.74860409      6.79223186
O       2.60858755      0.52460578      7.14144017
C       2.47021247      0.87997310      8.50578429
H      -0.82298399      1.49551227     -0.45934219
H       0.90487363      1.67937014     -0.05097776
H       0.19444409      0.07580383     -0.10774109
H      -1.19286048      0.62204420      1.84718930
H      -0.59396826      2.22887605      1.90287791
H       0.96675957     -0.41763997      2.26827237
H       1.79390544      1.09993066      2.33654198
H       0.23203961      1.92968055      4.15322053
H      -0.10019224      0.17966161      4.45638705
H       2.09019926     -0.33265765      4.77553014
H       2.66915209      1.35979207      4.59070884
H       3.38726631      0.48397108      8.97346501
H       1.56058891      0.47694906      8.92787003
H       2.45462258      1.94988901      8.65804722
23
Frame 50  Energy = -425.8934270902 Hartree
C       0.00126828      1.09218355      0.15106289
C      -0.29735921      1.19378706      1.65348310
C       0.82571381      0.64883520      2.52749448
C       0.58567104      0.91260614      4.04799571
C       1.83254405      0.71032075      4.84491427
C       1.65005569      1.07305968      6.34501878
O       0.78140339      1.74893935      6.79307459
O       2.60808722      0.52596001      7.14071491
C       2.47023364      0.88207137      8.50727159
H      -0.82818110      1.50075103     -0.45905162
H       0.91276532      1.67895413     -0.05174029
H       0.20032353      0.07894369     -0.10134456
H      -1.19354297      0.61382383      1.83865728
H      -0.58926250      2.23306743      1.91097957
H       0.96815770     -0.40991239      2.26522447
H       1.78868928      1.11099281      2.35068348
H       0.22185626      1.93353301      4.16872484
H      -0.09904115      0.18254153      4.45722523
H       2.09050222     -0.32825497      4.77127627
H       2.66552240      1.35974690      4.58183927
H       3.38350353      0.47895462      8.97995394
H       1.56091126      0.47245512      8.93064108
H       2.45542066      1.94165514      8.64628296
23
Frame 55  Energy = -425.8930734776 Hartree
C       0.00170178      1.09061834      0.15277691
C      -0.29845271      1.19175865      1.65467136
C       0.82414054      0.64588100      2.52649103
C       0.58845942      0.91005612      4.04807685
C       1.83221933      0.70928055      4.84255230
C       1.64972346      1.07531865      6.34797200
O       0.78103340      1.74942857      6.79400790
O       2.60749896      0.52738914      7.13982193
C       2.47050605      0.88406003      8.50881166
H      -0.83250946      1.50519648     -0.45823287
H       0.91997594      1.67773588     -0.05293105
H       0.20661870      0.07967888     -0.09630053
H      -1.19476076      0.60517569      1.83115308
H      -0.58305787      2.23640976      1.91893991
H       0.96891584     -0.40160731      2.26312262
H       1.78363880      1.12320273      2.36338830
H       0.21095388      1.93691692      4.18447648
H      -0.09959803      0.18595411      4.45791938
H       2.09247576     -0.32452128      4.76722313
H       2.66213295      1.35919124      4.57151149
H       3.37811743      0.47424406      8.98630714
H       1.56139700      0.46739317      8.93408699
H       2.45651269      1.93493372      8.63448814
23
Frame 60  Energy = -425.8930830386 Hartree
C       0.00220107      1.08948767      0.15449998
C      -0.29972234      1.18981063      1.65573673
C       0.82249390      0.64299419      2.52557357
C       0.59115243      0.90748223      4.04797726
C       1.83204070      0.70846396      4.84047133
C       1.64954737      1.07718450      6.35074803
O       0.78042040      1.75012644      6.79506298
O       2.60683979      0.52889353      7.13884512
C       2.47097042      0.88589341      8.51039368
H      -0.83545237      1.50855338     -0.45676312
H       0.92601707      1.67558994     -0.05460632
H       0.21293209      0.07803252     -0.09268422
H      -1.19638619      0.59615053      1.82442006
H      -0.57560730      2.23815830      1.92695581
H       0.96966468     -0.39372363      2.26158794
H       1.77859894      1.13592725      2.37407226
H       0.19955918      1.93897823      4.20022133
H      -0.10161029      0.18964497      4.45860044
H       2.09619476     -0.32178227      4.76336964
H       2.65854052      1.35825450      4.55961744
H       3.37118642      0.46976386      8.99247948
H       1.56204835      0.46227077      8.93790681
H       2.45763388      1.93062131      8.62286645
23
Frame 65  Energy = -425.8930913031 Hartree
C       0.00269571      1.08873519      0.15624826
C      -0.30121172      1.18794012      1.65666881
C       0.82092742      0.64035710      2.52474796
C       0.59366590      0.90496177      4.04776425
C       1.83200274      0.70783091      4.83880789
C       1.64959802      1.07869081      6.35319954
O       0.77957515      1.75092831      6.79619469
O       2.60615695      0.53043607      7.13777363
C       2.47156814      0.88741955      8.51205574
H      -0.83686525      1.51087785     -0.45395906
H       0.93036472      1.67284623     -0.05661131
H       0.21919688      0.07462653     -0.09010467
H      -1.19817330      0.58720159      1.81831517
H      -0.56721130      2.23789425      1.93475450
H       0.97075962     -0.38694085      2.26062991
H       1.77352062      1.14900390      2.38302295
H       0.18833062      1.93892174      4.21516393
H      -0.10540065      0.19364947      4.45942735
H       2.10140315     -0.32028677      4.75990171
H       2.65519399      1.35673038      4.54686456
H       3.36295144      0.46559709      8.99890769
H       1.56308084      0.45686661      8.94150463
H       2.45895483      1.92954037      8.61180592
23
Frame 70  Energy = -425.8931263261 Hartree
C       0.00327338      1.08834668      0.15802309
C      -0.30287932      1.18614648      1.65748761
C       0.81936024      0.63804132      2.52416940
C       0.59600609      0.90252435      4.04742311
C       1.83204898      0.70734361      4.83760835
C       1.64982056      1.07981559      6.35535423
O       0.77850592      1.75191601      6.79733759
O       2.60548919      0.53201317      7.13666718
C       2.47221727      0.88846433      8.51383853
H      -0.83618511      1.51163917     -0.44978738
H       0.93260166      1.66957377     -0.05901178
H       0.22524388      0.06974500     -0.08863781
H      -1.20025019      0.57851769      1.81287360
H      -0.55795196      2.23572707      1.94221950
H       0.97206276     -0.38183359      2.26046644
H       1.76836306      1.16262438      2.39010450
H       0.17761986      1.93643052      4.22951942
H      -0.11079349      0.19755512      4.45983484
H       2.10848474     -0.32027588      4.75666655
H       2.65223035      1.35441664      4.53319645
H       3.35374062      0.46184821      9.00547303
H       1.56463915      0.45164617      8.94469298
H       2.46035717      1.93188081      8.60121511
23
Frame 75  Energy = -425.8931996226 Hartree
C       0.00393109      1.08824587      0.15976076
C      -0.30458988      1.18441641      1.65824859
C       0.81773349      0.63601934      2.52391402
C       0.59804968      0.90020776      4.04694412
C       1.83209618      0.70708347      4.83680127
C       1.65018579      1.08067457      6.35720582
O       0.77724549      1.75313928      6.79845328
O       2.60483141      0.53356043      7.13549467
C       2.47285107      0.88909989      8.51571139
H      -0.83362494      1.51070171     -0.44521249
H       0.93305966      1.66602145     -0.06127780
H       0.23072363      0.06337800     -0.08840292
H      -1.20246030      0.57047495      1.80833884
H      -0.54821187      2.23147560      1.94906930
H       0.97350584     -0.37895919      2.26094411
H       1.76314912      1.17632231      2.39546637
H       0.16791740      1.93132290      4.24307288
H      -0.11796896      0.20166418      4.45998635
H       2.11744190     -0.32174451      4.75374866
H       2.64970305      1.35143054      4.51876670
H       3.34401928      0.45884476      9.01131006
H       1.56649831      0.44720067      8.94742069
H       2.46153976      1.93743811      8.59168333
23
Frame 80  Energy = -425.8934616785 Hartree
C       0.00468645      1.08841768      0.16147836
C      -0.30638582      1.18273489      1.65902896
C       0.81615919      0.63437627      2.52384532
C       0.59981437      0.89806680      4.04644672
C       1.83223506      0.70700779      4.83650149
C       1.65072736      1.08126767      6.35869365
O       0.77581252      1.75455471      6.79956538
O       2.60425349      0.53511995      7.13427446
C       2.47349762      0.88935506      8.51764944
H      -0.82907906      1.50799916     -0.44019763
H       0.93232228      1.66183597     -0.06329749
H       0.23568956      0.05617261     -0.08894863
H      -1.20462960      0.56329489      1.80478512
H      -0.53824207      2.22540648      1.95548106
H       0.97545727     -0.37864773      2.26163165
H       1.75801084      1.18954450      2.39889231
H       0.15961691      1.92318126      4.25542606
H      -0.12644504      0.20538018      4.45978115
H       2.12825414     -0.32478760      4.75130524
H       2.64728166      1.34823405      4.50346712
H       3.33426748      0.45604481      9.01673356
H       1.56891735      0.44341215      8.94978395
H       2.46279970      1.94602802      8.58312291
23
Frame 85  Energy = -425.8932029539 Hartree
C       0.00555239      1.08874591      0.16315970
C      -0.30818823      1.18106579      1.65979482
C       0.81454673      0.63310897      2.52407337
C       0.60108401      0.89599934      4.04580140
C       1.83246706      0.70706207      4.83659241
C       1.65134865      1.08155537      6.35982286
O       0.77420286      1.75604482      6.80076276
O       2.60362863      0.53666539      7.13306666
C       2.47430292      0.88933895      8.51965734
H      -0.82274479      1.50433890     -0.43471200
H       0.93028551      1.65656071     -0.06526027
H       0.23992965      0.04875615     -0.09023371
H      -1.20653205      0.55702525      1.80221305
H      -0.52828836      2.21767535      1.96162945
H       0.97814984     -0.38057019      2.26263138
H       1.75291566      1.20225101      2.40002351
H       0.15259390      1.91270931      4.26636458
H      -0.13548735      0.20866968      4.45906452
H       2.14033053     -0.32930265      4.74947151
H       2.64523555      1.34496135      4.48756147
H       3.32505455      0.45354179      9.02207076
H       1.57192695      0.44048387      8.95165256
H       2.46430467      1.95666009      8.57549047
23
Frame 90  Energy = -425.8930199788 Hartree
C       0.00653987      1.08913083      0.16480162
C      -0.31006737      1.17936159      1.66056608
C       0.81298965      0.63229575      2.52460753
C       0.60181074      0.89396879      4.04511527
C       1.83290175      0.70728346      4.83696602
C       1.65199355      1.08155857      6.36069299
O       0.77247965      1.75771988      6.80200784
O       2.60291885      0.53827529      7.13178400
C       2.47511084      0.88913857      8.52172760
H      -0.81524811      1.49964574     -0.42897664
H       0.92684816      1.65086022     -0.06743237
H       0.24368914      0.04178184     -0.09197349
H      -1.20801204      0.55158034      1.80090931
H      -0.51860685      2.20899538      1.96746029
H       0.98167256     -0.38517039      2.26379390
H       1.74712872      1.21414702      2.39893689
H       0.14678990      1.90023421      4.27570354
H      -0.14509734      0.21164720      4.45786493
H       2.15344054     -0.33423924      4.74843976
H       2.64327728      1.34186392      4.47116462
H       3.31665686      0.45103920      9.02765894
H       1.57552961      0.43866895      8.95292868
H       2.46565049      1.96862714      8.56898811
23
Frame 95  Energy = -425.8931009301 Hartree
C       0.00770827      1.08962110      0.16647002
C      -0.31205906      1.17761298      1.66131046
C       0.81155629      0.63198814      2.52547269
C       0.60205394      0.89197808      4.04439707
C       1.83346879      0.70750794      4.83771433
C       1.65276909      1.08143293      6.36116160
O       0.77064003      1.75947185      6.80328824
O       2.60216482      0.53991494      7.13040706
C       2.47586937      0.88881053      8.52372223
H      -0.80732136      1.49406125     -0.42326138
H       0.92274073      1.64539692     -0.06948680
H       0.24624089      0.03546659     -0.09381347
H      -1.20877818      0.54791167      1.80071567
H      -0.50931017      2.20002371      1.97271744
H       0.98600245     -0.39200201      2.26569866
H       1.74064905      1.22505539      2.39584638
H       0.14209319      1.88593266      4.28347342
H      -0.15483658      0.21385065      4.45630624
H       2.16743783     -0.33869980      4.74818339
H       2.64161684      1.33864187      4.45477439
H       3.30933358      0.44877965      9.03331867
H       1.57935460      0.43779133      8.95395084
H       2.46697236      1.98118505      8.56376973
23
Frame 100  Energy = -425.8928568765 Hartree
C       0.00898697      1.09003394      0.16820467
C      -0.31419439      1.17581165      1.66190346
C       0.81027137      0.63218237      2.52660645
C       0.60194814      0.88997908      4.04364172
C       1.83419205      0.70771085      4.83887129
C       1.65357966      1.08119835      6.36124803
O       0.76875605      1.76121722      6.80449695
O       2.60145957      0.54157181      7.12905610
C       2.47669302      0.88847610      8.52549640
H      -0.79914463      1.48819261     -0.41813990
H       0.91856497      1.64037473     -0.07127944
H       0.24743601      0.03039903     -0.09583433
H      -1.20881072      0.54561119      1.80138579
H      -0.50050864      2.19115002      1.97755036
H       0.99121874     -0.40056646      2.26844821
H       1.73332007      1.23505168      2.39064559
H       0.13879459      1.87041057      4.28929685
H      -0.16463781      0.21556299      4.45435149
H       2.18169298     -0.34172343      4.74874308
H       2.64003572      1.33520236      4.43854797
H       3.30340136      0.44669859      9.03897930
H       1.58281837      0.43754999      8.95483017
H       2.46810959      1.99308237      8.55969872
23
Frame 105  Energy = -425.8929780651 Hartree
C       0.01038267      1.09034681      0.17010823
C      -0.31627349      1.17393864      1.66245031
C       0.80909832      0.63271708      2.52803915
C       0.60146686      0.88790712      4.04290855
C       1.83517389      0.70783930      4.84030305
C       1.65444375      1.08076151      6.36111842
O       0.76680721      1.76301633      6.80571318
O       2.60077256      0.54322362      7.12778057
C       2.47745765      0.88809305      8.52714806
H      -0.79142260      1.48177158     -0.41444926
H       0.91421389      1.63569206     -0.07317163
H       0.24731158      0.02705776     -0.09774250
H      -1.20817907      0.54459147      1.80288728
H      -0.49255264      2.18298098      1.98218635
H       0.99724430     -0.41019408      2.27213962
H       1.72538803      1.24336903      2.38351016
H       0.13677131      1.85413748      4.29345280
H      -0.17396366      0.21711485      4.45196291
H       2.19604108     -0.34320919      4.74973324
H       2.63821009      1.33136951      4.42297493
H       3.29921535      0.44472061      9.04444806
H       1.58606208      0.43815390      8.95538696
H       2.46949665      2.00310382      8.55669483
23
Frame 110  Energy = -425.8930758359 Hartree
C       0.01193185      1.09047434      0.17213191
C      -0.31828319      1.17182788      1.66288453
C       0.80808030      0.63359455      2.52970075
C       0.60053890      0.88580253      4.04221463
C       1.83635439      0.70787994      4.84202727
C       1.65518215      1.08025099      6.36069748
O       0.76485506      1.76476553      6.80680252
O       2.60007505      0.54487101      7.12647226
C       2.47819576      0.88789180      8.52857733
H      -0.78478858      1.47544809     -0.41223172
H       0.91021518      1.63157572     -0.07500705
H       0.24582050      0.02572121     -0.09967457
H      -1.20737665      0.54490835      1.80510555
H      -0.48569165      2.17619160      1.98650104
H       1.00397101     -0.41965666      2.27649774
H       1.71660486      1.25017666      2.37446557
H       0.13593350      1.83811267      4.29605416
H      -0.18265138      0.21878183      4.44904147
H       2.21032000     -0.34304980      4.75107149
H       2.63620409      1.32732589      4.40855620
H       3.29684861      0.44299006      9.04992034
H       1.58883231      0.43979762      8.95583396
H       2.47095325      2.01073360      8.55516532
23
Frame 115  Energy = -425.8929174470 Hartree
C       0.01362148      1.09034473      0.17430895
C      -0.32025377      1.16951856      1.66312069
C       0.80728241      0.63474594      2.53152610
C       0.59908968      0.88355927      4.04151593
C       1.83777354      0.70786168      4.84398568
C       1.65578728      1.07975363      6.36008016
O       0.76295946      1.76652590      6.80776317
O       2.59936701      0.54644055      7.12512660
C       2.47901107      0.88791936      8.52986382
H      -0.77951010      1.46950609     -0.41159107
H       0.90695077      1.62823298     -0.07660035
H       0.24306223      0.02659027     -0.10133723
H      -1.20685502      0.54634803      1.80806178
H      -0.48031052      2.17107195      1.99091261
H       1.01103504     -0.42841520      2.28178967
H       1.70742717      1.25556915      2.36356087
H       0.13608895      1.82280776      4.29714355
H      -0.19060914      0.22043403      4.44563614
H       2.22383101     -0.34115485      4.75286296
H       2.63400901      1.32313191      4.39482724
H       3.29655387      0.44165964      9.05560303
H       1.59079564      0.44210587      8.95599376
H       2.47228156      2.01547901      8.55488351
23
Frame 120  Energy = -425.8930951585 Hartree
C       0.01542512      1.08984296      0.17663524
C      -0.32215820      1.16694950      1.66331296
C       0.80660417      0.63599345      2.53359631
C       0.59722055      0.88118132      4.04073471
C       1.83942863      0.70775217      4.84613152
C       1.65629297      1.07927000      6.35918182
O       0.76110426      1.76823836      6.80865252
O       2.59871125      0.54782173      7.12386592
C       2.47989153      0.88821883      8.53094777
H      -0.77631086      1.46424420     -0.41283339
H       0.90477379      1.62601358     -0.07817366
H       0.23920901      0.02967830     -0.10262990
H      -1.20674961      0.54846863      1.81164455
H      -0.47641844      2.16807546      1.99567750
H       1.01842486     -0.43564317      2.28811908
H       1.69828474      1.25942313      2.35098486
H       0.13663245      1.80957716      4.29711803
H      -0.19731313      0.22147958      4.44166322
H       2.23663362     -0.33743721      4.75535028
H       2.63135700      1.31888179      4.38230926
H       3.29794252      0.44040905      9.06157616
H       1.59201909      0.44517458      8.95580107
H       2.47369872      2.01700162      8.55624275
23
Frame 125  Energy = -425.8929699326 Hartree
C       0.01739997      1.08890285      0.17907595
C      -0.32389927      1.16410681      1.66346306
C       0.80604967      0.63729339      2.53582479
C       0.59490538      0.87861040      4.03997995
C       1.84130242      0.70754950      4.84845690
C       1.65665587      1.07888844      6.35804420
O       0.75931117      1.76990971      6.80942488
O       2.59811659      0.54907582      7.12276164
C       2.48074460      0.88879531      8.53185088
H      -0.77530126      1.45969277     -0.41548864
H       0.90421119      1.62538381     -0.07970472
H       0.23421016      0.03453795     -0.10394242
H      -1.20688659      0.55142800      1.81584409
H      -0.47440393      2.16743817      2.00024861
H       1.02612980     -0.44077351      2.29496164
H       1.68916214      1.26205502      2.33674566
H       0.13707018      1.79934850      4.29604354
H      -0.20344151      0.22217872      4.43709382
H       2.24856424     -0.33147802      4.75845684
H       2.62825182      1.31469743      4.37067177
H       3.30120996      0.43930182      9.06755669
H       1.59204385      0.44885705      8.95552743
H       2.47520151      2.01523566      8.55910695
23
Frame 130  Energy = -425.8929862898 Hartree
C       0.01949468      1.08766924      0.18156688
C      -0.32547204      1.16102899      1.66352793
C       0.80550810      0.63855806      2.53819287
C       0.59228207      0.87572908      4.03923806
C       1.84338895      0.70724250      4.85096417
C       1.65687614      1.07869755      6.35666742
O       0.75763948      1.77149893      6.81008377
O       2.59762009      0.55023676      7.12183763
C       2.48169515      0.88960899      8.53258968
H      -0.77619168      1.45587364     -0.41939121
H       0.90564146      1.62631587     -0.08162324
H       0.22802296      0.04092488     -0.10513407
H      -1.20785764      0.55508837      1.82077602
H      -0.47393831      2.16867418      2.00490450
H       1.03368083     -0.44347837      2.30232868
H       1.68042165      1.26310602      2.32130042
H       0.13723711      1.79229001      4.29385956
H      -0.20873000      0.22228274      4.43201452
H       2.25963166     -0.32363596      4.76219851
H       2.62492792      1.31048158      4.36047913
H       3.30590563      0.43886768      9.07310520
H       1.59063530      0.45338081      8.95500893
H       2.47692593      2.01016013      8.56307850
23
Frame 135  Energy = -425.8930281120 Hartree
C       0.02159939      1.08632492      0.18411760
C      -0.32695174      1.15776918      1.66356863
C       0.80515942      0.63982855      2.54073228
C       0.58946197      0.87251583      4.03845385
C       1.84563783      0.70685953      4.85364634
C       1.65691809      1.07867691      6.35506821
O       0.75609116      1.77298221      6.81057251
O       2.59721964      0.55123742      7.12106569
C       2.48263009      0.89060790      8.53318777
H      -0.77887095      1.45288289     -0.42473076
H       0.90842010      1.62881859     -0.08387607
H       0.22078991      0.04826120     -0.10596847
H      -1.20956146      0.55908193      1.82645276
H      -0.47493750      2.17111916      2.00906069
H       1.04097884     -0.44351490      2.31046636
H       1.67259794      1.26310147      2.30474566
H       0.13728658      1.78899573      4.29075717
H      -0.21296419      0.22151556      4.42640744
H       2.26995231     -0.31418750      4.76688110
H       2.62150309      1.30632790      4.35202142
H       3.31121508      0.43908412      9.07762255
H       1.58836602      0.45844444      8.95433784
H       2.47872423      2.00233160      8.56838048
23
Frame 140  Energy = -425.8930187660 Hartree
C       0.02369130      1.08501005      0.18676859
C      -0.32834106      1.15437745      1.66358785
C       0.80488370      0.64108364      2.54343823
C       0.58652089      0.86907406      4.03776835
C       1.84793976      0.70638472      4.85637880
C       1.65666968      1.07895027      6.35330473
O       0.75475912      1.77435008      6.81096134
O       2.59687734      0.55220229      7.12042814
C       2.48368851      0.89175869      8.53363436
H      -0.78244943      1.45028307     -0.43151150
H       0.91192440      1.63242409     -0.08621692
H       0.21302505      0.05540281     -0.10641168
H      -1.21224855      0.56297285      1.83267367
H      -0.47726049      2.17408666      2.01240598
H       1.04818591     -0.44078790      2.31947190
H       1.66572039      1.26208934      2.28710995
H       0.13681958      1.78953147      4.28704287
H      -0.21602596      0.22005683      4.42032897
H       2.27935399     -0.30386056      4.77259447
H       2.61779225      1.30283959      4.34548319
H       3.31679975      0.43994133      9.08077979
H       1.58555352      0.46393200      8.95375508
H       2.48084170      1.99234228      8.57508143
23
Frame 145  Energy = -425.8925747791 Hartree
C       0.02580854      1.08363035      0.18937126
C      -0.32961621      1.15090537      1.66367020
C       0.80469303      0.64227570      2.54619610
C       0.58330699      0.86537365      4.03723693
C       1.85028603      0.70583429      4.85917873
C       1.65618777      1.07943527      6.35144742
O       0.75362356      1.77564935      6.81122143
O       2.59665865      0.55310615      7.11986860
C       2.48481134      0.89305609      8.53393339
H      -0.78645513      1.44786026     -0.43893561
H       0.91603663      1.63665202     -0.08830200
H       0.20518533      0.06200903     -0.10670444
H      -1.21602442      0.56657580      1.83938874
H      -0.48079089      2.17738764      2.01493482
H       1.05484813     -0.43543073      2.32944993
H       1.65965730      1.26003767      2.26860271
H       0.13580184      1.79407823      4.28235875
H      -0.21824863      0.21763714      4.41359746
H       2.28818479     -0.29328629      4.77906103
H       2.61393255      1.29999719      4.34054356
H       3.32273785      0.44165114      9.08244600
H       1.58239970      0.46967301      8.95305193
H       2.48299403      1.98104410      8.58294154
23
Frame 150  Energy = -425.8925860646 Hartree
C       0.02785169      1.08221110      0.19196040
C      -0.33081458      1.14745074      1.66381365
C       0.80457798      0.64338123      2.54900443
C       0.57994728      0.86138478      4.03674376
C       1.85263228      0.70519174      4.86203529
C       1.65540833      1.08008282      6.34942187
O       0.75263528      1.77691702      6.81129158
O       2.59652060      0.55391586      7.11937589
C       2.48605774      0.89435109      8.53411895
H      -0.79076733      1.44563838     -0.44610941
H       0.92044891      1.64113630     -0.08967997
H       0.19714919      0.06775827     -0.10684759
H      -1.22079491      0.56986908      1.84613191
H      -0.48516114      2.18040934      2.01662502
H       1.06091730     -0.42749135      2.34006537
H       1.65420844      1.25728762      2.24969556
H       0.13498900      1.80170538      4.27693110
H      -0.21939258      0.21443145      4.40639805
H       2.29599661     -0.28293829      4.78594043
H       2.60994699      1.29766487      4.33741751
H       3.32883649      0.44432554      9.08269469
H       1.57838362      0.47574944      8.95219073
H       2.48511330      1.96925299      8.59214460
23
Frame 155  Energy = -425.8928945255 Hartree
C       0.02973258      1.08098644      0.19446323
C      -0.33191422      1.14408842      1.66397214
C       0.80452219      0.64444636      2.55166050
C       0.57659983      0.85714634      4.03631373
C       1.85488715      0.70447239      4.86494453
C       1.65441713      1.08092626      6.34729496
O       0.75181575      1.77802872      6.81123961
O       2.59655284      0.55462839      7.11900356
C       2.48736807      0.89557997      8.53425473
H      -0.79400727      1.44349752     -0.45271665
H       0.92495113      1.64581796     -0.09065834
H       0.18923596      0.07149210     -0.10721912
H      -1.22637208      0.57305999      1.85276172
H      -0.49028581      2.18292354      2.01689021
H       1.06646249     -0.41798542      2.35123107
H       1.64975491      1.25412486      2.23106744
H       0.13443792      1.81168417      4.27105596
H      -0.21967506      0.21010055      4.39888747
H       2.30289516     -0.27312396      4.79317818
H       2.60618895      1.29652963      4.33609982
H       3.33435708      0.44757583      9.08158466
H       1.57388818      0.48213321      8.95130132
H       2.48697765      1.95835982      8.60257444
23
Frame 160  Energy = -425.8926029494 Hartree
C       0.03133755      1.07990369      0.19679765
C      -0.33293584      1.14088650      1.66419396
C       0.80458955      0.64547506      2.55428667
C       0.57328211      0.85279684      4.03604492
C       1.85703310      0.70369576      4.86796618
C       1.65319737      1.08200697      6.34516526
O       0.75116677      1.77899302      6.81106598
O       2.59664999      0.55526574      7.11875879
C       2.48880493      0.89658470      8.53436519
H      -0.79611147      1.44125406     -0.45855271
H       0.92928438      1.65071385     -0.09090291
H       0.18181265      0.07289485     -0.10780096
H      -1.23304856      0.57598360      1.85949175
H      -0.49601274      2.18439570      2.01553508
H       1.07139997     -0.40724638      2.36238572
H       1.64609108      1.25079925      2.21280711
H       0.13447994      1.82311434      4.26429530
H      -0.21967440      0.20465573      4.39118501
H       2.30910853     -0.26484720      4.80122963
H       2.60263577      1.29661076      4.33639706
H       3.33943093      0.45146575      9.07883626
H       1.56934193      0.48877300      8.95016020
H       2.48888667      1.94890904      8.61401166
23
Frame 165  Energy = -425.8922176914 Hartree
C       0.03274558      1.07892048      0.19893113
C      -0.33389314      1.13783771      1.66456895
C       0.80470571      0.64650541      2.55687203
C       0.57003032      0.84838845      4.03586961
C       1.85909718      0.70296835      4.87099774
C       1.65167880      1.08330427      6.34307854
O       0.75071480      1.77977041      6.81069052
O       2.59678038      0.55586719      7.11855422
C       2.49041757      0.89737851      8.53446996
H      -0.79706571      1.43905410     -0.46301210
H       0.93271791      1.65535716     -0.09016856
H       0.17505136      0.07204360     -0.10865002
H      -1.24081580      0.57881629      1.86629466
H      -0.50213297      2.18437634      2.01295220
H       1.07606354     -0.39576807      2.37320956
H       1.64301426      1.24728523      2.19449046
H       0.13542788      1.83503421      4.25659769
H      -0.21968863      0.19770687      4.38321306
H       2.31451703     -0.25851382      4.81007123
H       2.59970992      1.29791726      4.33847101
H       3.34402917      0.45602218      9.07440685
H       1.56461736      0.49559438      8.94840571
H       2.49094686      1.94210175      8.62611686
23
Frame 170  Energy = -425.8922738474 Hartree
C       0.03399132      1.07809548      0.20087660
C      -0.33488024      1.13487885      1.66500844
C       0.80478010      0.64753609      2.55931809
C       0.56680002      0.84411710      4.03587222
C       1.86107873      0.70236478      4.87400790
C       1.64995234      1.08479388      6.34104133
O       0.75050941      1.78039346      6.81017840
O       2.59689752      0.55639555      7.11842260
C       2.49206472      0.89784151      8.53459309
H      -0.79644278      1.43682385     -0.46596802
H       0.93475336      1.65964754     -0.08843059
H       0.16928661      0.06873621     -0.11009004
H      -1.24947767      0.58148858      1.87301745
H      -0.50859814      2.18280335      2.00928173
H       1.08032810     -0.38429004      2.38330515
H       1.64074285      1.24306527      2.17734871
H       0.13685734      1.84672734      4.24801758
H      -0.21962319      0.18938394      4.37557122
H       2.31956244     -0.25465982      4.81946010
H       2.59720636      1.30097274      4.34203305
H       3.34797244      0.46118912      9.06842504
H       1.56012662      0.50244709      8.94596428
H       2.49272372      1.93859602      8.63908507
23
Frame 175  Energy = -425.8921866657 Hartree
C       0.03508744      1.07751733      0.20257787
C      -0.33578537      1.13203511      1.66552310
C       0.80487071      0.64861627      2.56159699
C       0.56357622      0.84006283      4.03606192
C       1.86288863      0.70190067      4.87698901
C       1.64813131      1.08643375      6.33911604
O       0.75048758      1.78089872      6.80946029
O       2.59707037      0.55695823      7.11837967
C       2.49353355      0.89806714      8.53469165
H      -0.79433581      1.43451131     -0.46695043
H       0.93595634      1.66308551     -0.08572105
H       0.16428241      0.06319157     -0.11186215
H      -1.25861134      0.58398082      1.87966013
H      -0.51613864      2.17962629      2.00451208
H       1.08416685     -0.37381340      2.39293587
H       1.63961465      1.23835995      2.16144326
H       0.13948898      1.85758370      4.23880404
H      -0.21993746      0.17986391      4.36811446
H       2.32432866     -0.25367643      4.82930198
H       2.59522683      1.30572481      4.34692191
H       3.35088736      0.46660296      9.06103263
H       1.55622025      0.50917021      8.94354869
H       2.49452458      1.93856862      8.65229581
23
Frame 180  Energy = -425.8922951287 Hartree
C       0.03599374      1.07720388      0.20402969
C      -0.33660099      1.12936687      1.66619525
C       0.80502626      0.64993811      2.56372391
C       0.56047055      0.83632102      4.03644228
C       1.86444953      0.70159296      4.87988953
C       1.64615591      1.08818524      6.33732988
O       0.75062056      1.78130638      6.80861052
O       2.59734538      0.55749596      7.11847483
C       2.49495643      0.89798758      8.53474569
H      -0.79046998      1.43215662     -0.46632408
H       0.93599433      1.66547387     -0.08202755
H       0.16004127      0.05574723     -0.11380344
H      -1.26779921      0.58668188      1.88602633
H      -0.52428668      2.17509482      1.99859261
H       1.08766619     -0.36491678      2.40148823
H       1.63920605      1.23335572      2.14720594
H       0.14320801      1.86667518      4.22876590
H      -0.22045770      0.16926613      4.36120291
H       2.32926578     -0.25531339      4.83942881
H       2.59388836      1.31226083      4.35288535
H       3.35347115      0.47150487      9.05277145
H       1.55273803      0.51573781      8.94083714
H       2.49618000      1.94164142      8.66585806
23
Frame 185  Energy = -425.8925120669 Hartree
C       0.03665026      1.07704782      0.20511290
C      -0.33744997      1.12675749      1.66711798
C       0.80519253      0.65148866      2.56562583
C       0.55747071      0.83286118      4.03696477
C       1.86570708      0.70147238      4.88277567
C       1.64405937      1.09015426      6.33564771
O       0.75084313      1.78152342      6.80765687
O       2.59758682      0.55806094      7.11870685
C       2.49618356      0.89766757      8.53459745
H      -0.78546196      1.42968510     -0.46393839
H       0.93483834      1.66654921     -0.07739777
H       0.15673916      0.04763508     -0.11539760
H      -1.27657023      0.58954702      1.89206036
H      -0.53271806      2.16938773      1.99149630
H       1.09098067     -0.35808200      2.40874480
H       1.63966958      1.22837238      2.13502030
H       0.14795450      1.87329574      4.21830086
H      -0.22142801      0.15783343      4.35476260
H       2.33436089     -0.25949511      4.84995988
H       2.59283920      1.32000225      4.36012737
H       3.35558719      0.47622815      9.04386859
H       1.54982315      0.52234205      8.93802123
H       2.49790082      1.94793835      8.67970174
23
Frame 190  Energy = -425.8926508967 Hartree
C       0.03700694      1.07693781      0.20594378
C      -0.33844071      1.12429365      1.66824682
C       0.80539556      0.65322244      2.56735623
C       0.55446020      0.82972815      4.03763442
C       1.86657170      0.70148891      4.88562169
C       1.64189920      1.09226500      6.33402667
O       0.75123006      1.78160835      6.80655133
O       2.59787433      0.55867036      7.11908274
C       2.49729345      0.89719370      8.53431928
H      -0.77943330      1.42701058     -0.46012419
H       0.93265118      1.66650007     -0.07187377
H       0.15485966      0.03917850     -0.11662778
H      -1.28435958      0.59255447      1.89729303
H      -0.54141326      2.16257937      1.98366963
H       1.09425171     -0.35423556      2.41488494
H       1.64048903      1.22356880      2.12513032
H       0.15368243      1.87687532      4.20778711
H      -0.22294528      0.14603114      4.34906767
H       2.33938977     -0.26604834      4.86056252
H       2.59214187      1.32892275      4.36819109
H       3.35753005      0.48041524      9.03482870
H       1.54786936      0.52829514      8.93493927
H       2.49950186      1.95641575      8.69340349
23
Frame 195  Energy = -425.8927434645 Hartree
C       0.03713603      1.07682404      0.20646598
C      -0.33958453      1.12189945      1.66944693
C       0.80565167      0.65511203      2.56887599
C       0.55149833      0.82695158      4.03841786
C       1.86715926      0.70155403      4.88834296
C       1.63971009      1.09449038      6.33254244
O       0.75180249      1.78154185      6.80529506
O       2.59822932      0.55931116      7.11957561
C       2.49835562      0.89667510      8.53392250
H      -0.77303858      1.42483143     -0.45463896
H       0.92942890      1.66557074     -0.06525496
H       0.15387709      0.03079720     -0.11750204
H      -1.29083383      0.59553304      1.90172099
H      -0.55021490      2.15507565      1.97534319
H       1.09764466     -0.35338250      2.41995283
H       1.64209354      1.21866975      2.11774204
H       0.16052396      1.87717541      4.19727564
H      -0.22472394      0.13403433      4.34416976
H       2.34388336     -0.27409533      4.87109966
H       2.59164417      1.33906429      4.37731095
H       3.35949200      0.48374275      9.02577344
H       1.54678085      0.53366157      8.93188382
H       2.50075274      1.96600446      8.70630044
23
Frame 200  Energy = -425.8930243362 Hartree
C       0.03716530      1.07665576      0.20674214
C      -0.34083598      1.11964345      1.67081163
C       0.80592370      0.65710137      2.57020644
C       0.54864306      0.82461954      4.03947355
C       1.86745308      0.70166390      4.89089765
C       1.63747873      1.09682326      6.33120273
O       0.75252050      1.78136506      6.80392489
O       2.59867536      0.55996832      7.12022738
C       2.49939747      0.89606973      8.53338687
H      -0.76641143      1.42297969     -0.44821724
H       0.92553142      1.66354117     -0.05764859
H       0.15397048      0.02340967     -0.11785899
H      -1.29576143      0.59859434      1.90544065
H      -0.55914669      2.14716208      1.96654602
H       1.10060009     -0.35541431      2.42366832
H       1.64435614      1.21381280      2.11309813
H       0.16770221      1.87459742      4.18698753
H      -0.22638258      0.12200090      4.33989452
H       2.34750904     -0.28280021      4.88135054
H       2.59138651      1.35012891      4.38748020
H       3.36187176      0.48610154      9.01692950
H       1.54651433      0.53840629      8.92863035
H       2.50183301      1.97636724      8.71851282
23
Frame 205  Energy = -425.8930161634 Hartree
C       0.03711713      1.07635656      0.20681120
C      -0.34220025      1.11740608      1.67239059
C       0.80631530      0.65914736      2.57131018
C       0.54596518      0.82270312      4.04073523
C       1.86753407      0.70181185      4.89319950
C       1.63509403      1.09924556      6.33001148
O       0.75323753      1.78110909      6.80241028
O       2.59912456      0.56072319      7.12098416
C       2.50032976      0.89558757      8.53283970
H      -0.75997052      1.42161710     -0.44124946
H       0.92169846      1.66081536     -0.04918950
H       0.15551900      0.01769773     -0.11764825
H      -1.29928517      0.60187551      1.90798706
H      -0.56772572      2.13954276      1.95770964
H       1.10309311     -0.35970570      2.42592461
H       1.64679584      1.20918425      2.11095170
H       0.17548701      1.86916102      4.17698496
H      -0.22770055      0.11053386      4.33595556
H       2.35035025     -0.29135037      4.89108795
H       2.59157591      1.36153525      4.39882144
H       3.36490127      0.48781413      9.00856355
H       1.54699362      0.54235121      8.92516830
H       2.50311174      1.98610065      8.72958753
23
Frame 210  Energy = -425.8928868737 Hartree
C       0.03699653      1.07577342      0.20681296
C      -0.34364266      1.11524183      1.67403499
C       0.80672081      0.66116110      2.57228168
C       0.54345021      0.82107154      4.04210780
C       1.86746759      0.70201604      4.89526053
C       1.63266398      1.10172619      6.32896716
O       0.75393060      1.78078231      6.80072025
O       2.59960814      0.56164101      7.12175783
C       2.50112829      0.89539571      8.53215123
H      -0.75409974      1.42131221     -0.43415759
H       0.91808768      1.65802641     -0.04003527
H       0.15787633      0.01358111     -0.11696041
H      -1.30157594      0.60510648      1.90966976
H      -0.57639459      2.13276076      1.94870099
H       1.10529557     -0.36595272      2.42704365
H       1.64963037      1.20500814      2.11144928
H       0.18369312      1.86137403      4.16743676
H      -0.22859592      0.09986427      4.33254563
H       2.35206725     -0.29893352      4.90065018
H       2.59151756      1.37312959      4.41109502
H       3.36846298      0.48854831      9.00040059
H       1.54789736      0.54546215      8.92187323
H       2.50454569      1.99465371      8.73947789
23
Frame 215  Energy = -425.8928245734 Hartree
C       0.03671288      1.07483553      0.20677671
C      -0.34517977      1.11307794      1.67574196
C       0.80708828      0.66314032      2.57305404
C       0.54110084      0.81957700      4.04366262
C       1.86715253      0.70219726      4.89702303
C       1.63027907      1.10424422      6.32803265
O       0.75463194      1.78045462      6.79889046
O       2.60013807      0.56263475      7.12261520
C       2.50182523      0.89543483      8.53131426
H      -0.74959106      1.42211395     -0.42768135
H       0.91479509      1.65481559     -0.03018933
H       0.16107106      0.01152757     -0.11572555
H      -1.30214111      0.60809811      1.91051367
H      -0.58476024      2.12714932      1.93992762
H       1.10672815     -0.37338903      2.42734897
H       1.65251011      1.20118609      2.11474401
H       0.19148666      1.85188501      4.15856270
H      -0.22896481      0.09003476      4.32968264
H       2.35229434     -0.30499344      4.90966205
H       2.59122422      1.38472521      4.42444169
H       3.37261555      0.48780452      8.99314556
H       1.54937659      0.54750859      8.91909107
H       2.50634625      2.00118733      8.74817789
23
Frame 220  Energy = -425.8928017740 Hartree
C       0.03624044      1.07360188      0.20670201
C      -0.34689546      1.11083766      1.67757627
C       0.80752130      0.66497334      2.57363047
C       0.53897327      0.81825089      4.04541733
C       1.86662436      0.70234066      4.89859457
C       1.62809176      1.10677737      6.32737641
O       0.75542616      1.78009974      6.79701584
O       2.60074050      0.56367629      7.12352382
C       2.50230959      0.89572142      8.53027465
H      -0.74658188      1.42412348     -0.42198122
H       0.91237142      1.65148120     -0.01985151
H       0.16516842      0.01152845     -0.11371593
H      -1.30124043      0.61083055      1.91013313
H      -0.59241473      2.12335136      1.93134667
H       1.10745392     -0.38155321      2.42654748
H       1.65535698      1.19806208      2.12046128
H       0.19872780      1.84167481      4.15100204
H      -0.22899794      0.08140525      4.32728540
H       2.35094651     -0.30930396      4.91811252
H       2.59051368      1.39577882      4.43879240
H       3.37745252      0.48558350      8.98640402
H       1.55139458      0.54873655      8.91713723
H       2.50844355      2.00522741      8.75505255
23
Frame 225  Energy = -425.8926776116 Hartree
C       0.03563016      1.07208930      0.20661884
C      -0.34872649      1.10860002      1.67961293
C       0.80803346      0.66665143      2.57397645
C       0.53720200      0.81705347      4.04725235
C       1.86595897      0.70240515      4.89995884
C       1.62607971      1.10919645      6.32692953
O       0.75613296      1.77972349      6.79508737
O       2.60147780      0.56477070      7.12448577
C       2.50260245      0.89626285      8.52922402
H      -0.74528840      1.42709672     -0.41705174
H       0.91124633      1.64807722     -0.00922772
H       0.17002697      0.01319477     -0.11112255
H      -1.29901070      0.61264327      1.90882580
H      -0.59953469      2.12149078      1.92313830
H       1.10720959     -0.38990990      2.42471262
H       1.65853272      1.19541470      2.12863756
H       0.20511283      1.83139179      4.14475493
H      -0.22820444      0.07416732      4.32550606
H       2.34815306     -0.31145536      4.92594385
H       2.58942756      1.40624414      4.45416296
H       3.38270147      0.48203567      8.98031430
H       1.55352209      0.54912749      8.91582471
H       2.51059899      2.00693092      8.75990358
23
Frame 230  Energy = -425.8930578066 Hartree
C       0.03489279      1.07028466      0.20661202
C      -0.35064715      1.10636308      1.68163055
C       0.80859235      0.66804343      2.57409506
C       0.53572101      0.81580177      4.04897469
C       1.86505338      0.70235729      4.90119943
C       1.62435383      1.11146885      6.32664536
O       0.75676473      1.77945947      6.79321249
O       2.60221818      0.56589531      7.12554516
C       2.50282909      0.89712177      8.52824000
H      -0.74598698      1.43105680     -0.41279139
H       0.91163553      1.64487897      0.00129969
H       0.17552831      0.01676071     -0.10789147
H      -1.29605326      0.61328840      1.90666684
H      -0.60679338      2.12178870      1.91547624
H       1.10578472     -0.39757535      2.42235355
H       1.66207450      1.19361365      2.13864599
H       0.20969546      1.82170961      4.14015847
H      -0.22633484      0.06815917      4.32404727
H       2.34394438     -0.31151874      4.93298675
H       2.58785113      1.41590057      4.47026918
H       3.38824888      0.47734036      8.97504341
H       1.55581888      0.54865502      8.91511817
H       2.51290447      2.00587543      8.76304759
23
Frame 235  Energy = -425.8931105725 Hartree
C       0.03401972      1.06815528      0.20669697
C      -0.35252326      1.10415712      1.68363778
C       0.80922299      0.66915518      2.57408720
C       0.53455637      0.81444589      4.05067851
C       1.86388302      0.70224157      4.90232025
C       1.62298261      1.11358314      6.32646628
O       0.75722566      1.77927079      6.79126357
O       2.60290042      0.56710310      7.12668872
C       2.50300580      0.89824868      8.52726395
H      -0.74833120      1.43632369     -0.40983263
H       0.91355589      1.64234211      0.01152650
H       0.18149609      0.02165048     -0.10453680
H      -1.29313688      0.61274920      1.90424757
H      -0.61358947      2.12432083      1.90849514
H       1.10335191     -0.40394492      2.41943523
H       1.66614675      1.19288953      2.15051986
H       0.21220105      1.81362233      4.13759289
H      -0.22402326      0.06375737      4.32352115
H       2.33862273     -0.30955923      4.93903157
H       2.58576592      1.42469596      4.48662399
H       3.39385585      0.47147169      8.97053084
H       1.55838605      0.54735368      8.91448011
H       2.51566854      2.00232038      8.76466819
23
Frame 240  Energy = -425.8930165425 Hartree
C       0.03308572      1.06575362      0.20687904
C      -0.35437988      1.10196405      1.68560127
C       0.80998934      0.66992242      2.57387755
C       0.53377277      0.81301825      4.05234812
C       1.86249298      0.70206793      4.90334988
C       1.62182518      1.11547609      6.32640558
O       0.75759050      1.77914150      6.78924936
O       2.60357514      0.56837287      7.12786107
C       2.50319974      0.89957775      8.52618049
H      -0.75206697      1.44283550     -0.40802679
H       0.91665435      1.64048039      0.02171725
H       0.18804950      0.02759228     -0.10106265
H      -1.29035041      0.61079052      1.90140758
H      -0.62006253      2.12825173      1.90213751
H       1.09974722     -0.40843380      2.41593055
H       1.67079955      1.19338639      2.16383476
H       0.21220945      1.80787270      4.13701282
H      -0.22103118      0.06064929      4.32412486
H       2.33205754     -0.30554163      4.94432646
H       2.58349815      1.43290760      4.50301827
H       3.39906552      0.46465220      8.96643580
H       1.56072274      0.54530178      8.91420867
H       2.51839530      1.99641873      8.76443716
23
Frame 245  Energy = -425.8932041951 Hartree
C       0.03194186      1.06310255      0.20720468
C      -0.35627127      1.09993888      1.68756800
C       0.81069052      0.67036228      2.57345893
C       0.53345885      0.81158361      4.05402924
C       1.86091726      0.70174148      4.90414874
C       1.62094290      1.11702785      6.32645142
O       0.75775743      1.77907416      6.78725341
O       2.60417810      0.56979333      7.12904681
C       2.50348106      0.90097338      8.52505806
H      -0.75731804      1.45038032     -0.40726267
H       0.92125226      1.63926013      0.03186119
H       0.19531636      0.03378009     -0.09797950
H      -1.28780029      0.60707909      1.89809132
H      -0.62600571      2.13319813      1.89625997
H       1.09500294     -0.41095772      2.41201554
H       1.67599816      1.19494375      2.17869018
H       0.20967448      1.80505709      4.13865132
H      -0.21731158      0.05917888      4.32549385
H       2.32466609     -0.29994681      4.94863957
H       2.58104631      1.44022503      4.51928118
H       3.40346711      0.45768368      8.96278444
H       1.56297751      0.54231867      8.91447150
H       2.52127304      1.98843527      8.76238721
23
Frame 250  Energy = -425.8931075656 Hartree
C       0.03065734      1.06037710      0.20760081
C      -0.35810417      1.09808330      1.68952268
C       0.81135013      0.67039260      2.57288539
C       0.53349137      0.81006976      4.05572878
C       1.85903797      0.70146731      4.90487278
C       1.62042597      1.11817210      6.32664416
O       0.75780932      1.77913407      6.78532696
O       2.60477551      0.57122754      7.13024346
C       2.50386379      0.90244534      8.52398726
H      -0.76341697      1.45873413     -0.40708244
H       0.92690033      1.63873987      0.04204672
H       0.20324563      0.03980597     -0.09511312
H      -1.28591834      0.60144816      1.89480066
H      -0.63155812      2.13899660      1.89092148
H       1.08929289     -0.41134929      2.40729964
H       1.68203417      1.19758085      2.19491649
H       0.20482223      1.80507263      4.14229025
H      -0.21282151      0.05910937      4.32775585
H       2.31652054     -0.29305558      4.95153712
H       2.57836134      1.44629835      4.53515150
H       3.40654036      0.45089872      8.95952322
H       1.56484825      0.53828524      8.91561691
H       2.52432232      1.97896967      8.75879062
23
Frame 255  Energy = -425.8932099629 Hartree
C       0.02928802      1.05754239      0.20798593
C      -0.35988657      1.09635617      1.69140580
C       0.81202968      0.67009628      2.57217585
C       0.53394209      0.80837715      4.05743049
C       1.85692386      0.70129800      4.90553078
C       1.62032345      1.11894675      6.32701283
O       0.75771226      1.77942671      6.78353401
O       2.60534066      0.57276321      7.13138193
C       2.50440966      0.90397587      8.52285988
H      -0.76999357      1.46741663     -0.40736334
H       0.93320820      1.63866086      0.05177692
H       0.21170238      0.04550580     -0.09293206
H      -1.28467235      0.59393155      1.89175986
H      -0.63600460      2.14508223      1.88619882
H       1.08252102     -0.40987737      2.40219829
H       1.68874166      1.20091816      2.21225325
H       0.19786220      1.80784589      4.14768669
H      -0.20773721      0.05991801      4.33083115
H       2.30807270     -0.28509556      4.95329565
H       2.57526275      1.45122936      4.55056571
H       3.40804986      0.44425762      8.95650805
H       1.56672223      0.53325896      8.91754568
H       2.52730235      1.96869459      8.75389925
23
Frame 260  Energy = -425.8932306589 Hartree
C       0.02783486      1.05463146      0.20845614
C      -0.36159971      1.09478740      1.69320942
C       0.81263808      0.66941847      2.57135604
C       0.53476012      0.80672092      4.05910001
C       1.85468395      0.70117547      4.90610283
C       1.62051825      1.11932650      6.32750181
O       0.75749396      1.77983479      6.78185368
O       2.60582552      0.57441138      7.13249062
C       2.50509827      0.90534756      8.52174417
H      -0.77659498      1.47579441     -0.40750816
H       0.93932057      1.63896246      0.06127059
H       0.22037295      0.05025835     -0.09165250
H      -1.28432830      0.58422979      1.88936418
H      -0.63940446      2.15099670      1.88211417
H       1.07465918     -0.40675531      2.39702447
H       1.69552105      1.20521645      2.23039392
H       0.18887151      1.81273907      4.15489811
H      -0.20294855      0.06200588      4.33470620
H       2.29972634     -0.27689954      4.95348029
H       2.57209623      1.45498571      4.56536507
H       3.40788492      0.43769170      8.95400702
H       1.56886816      0.52772510      8.92023067
H       2.53050468      1.95888719      8.74806776
23
Frame 265  Energy = -425.8933962957 Hartree
C       0.02623359      1.05178664      0.20905661
C      -0.36313564      1.09348625      1.69487947
C       0.81325427      0.66849083      2.57052911
C       0.53594989      0.80512462      4.06065409
C       1.85217702      0.70124310      4.90666474
C       1.62106478      1.11938657      6.32799327
O       0.75714585      1.78044779      6.78028360
O       2.60632904      0.57616025      7.13354649
C       2.50591863      0.90654369      8.52076128
H      -0.78223192      1.48402651     -0.40755242
H       0.94538709      1.63903174      0.07067984
H       0.22950418      0.05322141     -0.09153028
H      -1.28473733      0.57271844      1.88705748
H      -0.64168237      2.15617554      1.87893543
H       1.06638035     -0.40209256      2.39142200
H       1.70287878      1.21051151      2.24925605
H       0.17810922      1.81851656      4.16371252
H      -0.19890638      0.06471425      4.33947379
H       2.29223074     -0.26950003      4.95265483
H       2.56907366      1.45736903      4.57926541
H       3.40589456      0.43115441      8.95163049
H       1.57118856      0.52155511      8.92363239
H       2.53374050      1.95005408      8.74134143
23
Frame 270  Energy = -425.8933581586 Hartree
C       0.02448495      1.04907261      0.20982096
C      -0.36452163      1.09250527      1.69634519
C       0.81386882      0.66733516      2.56961921
C       0.53734549      0.80366562      4.06210046
C       1.84931395      0.70158368      4.90718885
C       1.62192797      1.11911204      6.32850422
O       0.75660279      1.78128696      6.77878311
O       2.60678610      0.57806494      7.13446415
C       2.50685603      0.90753330      8.51979409
H      -0.78644708      1.49153964     -0.40742642
H       0.95096253      1.63837459      0.07994258
H       0.23873685      0.05422313     -0.09264340
H      -1.28572702      0.55967239      1.88489051
H      -0.64297789      2.15993164      1.87649702
H       1.05753199     -0.39620402      2.38523276
H       1.70998049      1.21646493      2.26849149
H       0.16594652      1.82456257      4.17383616
H      -0.19543447      0.06765114      4.34557063
H       2.28593175     -0.26369742      4.95100852
H       2.56666580      1.45891460      4.59171351
H       3.40225248      0.42503330      8.94953313
H       1.57399519      0.51517517      8.92753803
H       2.53712965      1.94316721      8.73358326
23
Frame 275  Energy = -425.8933616890 Hartree
C       0.02272669      1.04652854      0.21066617
C      -0.36581565      1.09195558      1.69769404
C       0.81446730      0.66593640      2.56870391
C       0.53912870      0.80238736      4.06346613
C       1.84608835      0.70218308      4.90768916
C       1.62314855      1.11843089      6.32913268
O       0.75584376      1.78229326      6.77743653
O       2.60713104      0.58009891      7.13526322
C       2.50795105      0.90815291      8.51888390
H      -0.78933278      1.49833272     -0.40699258
H       0.95544617      1.63716618      0.08903439
H       0.24820340      0.05317674     -0.09475031
H      -1.28657356      0.54530267      1.88321230
H      -0.64338542      2.16230726      1.87483356
H       1.04857291     -0.38945249      2.37857991
H       1.71660567      1.22267195      2.28796358
H       0.15292148      1.83012539      4.18513524
H      -0.19275542      0.07021500      4.35244400
H       2.28065113     -0.25970115      4.94828582
H       2.56498510      1.45975633      4.60280590
H       3.39690461      0.41936809      8.94767466
H       1.57767341      0.50878320      8.93177510
H       2.54064908      1.93882954      8.72584747
23
Frame 280  Energy = -425.8933662436 Hartree
C       0.02094782      1.04417218      0.21161720
C      -0.36701195      1.09177973      1.69883353
C       0.81499213      0.66434248      2.56787565
C       0.54123469      0.80147784      4.06472273
C       1.84252260      0.70295836      4.90812735
C       1.62470501      1.11741548      6.32991315
O       0.75485888      1.78356112      6.77626277
O       2.60743404      0.58219620      7.13598988
C       2.50911176      0.90851019      8.51801566
H      -0.79021332      1.50397862     -0.40567210
H       0.95854030      1.63564634      0.09773552
H       0.25751936      0.05013398     -0.09772447
H      -1.28699906      0.52991365      1.88174745
H      -0.64253727      2.16327234      1.87373656
H       1.03980396     -0.38218118      2.37163441
H       1.72301371      1.22887822      2.30740832
H       0.13912312      1.83432808      4.19714899
H      -0.19060822      0.07216083      4.36009516
H       2.27665637     -0.25776225      4.94456241
H       2.56385347      1.45995699      4.61251274
H       3.39040975      0.41409317      8.94582911
H       1.58189791      0.50250817      8.93612340
H       2.54448197      1.93752293      8.71815987
23
Frame 285  Energy = -425.8934756907 Hartree
C       0.01915463      1.04197756      0.21271907
C      -0.36822376      1.09181032      1.69976353
C       0.81544858      0.66267036      2.56710998
C       0.54353645      0.80090298      4.06585606
C       1.83866913      0.70388698      4.90859593
C       1.62648275      1.11609219      6.33081459
O       0.75365414      1.78494798      6.77515085
O       2.60761337      0.58435037      7.13663727
C       2.51026163      0.90857326      8.51718507
H      -0.78922970      1.50797645     -0.40334105
H       0.95964385      1.63359717      0.10594545
H       0.26640199      0.04512805     -0.10177174
H      -1.28649724      0.51412304      1.88073612
H      -0.64084326      2.16264062      1.87343978
H       1.03148497     -0.37532258      2.36426917
H       1.72917570      1.23507652      2.32647839
H       0.12548099      1.83632031      4.20966644
H      -0.18913208      0.07377568      4.36866463
H       2.27417443     -0.25842795      4.93983607
H       2.56336573      1.45952067      4.62042667
H       3.38325587      0.40942458      8.94426420
H       1.58680901      0.49667373      8.94067003
H       2.54872826      1.93968173      8.71029908
23
Frame 290  Energy = -425.8934962688 Hartree
C       0.01743092      1.04008072      0.21387532
C      -0.36955422      1.09199300      1.70047143
C       0.81580897      0.66098883      2.56641448
C       0.54602323      0.80069882      4.06691669
C       1.83448031      0.70504416      4.90902233
C       1.62835446      1.11445541      6.33193228
O       0.75228452      1.78634079      6.77404573
O       2.60762598      0.58649986      7.13713513
C       2.51144253      0.90840477      8.51640544
H      -0.78657576      1.51051762     -0.40032115
H       0.95896034      1.63109167      0.11384644
H       0.27490058      0.03870484     -0.10671044
H      -1.28478901      0.49810796      1.88009961
H      -0.63866775      2.16024560      1.87402846
H       1.02336462     -0.36945043      2.35619164
H       1.73428325      1.24123066      2.34514828
H       0.11246579      1.83546219      4.22241337
H      -0.18792335      0.07489834      4.37758195
H       2.27332866     -0.26130406      4.93460410
H       2.56349806      1.45871240      4.62682128
H       3.37570224      0.40510697      8.94336738
H       1.59228943      0.49121626      8.94533792
H       2.55342626      1.94518950      8.70226036
23
Frame 295  Energy = -425.8933750121 Hartree
C       0.01575059      1.03840477      0.21505513
C      -0.37089725      1.09240434      1.70098685
C       0.81599786      0.65945073      2.56587685
C       0.54856765      0.80080872      4.06797748
C       1.83011049      0.70643628      4.90949285
C       1.63039638      1.11247733      6.33317129
O       0.75075928      1.78784077      6.77300723
O       2.60751540      0.58865923      7.13747906
C       2.51258651      0.90786185      8.51555247
H      -0.78239121      1.51164669     -0.39693764
H       0.95667667      1.62833085      0.12140548
H       0.28282862      0.03169593     -0.11206817
H      -1.28167439      0.48267867      1.87982461
H      -0.63601041      2.15627447      1.87553745
H       1.01609189     -0.36502838      2.34754493
H       1.73798966      1.24704545      2.36304941
H       0.10029426      1.83163020      4.23516309
H      -0.18731229      0.07587962      4.38685130
H       2.27353971     -0.26575045      4.92888736
H       2.56431842      1.45749907      4.63206520
H       3.36761436      0.40071889      8.94322834
H       1.59851641      0.48596600      8.95035932
H       2.55816405      1.95375169      8.69366817
23
Frame 300  Energy = -425.8932548966 Hartree
C       0.01420770      1.03694409      0.21625271
C      -0.37227457      1.09283729      1.70139673
C       0.81614865      0.65818624      2.56555257
C       0.55110514      0.80130846      4.06900451
C       1.82566996      0.70804530      4.91007266
C       1.63238011      1.11022845      6.33454628
O       0.74908637      1.78945735      6.77201026
O       2.60729997      0.59095275      7.13759099
C       2.51365212      0.90709995      8.51478465
H      -0.77638660      1.51140070     -0.39315870
H       0.95299894      1.62515183      0.12832969
H       0.28994031      0.02471735     -0.11743396
H      -1.27703663      0.46791896      1.87965749
H      -0.63306525      2.15105034      1.87798752
H       1.00972279     -0.36258186      2.33839338
H       1.74020517      1.25203264      2.38029910
H       0.08902107      1.82428894      4.24751592
H      -0.18731597      0.07670996      4.39633432
H       2.27472876     -0.27145699      4.92234568
H       2.56577662      1.45589768      4.63551981
H       3.35938650      0.39649577      8.94370721
H       1.60528389      0.48114866      8.95540956
H       2.56306807      1.96458588      8.68471385
