23
Frame 5  Energy = -425.8963357237 Hartree
C       0.01711779      0.96307921      0.28041679
C      -0.37514074      0.98818371      1.73156002
C       0.83028530      0.69405522      2.64267043
C       0.49389225      0.80314115      4.09309176
C       1.77677585      0.69137296      4.91933048
C       1.61832040      1.16477653      6.34257951
O       0.72187265      1.82348867      6.76981367
O       2.62318856      0.66237015      7.11678863
C       2.57524000      0.94221020      8.52722919
H      -0.86652057      1.25602754     -0.35186419
H       0.81747624      1.69825743      0.07327049
H       0.31162502     -0.00628964     -0.07078772
H      -1.16117451      0.26036257      1.90466246
H      -0.72216107      2.00956017      2.03368568
H       1.21534730     -0.29882348      2.39290820
H       1.64446204      1.40272799      2.53715146
H       0.01499396      1.76221935      4.39880823
H      -0.24383579      0.09357940      4.40705832
H       2.30648170     -0.22770753      4.88274363
H       2.54645685      1.37290986      4.52544207
H       3.41467292      0.37914537      8.94327595
H       1.67027749      0.56121333      9.00228000
H       2.68053570      1.96767465      8.66444849
23
Frame 10  Energy = -425.8962171922 Hartree
C       0.01621894      0.96084731      0.28171537
C      -0.37283386      0.98854547      1.73008051
C       0.82940287      0.69280492      2.64352410
C       0.49487494      0.80395935      4.09422953
C       1.77409062      0.69181598      4.92136472
C       1.61964215      1.16627944      6.34463274
O       0.72299012      1.82294703      6.77026473
O       2.62175412      0.66423529      7.11579176
C       2.57593720      0.94087474      8.52730169
H      -0.86362804      1.25294062     -0.35775290
H       0.81408656      1.70696609      0.08219129
H       0.31407464     -0.01319284     -0.08267883
H      -1.16085016      0.25427226      1.91988410
H      -0.73192877      2.00595870      2.03559037
H       1.22064522     -0.28689274      2.38437104
H       1.64709271      1.40497773      2.53737240
H       0.02190482      1.77091122      4.39873355
H      -0.23927547      0.08860978      4.41325526
H       2.30484893     -0.22903439      4.87315793
H       2.54224550      1.36702959      4.51239942
H       3.41767625      0.38819806      8.93834588
H       1.66650633      0.57050720      9.00162523
H       2.68387206      1.97342954      8.66458292
23
Frame 15  Energy = -425.8960715294 Hartree
C       0.01512810      0.95883771      0.28270501
C      -0.37044360      0.98917554      1.72882873
C       0.82840598      0.69157415      2.64435979
C       0.49588713      0.80500343      4.09565458
C       1.77142357      0.69251628      4.92346035
C       1.62118105      1.16733958      6.34661763
O       0.72387685      1.82258900      6.77077851
O       2.62021892      0.66600227      7.11478371
C       2.57667490      0.93925978      8.52739621
H      -0.85858753      1.24911159     -0.36265973
H       0.80972138      1.71414352      0.09116822
H       0.31751072     -0.02065497     -0.09444291
H      -1.16048927      0.24855660      1.93546548
H      -0.74167407      1.99996432      2.03647593
H       1.22603301     -0.27550677      2.37593300
H       1.64946510      1.40750080      2.53593511
H       0.03031767      1.77834537      4.39668544
H      -0.23511121      0.08236128      4.41949770
H       2.30309926     -0.23316691      4.86376389
H       2.53719882      1.36124826      4.49909693
H       3.42056084      0.39756774      8.93371246
H       1.66258333      0.57995924      9.00046056
H       2.68761778      1.98227114      8.66583351
23
Frame 20  Energy = -425.8961455941 Hartree
C       0.01393949      0.95691280      0.28341042
C      -0.36807828      0.98997038      1.72775822
C       0.82733413      0.69051769      2.64513254
C       0.49687871      0.80626065      4.09733939
C       1.76902321      0.69342179      4.92551140
C       1.62285341      1.16800196      6.34844635
O       0.72464858      1.82233493      6.77133066
O       2.61863608      0.66781589      7.11378141
C       2.57744476      0.93741488      8.52732858
H      -0.85171898      1.24485178     -0.36627982
H       0.80475886      1.71950839      0.10015556
H       0.32178604     -0.02773275     -0.10536056
H      -1.15922010      0.24381839      1.95092711
H      -0.75173336      1.99202395      2.03599614
H       1.23186317     -0.26512011      2.36776176
H       1.65140260      1.40993950      2.53281929
H       0.03991986      1.78446826      4.39261047
H      -0.23143687      0.07466601      4.42589933
H       2.30093119     -0.23934574      4.85466678
H       2.53152133      1.35593860      4.48562869
H       3.42356120      0.40690975      8.92969177
H       1.65844044      0.58964523      8.99880490
H       2.69168469      1.99367586      8.66823154
23
Frame 25  Energy = -425.8961709746 Hartree
C       0.01272892      0.95511315      0.28385869
C      -0.36575314      0.99082770      1.72691104
C       0.82620995      0.68959069      2.64593477
C       0.49782330      0.80764206      4.09925909
C       1.76679493      0.69442634      4.92750742
C       1.62472430      1.16822117      6.35017303
O       0.72535524      1.82217197      6.77193128
O       2.61698594      0.66977592      7.11268766
C       2.57829184      0.93553898      8.52716633
H      -0.84334307      1.23995863     -0.36878872
H       0.79908291      1.72309005      0.10883459
H       0.32663552     -0.03358232     -0.11527895
H      -1.15680569      0.24046388      1.96579443
H      -0.76149034      1.98264385      2.03422479
H       1.23813279     -0.25607469      2.35996152
H       1.65291119      1.41255441      2.52791710
H       0.05023621      1.78908383      4.38686999
H      -0.22823433      0.06605403      4.43199818
H       2.29812790     -0.24717422      4.84631173
H       2.52524038      1.35126994      4.47235454
H       3.42699942      0.41612551      8.92625737
H       1.65432093      0.59919304      8.99682651
H       2.69600203      2.00634441      8.67140781
23
Frame 30  Energy = -425.8961454611 Hartree
C       0.01148827      0.95351791      0.28395067
C      -0.36351194      0.99171974      1.72624338
C       0.82495528      0.68896454      2.64667664
C       0.49871508      0.80914151      4.10148181
C       1.76465776      0.69556570      4.92933381
C       1.62669520      1.16808073      6.35173327
O       0.72595410      1.82215642      6.77269085
O       2.61527788      0.67169195      7.11157999
C       2.57915148      0.93388132      8.52705481
H      -0.83412889      1.23480423     -0.36995894
H       0.79273664      1.72488560      0.11696240
H       0.33193939     -0.03832918     -0.12354964
H      -1.15321874      0.23832759      1.98022299
H      -0.77089462      1.97199842      2.03136918
H       1.24507742     -0.24867438      2.35271150
H       1.65366118      1.41493103      2.52135727
H       0.06079621      1.79203191      4.37940494
H      -0.22511807      0.05728067      4.43801122
H       2.29424115     -0.25612577      4.83890426
H       2.51847961      1.34731494      4.45936812
H       3.43082184      0.42493221      8.92320824
H       1.65009636      0.60881719      8.99418577
H       2.70036706      2.01886959      8.67516323
23
Frame 35  Energy = -425.8962979037 Hartree
C       0.01035227      0.95204771      0.28355570
C      -0.36142852      0.99253481      1.72594843
C       0.82369564      0.68864989      2.64730392
C       0.49959678      0.81059634      4.10394287
C       1.76276600      0.69674284      4.93103910
C       1.62874124      1.16759063      6.35325830
O       0.72643071      1.82233112      6.77356366
O       2.61358649      0.67349701      7.11055723
C       2.58001162      0.93254198      8.52686859
H      -0.82464186      1.22953299     -0.37010503
H       0.78559506      1.72482973      0.12436115
H       0.33751910     -0.04126315     -0.12989002
H      -1.14823686      0.23747136      1.99378986
H      -0.78033701      1.96052996      2.02773010
H       1.25274742     -0.24322642      2.34567696
H       1.65331046      1.41685865      2.51310244
H       0.07156399      1.79336513      4.37068251
H      -0.22147867      0.04886918      4.44373285
H       2.28916304     -0.26550460      4.83240436
H       2.51135913      1.34411298      4.44688869
H       3.43532168      0.43301634      8.92070679
H       1.64579744      0.61853340      8.99105310
H       2.70436242      2.03025709      8.67960736
23
Frame 40  Energy = -425.8960421756 Hartree
C       0.00924300      0.95063851      0.28277595
C      -0.35953751      0.99310071      1.72598807
C       0.82254681      0.68871859      2.64787393
C       0.50043528      0.81193371      4.10659583
C       1.76115998      0.69786308      4.93265623
C       1.63083851      1.16681113      6.35475279
O       0.72687107      1.82267075      6.77459002
O       2.61195084      0.67525968      7.10965955
C       2.58088189      0.93141861      8.52661272
H      -0.81518806      1.22441396     -0.36966650
H       0.77770047      1.72313914      0.13119893
H       0.34328370     -0.04179884     -0.13436031
H      -1.14216798      0.23817437      2.00606303
H      -0.78969095      1.94887835      2.02319739
H       1.26088111     -0.23986620      2.33929982
H       1.65160156      1.41837217      2.50342694
H       0.08239109      1.79359585      4.36070301
H      -0.21712492      0.04143200      4.44900351
H       2.28284069     -0.27447454      4.82689675
H       2.50376594      1.34165211      4.43522579
H       3.44072623      0.44048680      8.91884393
H       1.64167615      0.62809685      8.98766781
H       2.70773550      2.04000475      8.68432637
23
Frame 45  Energy = -425.8957956515 Hartree
C       0.00817118      0.94926124      0.28177250
C      -0.35779934      0.99343119      1.72628133
C       0.82142289      0.68913259      2.64822016
C       0.50108121      0.81305122      4.10942509
C       1.75974825      0.69897964      4.93408007
C       1.63294807      1.16577884      6.35613969
O       0.72725994      1.82317642      6.77563997
O       2.61043435      0.67707588      7.10886465
C       2.58161725      0.93071911      8.52629481
H      -0.80597904      1.21960074     -0.36929770
H       0.77002321      1.72019359      0.13727268
H       0.34946482     -0.03993062     -0.13671931
H      -1.13491596      0.24034484      2.01710462
H      -0.79918228      1.93761310      2.01814865
H       1.26913219     -0.23820252      2.33351053
H       1.64835338      1.41892671      2.49251137
H       0.09275690      1.79266893      4.34997993
H      -0.21220997      0.03496473      4.45345424
H       2.27545447     -0.28280452      4.82222373
H       2.49598979      1.33957475      4.42449238
H       3.44717598      0.44684391      8.91772750
H       1.63803157      0.63753162      8.98362727
H       2.71047327      2.04740544      8.68908178
23
Frame 50  Energy = -425.8959101669 Hartree
C       0.00719047      0.94794323      0.28055399
C      -0.35623495      0.99338713      1.72694236
C       0.82041152      0.68981999      2.64845390
C       0.50161665      0.81380860      4.11245785
C       1.75852895      0.69997426      4.93528504
C       1.63506902      1.16447082      6.35741887
O       0.72754878      1.82376492      6.77672139
O       2.60901975      0.67893382      7.10810666
C       2.58221510      0.93056588      8.52592152
H      -0.79787338      1.21510231     -0.36911595
H       0.76294672      1.71615430      0.14262892
H       0.35536650     -0.03557190     -0.13691458
H      -1.12673842      0.24379229      2.02699939
H      -0.80839367      1.92735781      2.01250706
H       1.27754315     -0.23796650      2.32829577
H       1.64368772      1.41894647      2.48053341
H       0.10240362      1.79153567      4.33875423
H      -0.20702548      0.02981708      4.45743421
H       2.26694408     -0.28998729      4.81877387
H       2.48826001      1.33834275      4.41476960
H       3.45454024      0.45213729      8.91738911
H       1.63488052      0.64652969      8.97919544
H       2.71251971      2.05165919      8.69404211
23
Frame 55  Energy = -425.8960300246 Hartree
C       0.00635661      0.94647922      0.27917488
C      -0.35479850      0.99300949      1.72794275
C       0.81958133      0.69074956      2.64851938
C       0.50211620      0.81431089      4.11565538
C       1.75758301      0.70080785      4.93617809
C       1.63716050      1.16298461      6.35861767
O       0.72775775      1.82443491      6.77778525
O       2.60772811      0.68068640      7.10744547
C       2.58280989      0.93092257      8.52548543
H      -0.79177309      1.21136468     -0.36963008
H       0.75672923      1.71144710      0.14729179
H       0.36092849     -0.02917177     -0.13509888
H      -1.11792794      0.24797696      2.03593887
H      -0.81753407      1.91823958      2.00659801
H       1.28597445     -0.23870854      2.32385814
H       1.63819903      1.41878104      2.46818462
H       0.11091712      1.79066429      4.32726287
H      -0.20188531      0.02634428      4.46085524
H       2.25708237     -0.29580961      4.81661332
H       2.48112659      1.33740366      4.40652932
H       3.46257612      0.45642316      8.91792963
H       1.63230587      0.65502501      8.97478693
H       2.71401774      2.05251695      8.69888924
23
Frame 60  Energy = -425.8961970921 Hartree
C       0.00557215      0.94484514      0.27762958
C      -0.35340342      0.99226612      1.72923338
C       0.81906065      0.69194939      2.64846188
C       0.50255074      0.81461491      4.11888691
C       1.75687957      0.70158620      4.93679003
C       1.63910453      1.16144886      6.35972576
O       0.72788351      1.82517721      6.77893318
O       2.60657134      0.68232523      7.10688976
C       2.58347663      0.93179528      8.52497438
H      -0.78851288      1.20868266     -0.37098907
H       0.75149808      1.70690358      0.15110524
H       0.36659420     -0.02118293     -0.13121641
H      -1.10861550      0.25262690      2.04337346
H      -0.82675777      1.91085716      2.00084911
H       1.29383035     -0.24031273      2.32011875
H       1.63166383      1.41846655      2.45557742
H       0.11793550      1.79067664      4.31551116
H      -0.19664478      0.02450722      4.46337588
H       2.24582663     -0.29998921      4.81588194
H       2.47414107      1.33685131      4.39959265
H       3.47057648      0.45958661      8.91916596
H       1.63018294      0.66323260      8.97019976
H       2.71513649      2.04985582      8.70348038
23
Frame 65  Energy = -425.8960630340 Hartree
C       0.00487245      0.94309402      0.27603802
C      -0.35218480      0.99123255      1.73074976
C       0.81873432      0.69331920      2.64824446
C       0.50292325      0.81459816      4.12213954
C       1.75641950      0.70229660      4.93714977
C       1.64090548      1.15971581      6.36070614
O       0.72800070      1.82604927      6.78011420
O       2.60561063      0.68390522      7.10640279
C       2.58417807      0.93313683      8.52443337
H      -0.78764399      1.20708934     -0.37295552
H       0.74784392      1.70284666      0.15393623
H       0.37255539     -0.01192403     -0.12566253
H      -1.09922087      0.25715172      2.04951803
H      -0.83598910      1.90570754      1.99507014
H       1.30053864     -0.24216439      2.31746740
H       1.62447261      1.41800877      2.44286980
H       0.12306689      1.79201966      4.30401344
H      -0.19154623      0.02437932      4.46499221
H       2.23297732     -0.30276934      4.81665067
H       2.46775011      1.33666554      4.39375702
H       3.47800986      0.46178379      8.92081600
H       1.62832748      0.67036137      8.96590328
H       2.71573833      2.04385809      8.70764186
23
Frame 70  Energy = -425.8958730979 Hartree
C       0.00424866      0.94128900      0.27445423
C      -0.35111853      0.98984112      1.73253327
C       0.81863235      0.69473438      2.64778069
C       0.50332403      0.81422760      4.12541240
C       1.75618484      0.70291357      4.93733034
C       1.64249151      1.15787459      6.36157520
O       0.72807445      1.82699928      6.78129306
O       2.60478463      0.68529225      7.10600098
C       2.58490876      0.93486739      8.52382107
H      -0.78914074      1.20659641     -0.37613908
H       0.74604904      1.69981732      0.15578545
H       0.37904003     -0.00234225     -0.11867650
H      -1.08997349      0.26111283      2.05453746
H      -0.84533039      1.90279330      1.98919930
H       1.30622720     -0.24374447      2.31619466
H       1.61661020      1.41752327      2.42990376
H       0.12618853      1.79464859      4.29280800
H      -0.18687815      0.02530573      4.46610199
H       2.21865858     -0.30422972      4.81876530
H       2.46204576      1.33661897      4.38920209
H       3.48444635      0.46286960      8.92264129
H       1.62665479      0.67610649      8.96155650
H       2.71583448      2.03524797      8.71145123
23
Frame 75  Energy = -425.8957651737 Hartree
C       0.00368235      0.93949768      0.27284847
C      -0.35010371      0.98818724      1.73443990
C       0.81874616      0.69624671      2.64714881
C       0.50378390      0.81356813      4.12868982
C       1.75615490      0.70348830      4.93730139
C       1.64378183      1.15588942      6.36230660
O       0.72813349      1.82808585      6.78252767
O       2.60408343      0.68653331      7.10563882
C       2.58574103      0.93689189      8.52317580
H      -0.79291183      1.20693220     -0.38074823
H       0.74659537      1.69763802      0.15646836
H       0.38589624      0.00686790     -0.11089752
H      -1.08150586      0.26409493      2.05827790
H      -0.85432021      1.90233203      1.98348106
H       1.31073667     -0.24494989      2.31631049
H       1.60843138      1.41729371      2.41688092
H       0.12765692      1.79856827      4.28212830
H      -0.18286793      0.02733095      4.46673536
H       2.20337084     -0.30425374      4.82227772
H       2.45679860      1.33705835      4.38592861
H       3.48966915      0.46312804      8.92429562
H       1.62542411      0.68070504      8.95707182
H       2.71546316      2.02441880      8.71499912
23
Frame 80  Energy = -425.8955654949 Hartree
C       0.00313173      0.93770048      0.27135510
C      -0.34917254      0.98628922      1.73646239
C       0.81904958      0.69788237      2.64634357
C       0.50428076      0.81257741      4.13187238
C       1.75638679      0.70409192      4.93715042
C       1.64462368      1.15392659      6.36290560
O       0.72822087      1.82920080      6.78380009
O       2.60353455      0.68773707      7.10536502
C       2.58666748      0.93919780      8.52236921
H      -0.79838881      1.20825671     -0.38627372
H       0.74914136      1.69639950      0.15608752
H       0.39337724      0.01499724     -0.10256713
H      -1.07441999      0.26599543      2.06072085
H      -0.86306837      1.90398198      1.97810637
H       1.31370611     -0.24535906      2.31783283
H       1.60018455      1.41744059      2.40408687
H       0.12738577      1.80366553      4.27182865
H      -0.17981151      0.03033446      4.46656022
H       2.18712650     -0.30313220      4.82675868
H       2.45219898      1.33780160      4.38427449
H       3.49314312      0.46308798      8.92586019
H       1.62478420      0.68415681      8.95288106
H       2.71474824      2.01209220      8.71802338
23
Frame 85  Energy = -425.8957927074 Hartree
C       0.00260149      0.93595266      0.26999726
C      -0.34831570      0.98416556      1.73858429
C       0.81952802      0.69958887      2.64543708
C       0.50492843      0.81146297      4.13494897
C       1.75680722      0.70465735      4.93683644
C       1.64494387      1.15202089      6.36323515
O       0.72844986      1.83029662      6.78503529
O       2.60320393      0.68883860      7.10526110
C       2.58769207      0.94170627      8.52148626
H      -0.80496759      1.21023530     -0.39267087
H       0.75320582      1.69579839      0.15472896
H       0.40157178      0.02144759     -0.09407474
H      -1.06907579      0.26645932      2.06210471
H      -0.87113911      1.90713269      1.97310822
H       1.31514370     -0.24528581      2.32055685
H       1.59231132      1.41831581      2.39138481
H       0.12543147      1.80974216      4.26219182
H      -0.17749377      0.03406988      4.46611196
H       2.17059649     -0.30113842      4.83252678
H       2.44871492      1.33927180      4.38385450
H       3.49461656      0.46303124      8.92736622
H       1.62445797      0.68651040      8.94899937
H       2.71393582      1.99965330      8.72054107
23
Frame 90  Energy = -425.8958785262 Hartree
C       0.00206416      0.93440295      0.26877254
C      -0.34758568      0.98190482      1.74073811
C       0.82026405      0.70124009      2.64442362
C       0.50557048      0.81025237      4.13784149
C       1.75737881      0.70515861      4.93630584
C       1.64479057      1.15022328      6.36337070
O       0.72881579      1.83136936      6.78630753
O       2.60309658      0.68981287      7.10534062
C       2.58876485      0.94431994      8.52062941
H      -0.81237373      1.21257638     -0.39874967
H       0.75844297      1.69584966      0.15250592
H       0.41073398      0.02565456     -0.08545994
H      -1.06557668      0.26508981      2.06272576
H      -0.87835020      1.91147688      1.96827083
H       1.31523098     -0.24475705      2.32452237
H       1.58517554      1.42068587      2.37900988
H       0.12185430      1.81587634      4.25319692
H      -0.17631482      0.03870086      4.46560927
H       2.15451407     -0.29888869      4.83922067
H       2.44648555      1.34107904      4.38494592
H       3.49401902      0.46238101      8.92835068
H       1.62448518      0.68752369      8.94565633
H       2.71303526      1.98833039      8.72246058
23
Frame 95  Energy = -425.8957839505 Hartree
C       0.00150141      0.93299577      0.26760283
C      -0.34708424      0.97949286      1.74290102
C       0.82121091      0.70283482      2.64333018
C       0.50616428      0.80905986      4.14054999
C       1.75821338      0.70568508      4.93559117
C       1.64426211      1.14851894      6.36334149
O       0.72921427      1.83252600      6.78761326
O       2.60326368      0.69056493      7.10554450
C       2.58980741      0.94696008      8.51979219
H      -0.82018401      1.21478641     -0.40385923
H       0.76474032      1.69644673      0.14951214
H       0.42074574      0.02731871     -0.07721668
H      -1.06423731      0.26131762      2.06291554
H      -0.88424327      1.91633077      1.96360814
H       1.31388754     -0.24360050      2.32985491
H       1.57887811      1.42422930      2.36719548
H       0.11659367      1.82154610      4.24509827
H      -0.17672004      0.04389712      4.46480139
H       2.13875824     -0.29675310      4.84670551
H       2.44581247      1.34349529      4.38726874
H       3.49134983      0.46098305      8.92883014
H       1.62510801      0.68705814      8.94274916
H       2.71198298      1.97880858      8.72396594
23
Frame 100  Energy = -425.8956668816 Hartree
C       0.00091831      0.93188099      0.26639921
C      -0.34683394      0.97707987      1.74509356
C       0.82233130      0.70438252      2.64221350
C       0.50672767      0.80804797      4.14302562
C       1.75921724      0.70626372      4.93477313
C       1.64330556      1.14696272      6.36322498
O       0.72969723      1.83374900      6.78888766
O       2.60376674      0.69116673      7.10592866
C       2.59091123      0.94962821      8.51892797
H      -0.82764868      1.21663318     -0.40829582
H       0.77146103      1.69739560      0.14551747
H       0.43165633      0.02624638     -0.06947390
H      -1.06518568      0.25507452      2.06269272
H      -0.88853001      1.92141409      1.95893250
H       1.31141340     -0.24185539      2.33635056
H       1.57351324      1.42897270      2.35618965
H       0.11013565      1.82638240      4.23814829
H      -0.17889009      0.04874761      4.46371665
H       2.12402974     -0.29568129      4.85503959
H       2.44637796      1.34609698      4.39034999
H       3.48661400      0.45950133      8.92893398
H       1.62608052      0.68548043      8.94039573
H       2.71106611      1.97234214      8.72547697
23
Frame 105  Energy = -425.8957207351 Hartree
C       0.00031883      0.93108243      0.26523172
C      -0.34689622      0.97465995      1.74734736
C       0.82355174      0.70590494      2.64102667
C       0.50732758      0.80728880      4.14531921
C       1.76028862      0.70686898      4.93382350
C       1.64189549      1.14556912      6.36300645
O       0.73029534      1.83505372      6.79015584
O       2.60452623      0.69167042      7.10645788
C       2.59196497      0.95213785      8.51806812
H      -0.83448852      1.21797436     -0.41177807
H       0.77805214      1.69811715      0.14025788
H       0.44293837      0.02255723     -0.06247625
H      -1.06808547      0.24687691      2.06182645
H      -0.89077939      1.92636600      1.95447804
H       1.30772654     -0.23989599      2.34378581
H       1.56930084      1.43508360      2.34612322
H       0.10298937      1.82992947      4.23224544
H      -0.18271291      0.05303963      4.46236231
H       2.11044196     -0.29589070      4.86421329
H       2.44882326      1.34894377      4.39440985
H       3.47985463      0.45771313      8.92864317
H       1.62726086      0.68277798      8.93870614
H       2.71038269      1.96976410      8.72700892
23
Frame 110  Energy = -425.8957279836 Hartree
C      -0.00025411      0.93059766      0.26413104
C      -0.34731197      0.97216601      1.74962846
C       0.82490783      0.70745431      2.63999493
C       0.50787543      0.80679227      4.14728698
C       1.76136597      0.70767698      4.93284141
C       1.64012720      1.14443673      6.36273510
O       0.73104248      1.83626919      6.79152497
O       2.60550635      0.69212128      7.10715636
C       2.59305387      0.95443549      8.51725176
H      -0.83997068      1.21830829     -0.41380760
H       0.78395984      1.69856869      0.13427907
H       0.45496324      0.01698746     -0.05603664
H      -1.07256877      0.23718014      2.05995083
H      -0.89085583      1.93065528      1.95016774
H       1.30307923     -0.23813543      2.35203501
H       1.56623315      1.44242664      2.33721347
H       0.09510504      1.83179336      4.22785429
H      -0.18820937      0.05688128      4.46099926
H       2.09803633     -0.29802459      4.87382509
H       2.45275079      1.35189211      4.39945416
H       3.47165507      0.45519398      8.92862149
H       1.62876775      0.67869903      8.93709106
H       2.71003770      1.97137193      8.72835066
23
Frame 115  Energy = -425.8958045252 Hartree
C      -0.00083566      0.93043483      0.26296463
C      -0.34802526      0.96963404      1.75185305
C       0.82631484      0.70905439      2.63909921
C       0.50831970      0.80657474      4.14880311
C       1.76238761      0.70857102      4.93183028
C       1.63796463      1.14358921      6.36240806
O       0.73185570      1.83735092      6.79294180
O       2.60671784      0.69258593      7.10795136
C       2.59416821      0.95653267      8.51634382
H      -0.84403853      1.21723461     -0.41399488
H       0.78907274      1.69845792      0.12755646
H       0.46688120      0.01008321     -0.04984027
H      -1.07860967      0.22625689      2.05699212
H      -0.88847163      1.93369670      1.94609208
H       1.29778695     -0.23673020      2.36068012
H       1.56396807      1.45038137      2.32944082
H       0.08674937      1.83170050      4.22424595
H      -0.19547262      0.06044542      4.45968387
H       2.08718747     -0.30156207      4.88366808
H       2.45829172      1.35486984      4.40535039
H       3.46252241      0.45168509      8.92842667
H       1.63048922      0.67358047      8.93529115
H       2.70982380      1.97726283      8.72956159
23
Frame 120  Energy = -425.8956502069 Hartree
C      -0.00134207      0.93052742      0.26173366
C      -0.34901871      0.96711424      1.75405492
C       0.82785926      0.71076420      2.63824587
C       0.50874201      0.80673563      4.14991787
C       1.76330259      0.70956178      4.93084386
C       1.63540831      1.14305141      6.36194423
O       0.73273397      1.83841134      6.79441455
O       2.60826621      0.69297798      7.10881780
C       2.59527234      0.95841608      8.51545399
H      -0.84642197      1.21492106     -0.41279841
H       0.79331052      1.69776640      0.12060511
H       0.47836222      0.00226465     -0.04408235
H      -1.08581834      0.21446451      2.05283992
H      -0.88396205      1.93530187      1.94252065
H       1.29220461     -0.23573472      2.36960654
H       1.56243062      1.45900257      2.32320671
H       0.07832896      1.82989537      4.22176080
H      -0.20433214      0.06356944      4.45827257
H       2.07813461     -0.30714729      4.89399281
H       2.46518285      1.35774913      4.41187130
H       3.45262775      0.44746641      8.92811806
H       1.63251334      0.66745492      8.93362344
H       2.71000759      1.98719970      8.73105757
23
Frame 125  Energy = -425.8957908789 Hartree
C      -0.00173734      0.93081360      0.26052576
C      -0.35032510      0.96459825      1.75625306
C       0.82952833      0.71257805      2.63740515
C       0.50905729      0.80726246      4.15070231
C       1.76419031      0.71070215      4.92992288
C       1.63247024      1.14273047      6.36145587
O       0.73370660      1.83942562      6.79590626
O       2.61007092      0.69323112      7.10982487
C       2.59640810      0.96023491      8.51457089
H      -0.84723637      1.21143884     -0.41023847
H       0.79654089      1.69667407      0.11389356
H       0.48908596     -0.00614529     -0.03844151
H      -1.09390902      0.20253822      2.04759105
H      -0.87755789      1.93538478      1.93949853
H       1.28649968     -0.23572808      2.37845904
H       1.56155695      1.46749176      2.31853650
H       0.06992020      1.82593942      4.22042991
H      -0.21423347      0.06611010      4.45685993
H       2.07058210     -0.31449640      4.90437825
H       2.47310973      1.36028375      4.41912135
H       3.44252102      0.44241246      8.92813435
H       1.63492502      0.66046864      8.93212615
H       2.71035321      1.99993803      8.73238693
23
Frame 130  Energy = -425.8959608636 Hartree
C      -0.00207207      0.93130457      0.25932833
C      -0.35200512      0.96205750      1.75842328
C       0.83122422      0.71448686      2.63663981
C       0.50926275      0.80817941      4.15113024
C       1.76507784      0.71191407      4.92907137
C       1.62930842      1.14267447      6.36094556
O       0.73468585      1.84035148      6.79739652
O       2.61205905      0.69338810      7.11099173
C       2.59741304      0.96202783      8.51366362
H      -0.84659223      1.20653590     -0.40662109
H       0.79822923      1.69481246      0.10743939
H       0.49849840     -0.01433043     -0.03274788
H      -1.10211639      0.19105441      2.04114157
H      -0.86932631      1.93361521      1.93711727
H       1.28071294     -0.23665625      2.38741159
H       1.56111117      1.47576182      2.31519462
H       0.06155304      1.82009487      4.22036589
H      -0.22494610      0.06801544      4.45549573
H       2.06479848     -0.32251925      4.91454999
H       2.48195027      1.36233298      4.42701542
H       3.43282788      0.43656587      8.92856947
H       1.63779891      0.65281160      8.93064733
H       2.71114070      2.01456239      8.73361398
23
Frame 135  Energy = -425.8958893066 Hartree
C      -0.00220556      0.93186918      0.25824539
C      -0.35403776      0.95947287      1.76046098
C       0.83297109      0.71652768      2.63599236
C       0.50930827      0.80932882      4.15116353
C       1.76600399      0.71323952      4.92828413
C       1.62594866      1.14290392      6.36045279
O       0.73563125      1.84118909      6.79889685
O       2.61420799      0.69349641      7.11218550
C       2.59822127      0.96380163      8.51278125
H      -0.84481867      1.20035162     -0.40178501
H       0.79823753      1.69212113      0.10101355
H       0.50647562     -0.02152263     -0.02687152
H      -1.10962121      0.18041308      2.03349048
H      -0.85972922      1.93071150      1.93545360
H       1.27509803     -0.23838711      2.39625190
H       1.56127331      1.48408084      2.31365678
H       0.05347285      1.81266419      4.22183768
H      -0.23602867      0.07000639      4.45429124
H       2.06078478     -0.33095299      4.92436273
H       2.49168169      1.36371850      4.43556061
H       3.42370301      0.42950178      8.92982570
H       1.64135737      0.64477094      8.92966190
H       2.71186596      2.02985429      8.73482021
23
Frame 140  Energy = -425.8956321173 Hartree
C      -0.00210455      0.93246951      0.25722319
C      -0.35643067      0.95671823      1.76242620
C       0.83486783      0.71874680      2.63547795
C       0.50920619      0.81079653      4.15068344
C       1.76687053      0.71451911      4.92755199
C       1.62237119      1.14326448      6.35998911
O       0.73657622      1.84201613      6.80046302
O       2.61653212      0.69355645      7.11330258
C       2.59887189      0.96569186      8.51195304
H      -0.84222395      1.19339460     -0.39612860
H       0.79682874      1.68864931      0.09426669
H       0.51249200     -0.02742280     -0.02117403
H      -1.11607426      0.17082185      2.02441162
H      -0.84909997      1.92667018      1.93479305
H       1.26979140     -0.24139842      2.40494605
H       1.56191371      1.49195093      2.31399968
H       0.04577340      1.80402404      4.22466503
H      -0.24673607      0.07229958      4.45288506
H       2.05831084     -0.33925156      4.93433928
H       2.50225913      1.36421708      4.44497212
H       3.41551038      0.42182793      8.93175899
H       1.64533515      0.63652436      8.92915811
H       2.71236264      2.04454903      8.73554530
23
Frame 145  Energy = -425.8952303393 Hartree
C      -0.00182539      0.93303011      0.25622754
C      -0.35917099      0.95371859      1.76420535
C       0.83678173      0.72104705      2.63500500
C       0.50885769      0.81260819      4.14984980
C       1.76777739      0.71562678      4.92696361
C       1.61858121      1.14383003      6.35956020
O       0.73753214      1.84281631      6.80209502
O       2.61895069      0.69351864      7.11442092
C       2.59929238      0.96781828      8.51114803
H      -0.83910407      1.18561962     -0.39039184
H       0.79422407      1.68450868      0.08750988
H       0.51628443     -0.03166229     -0.01545189
H      -1.12160273      0.16279884      2.01403669
H      -0.83778145      1.92177982      1.93505307
H       1.26509100     -0.24530396      2.41348038
H       1.56227706      1.49885139      2.31553505
H       0.03820749      1.79466512      4.22888565
H      -0.25672416      0.07515154      4.45124464
H       2.05740032     -0.34698062      4.94421128
H       2.51355464      1.36343904      4.45515832
H       3.40837884      0.41324828      8.93455632
H       1.64988375      0.62805038      8.92856987
H       2.71252316      2.05775161      8.73534776
23
Frame 150  Energy = -425.8949175693 Hartree
C      -0.00125052      0.93349892      0.25520858
C      -0.36224083      0.95052161      1.76575265
C       0.83868515      0.72351237      2.63459527
C       0.50821989      0.81462911      4.14859527
C       1.76876353      0.71656659      4.92652144
C       1.61469172      1.14458428      6.35921966
O       0.73848130      1.84360432      6.80374171
O       2.62154222      0.69333071      7.11548541
C       2.59953284      0.97018073      8.51031338
H      -0.83581065      1.17705276     -0.38487866
H       0.79045258      1.67993199      0.08070549
H       0.51802072     -0.03424087     -0.00967900
H      -1.12656303      0.15678449      2.00240679
H      -0.82621244      1.91623190      1.93640543
H       1.26075986     -0.25013578      2.42167689
H       1.56243687      1.50453396      2.31869293
H       0.03100540      1.78536004      4.23418848
H      -0.26549672      0.07861913      4.44900099
H       2.05766092     -0.35354919      4.95344160
H       2.52547581      1.36137092      4.46602624
H       3.40248278      0.40400197      8.93770594
H       1.65484644      0.61974558      8.92808972
H       2.71236752      2.06892237      8.73416366
23
Frame 155  Energy = -425.8949457485 Hartree
C      -0.00038007      0.93378856      0.25435901
C      -0.36555923      0.94710075      1.76710480
C       0.84052122      0.72606813      2.63427216
C       0.50730650      0.81683672      4.14691674
C       1.76987294      0.71741544      4.92627023
C       1.61080745      1.14544675      6.35899747
O       0.73938150      1.84441929      6.80536120
O       2.62427279      0.69311542      7.11650139
C       2.59963601      0.97279656      8.50941886
H      -0.83288129      1.16809486     -0.37966062
H       0.78551456      1.67515265      0.07388486
H       0.51763309     -0.03486779     -0.00376821
H      -1.13017323      0.15292344      1.98994380
H      -0.81462281      1.91097759      1.93893476
H       1.25695867     -0.25517366      2.42941505
H       1.56253063      1.50894680      2.32343911
H       0.02393305      1.77672972      4.24061169
H      -0.27296655      0.08253270      4.44624804
H       2.05905456     -0.35873286      4.96210491
H       2.53796206      1.35844443      4.47693411
H       3.39772844      0.39447539      8.94118867
H       1.66038535      0.61198434      8.92784171
H       2.71202792      2.07720695      8.73196357
23
Frame 160  Energy = -425.8951299121 Hartree
C       0.00088206      0.93391469      0.25365719
C      -0.36902628      0.94350002      1.76824756
C       0.84229177      0.72862916      2.63406797
C       0.50624136      0.81917000      4.14488934
C       1.77105560      0.71804751      4.92626718
C       1.60693726      1.14633219      6.35882937
O       0.74020278      1.84522177      6.80704015
O       2.62703912      0.69293188      7.11734330
C       2.59956922      0.97561073      8.50861952
H      -0.83065179      1.15843891     -0.37508830
H       0.77997708      1.67035809      0.06733724
H       0.51510478     -0.03351877      0.00230022
H      -1.13244064      0.15062745      1.97708322
H      -0.80379583      1.90647860      1.94255982
H       1.25360624     -0.26004344      2.43646127
H       1.56301789      1.51226069      2.32963226
H       0.01673879      1.76940464      4.24816354
H      -0.27858320      0.08686750      4.44289634
H       2.06140233     -0.36185571      4.97020933
H       2.55075948      1.35434570      4.48819584
H       3.39397708      0.38484600      8.94500045
H       1.66566339      0.60483534      8.92787825
H       2.71163125      2.08243853      8.72915554
23
Frame 165  Energy = -425.8951477144 Hartree
C       0.00239441      0.93380394      0.25320735
C      -0.37260443      0.93968265      1.76905494
C       0.84400825      0.73109702      2.63393437
C       0.50500905      0.82154254      4.14249977
C       1.77219775      0.71854269      4.92640061
C       1.60319456      1.14726602      6.35868912
O       0.74097310      1.84605259      6.80882515
O       2.62982246      0.69268247      7.11809215
C       2.59946792      0.97864523      8.50803263
H      -0.82951752      1.14837651     -0.37188912
H       0.77482477      1.66673597      0.06099053
H       0.51031284     -0.03043711      0.00816099
H      -1.13335586      0.15014251      1.96376245
H      -0.79361442      1.90312589      1.94727302
H       1.25060033     -0.26499351      2.44293148
H       1.56360134      1.51416398      2.33704994
H       0.00945731      1.76380721      4.25676159
H      -0.28250486      0.09178448      4.43863236
H       2.06473554     -0.36263181      4.97735006
H       2.56343510      1.34895486      4.49941141
H       3.39080491      0.37597752      8.94877693
H       1.67094563      0.59862185      8.92795828
H       2.71105200      2.08431917      8.72531684
23
Frame 170  Energy = -425.8954623188 Hartree
C       0.00417722      0.93342306      0.25306160
C      -0.37619622      0.93555021      1.76947208
C       0.84564501      0.73353894      2.63394184
C       0.50367985      0.82387142      4.13971489
C       1.77331830      0.71879211      4.92663242
C       1.59968786      1.14821838      6.35857576
O       0.74173265      1.84686308      6.81060989
O       2.63262847      0.69236057      7.11868250
C       2.59937875      0.98183837      8.50761796
H      -0.83003590      1.13808424     -0.37022948
H       0.77056813      1.66397831      0.05505240
H       0.50397145     -0.02644160      0.01377713
H      -1.13372747      0.15131036      1.95049618
H      -0.78480723      1.90109328      1.95303326
H       1.24796842     -0.26965083      2.44912496
H       1.56405095      1.51485452      2.34554459
H       0.00183135      1.76019219      4.26661373
H      -0.28446298      0.09709883      4.43364892
H       2.06873223     -0.36115361      4.98382903
H       2.57562541      1.34241578      4.51037116
H       3.38838465      0.36796244      8.95243343
H       1.67587536      0.59317775      8.92812120
H       2.71041326      2.08279203      8.72050670
23
Frame 175  Energy = -425.8953469018 Hartree
C       0.00611084      0.93283538      0.25319375
C      -0.37964523      0.93112390      1.76949514
C       0.84710654      0.73584961      2.63406161
C       0.50230208      0.82618981      4.13660372
C       1.77443971      0.71879155      4.92714788
C       1.59640996      1.14917175      6.35847194
O       0.74241906      1.84768653      6.81243968
O       2.63545116      0.69202253      7.11918749
C       2.59926332      0.98508365      8.50734878
H      -0.83201900      1.12799331     -0.36997747
H       0.76678511      1.66241668      0.04924791
H       0.49591357     -0.02187211      0.01900379
H      -1.13367441      0.15378701      1.93698448
H      -0.77753531      1.90061895      1.95965564
H       1.24566976     -0.27357702      2.45445122
H       1.56480281      1.51446847      2.35469380
H      -0.00561842      1.75848791      4.27731759
H      -0.28477793      0.10259977      4.42793371
H       2.07319858     -0.35724158      4.98956858
H       2.58765753      1.33523807      4.52135742
H       3.38632443      0.36148018      8.95588472
H       1.68036601      0.58867533      8.92863866
H       2.70963874      2.07816665      8.71511040
23
Frame 180  Energy = -425.8950585790 Hartree
C       0.00819152      0.93207865      0.25377007
C      -0.38295971      0.92652213      1.76915714
C       0.84837198      0.73800851      2.63427435
C       0.50097431      0.82863011      4.13322590
C       1.77549942      0.71853583      4.92786004
C       1.59340116      1.15006190      6.35840199
O       0.74297857      1.84849018      6.81434933
O       2.63831154      0.69164165      7.11971466
C       2.59922882      0.98844936      8.50723270
H      -0.83574532      1.11806070     -0.37142436
H       0.76379007      1.66216150      0.04344601
H       0.48631955     -0.01726000      0.02383240
H      -1.13349349      0.15703019      1.92376609
H      -0.77167908      1.90147984      1.96749853
H       1.24380092     -0.27653845      2.45938226
H       1.56584111      1.51317496      2.36411423
H      -0.01290571      1.75837412      4.28880286
H      -0.28336788      0.10822955      4.42176181
H       2.07778991     -0.35109988      4.99412885
H       2.59921048      1.32682142      4.53207239
H       3.38450135      0.35645085      8.95844979
H       1.68409446      0.58512327      8.92939981
H       2.70888705      2.07094279      8.70943553
23
Frame 185  Energy = -425.8951274574 Hartree
C       0.01027570      0.93120393      0.25467192
C      -0.38610710      0.92189939      1.76849336
C       0.84947862      0.74002430      2.63456901
C       0.49967733      0.83113982      4.12955594
C       1.77646839      0.71814023      4.92869590
C       1.59069322      1.15094800      6.35840599
O       0.74329651      1.84941886      6.81629111
O       2.64113799      0.69121584      7.12018406
C       2.59923921      0.99169281      8.50722244
H      -0.84110558      1.10807575     -0.37408197
H       0.76155255      1.66361474      0.03775834
H       0.47613637     -0.01320990      0.02792931
H      -1.13367553      0.16032525      1.91123809
H      -0.76771456      1.90340499      1.97638516
H       1.24267470     -0.27819310      2.46379954
H       1.56746431      1.51148519      2.37414767
H      -0.01999662      1.75990321      4.30136215
H      -0.28020962      0.11346950      4.41545644
H       2.08277447     -0.34302476      4.99742825
H       2.61026737      1.31765473      4.54212883
H       3.38243908      0.35334810      8.96034010
H       1.68669804      0.58253204      8.93042908
H       2.70817294      2.06182761      8.70388660
23
Frame 190  Energy = -425.8951726182 Hartree
C       0.01232226      0.93022760      0.25593505
C      -0.38899140      0.91743437      1.76743493
C       0.85039754      0.74184675      2.63502343
C       0.49840706      0.83368641      4.12574008
C       1.77735775      0.71760030      4.92968735
C       1.58830483      1.15169860      6.35845684
O       0.74342861      1.85033300      6.81831500
O       2.64387125      0.69082192      7.12052629
C       2.59942947      0.99474850      8.50727851
H      -0.84777953      1.09779515     -0.37763216
H       0.76026594      1.66667782      0.03222174
H       0.46613385     -0.01032307      0.03143046
H      -1.13445466      0.16297851      1.89920676
H      -0.76539339      1.90604531      1.98597753
H       1.24180347     -0.27863282      2.46757944
H       1.56968960      1.50986221      2.38423161
H      -0.02660356      1.76264743      4.31411901
H      -0.27565622      0.11801818      4.40899432
H       2.08826758     -0.33363528      4.99982095
H       2.62087082      1.30797277      4.55194045
H       3.37998811      0.35235861      8.96129337
H       1.68847011      0.58151366      8.93148964
H       2.70743165      2.05219506      8.69869731
23
Frame 195  Energy = -425.8951107965 Hartree
C       0.01432107      0.92933891      0.25732929
C      -0.39155504      0.91315552      1.76597538
C       0.85101748      0.74345794      2.63559531
C       0.49710771      0.83624692      4.12185151
C       1.77818913      0.71690722      4.93086085
C       1.58630103      1.15239595      6.35851526
O       0.74335346      1.85118864      6.82035977
O       2.64651422      0.69044474      7.12079452
C       2.59969252      0.99750801      8.50741874
H      -0.85510158      1.08758670     -0.38170194
H       0.75959946      1.67093360      0.02677110
H       0.45630912     -0.00930973      0.03396825
H      -1.13583171      0.16483073      1.88804095
H      -0.76452777      1.90890499      1.99591770
H       1.24145376     -0.27773629      2.47073337
H       1.57257533      1.50828696      2.39429200
H      -0.03269970      1.76640928      4.32702290
H      -0.26990459      0.12182132      4.40266697
H       2.09400267     -0.32348404      5.00152905
H       2.63053376      1.29802090      4.56120309
H       3.37713966      0.35366399      8.96122311
H       1.68935766      0.58167660      8.93250920
H       2.70657089      2.04283986      8.69379230
23
Frame 200  Energy = -425.8948733281 Hartree
C       0.01623751      0.92846108      0.25886916
C      -0.39381705      0.90908418      1.76408873
C       0.85134622      0.74476858      2.63629930
C       0.49589249      0.83895253      4.11783049
C       1.77889974      0.71609031      4.93216749
C       1.58468410      1.15293833      6.35852524
O       0.74313332      1.85204521      6.82241890
O       2.64916660      0.69007651      7.12088113
C       2.59998562      0.99978547      8.50756558
H      -0.86203705      1.07748923     -0.38573497
H       0.75944113      1.67593147      0.02140401
H       0.44717070     -0.01040533      0.03538892
H      -1.13838421      0.16572393      1.87781565
H      -0.76500186      1.91176003      2.00637194
H       1.24217236     -0.27555077      2.47389153
H       1.57624069      1.50699201      2.40413662
H      -0.03786565      1.77059585      4.33959914
H      -0.26333847      0.12426695      4.39656370
H       2.10007055     -0.31346720      5.00264214
H       2.63924941      1.28766778      4.56936601
H       3.37393457      0.35739540      8.96044357
H       1.68972462      0.58307125      8.93391839
H       2.70569887      2.03456632      8.68922055
23
Frame 205  Energy = -425.8949603667 Hartree
C       0.01794714      0.92768618      0.26054403
C      -0.39570472      0.90535947      1.76178967
C       0.85126141      0.74575366      2.63713974
C       0.49481588      0.84187805      4.11367709
C       1.77953059      0.71536957      4.93368046
C       1.58352967      1.15343264      6.35863228
O       0.74279934      1.85296755      6.82452058
O       2.65173826      0.68974828      7.12085504
C       2.60018391      1.00158029      8.50768620
H      -0.86821761      1.06762785     -0.38923104
H       0.75943296      1.68185108      0.01659198
H       0.43911582     -0.01422357      0.03581977
H      -1.14248627      0.16532450      1.86895032
H      -0.76682950      1.91353561      2.01694807
H       1.24379974     -0.27202850      2.47690771
H       1.58081542      1.50598232      2.41330398
H      -0.04182070      1.77474602      4.35200306
H      -0.25650043      0.12516131      4.39061670
H       2.10645133     -0.30402615      5.00318001
H       2.64725585      1.27761323      4.57659084
H       3.37060242      0.36307290      8.95938867
H       1.68942672      0.58581173      8.93530485
H       2.70526392      2.02856710      8.68516519
23
Frame 210  Energy = -425.8948517047 Hartree
C       0.01936251      0.92697569      0.26229829
C      -0.39716459      0.90215717      1.75918809
C       0.85072756      0.74645435      2.63813436
C       0.49397344      0.84508594      4.10936462
C       1.77999698      0.71468785      4.93535816
C       1.58297076      1.15385894      6.35886166
O       0.74229480      1.85393119      6.82671774
O       2.65423559      0.68940695      7.12071628
C       2.60032836      1.00282445      8.50788458
H      -0.87314146      1.05759594     -0.39195025
H       0.75944360      1.68811404      0.01244514
H       0.43225286     -0.02079848      0.03500887
H      -1.14773230      0.16337911      1.86177681
H      -0.76970150      1.91407598      2.02698111
H       1.24608916     -0.26736202      2.47987731
H       1.58611546      1.50535506      2.42171919
H      -0.04440551      1.77878961      4.36369040
H      -0.24939322      0.12382796      4.38482119
H       2.11328300     -0.29597291      5.00274208
H       2.65416661      1.26790882      4.58324846
H       3.36779082      0.37060599      8.95843809
H       1.68842029      0.58969780      8.93637835
H       2.70535678      2.02567379      8.68193010
23
Frame 215  Energy = -425.8947543235 Hartree
C       0.02042505      0.92631202      0.26405917
C      -0.39822699      0.89932065      1.75636850
C       0.84985021      0.74694837      2.63908028
C       0.49327380      0.84855826      4.10508553
C       1.78026303      0.71405418      4.93719393
C       1.58293607      1.15416163      6.35926944
O       0.74159884      1.85495579      6.82902725
O       2.65664578      0.68910571      7.12050853
C       2.60036880      1.00346887      8.50805139
H      -0.87636444      1.04770786     -0.39368338
H       0.75893289      1.69456080      0.00880656
H       0.42647648     -0.02985373      0.03336684
H      -1.15471777      0.15967474      1.85595747
H      -0.77354530      1.91317669      2.03662202
H       1.24909645     -0.26123305      2.48238517
H       1.59197721      1.50486854      2.42880345
H      -0.04519221      1.78272555      4.37443166
H      -0.24203231      0.12038759      4.37937772
H       2.12047372     -0.28982166      5.00169419
H       2.66018927      1.25866882      4.58886130
H       3.36574754      0.37980195      8.95783260
H       1.68664049      0.59457344      8.93727863
H       2.70576817      2.02624130      8.67951447
23
Frame 220  Energy = -425.8947329901 Hartree
C       0.02122677      0.92561491      0.26571213
C      -0.39897377      0.89707447      1.75330848
C       0.84872736      0.74721741      2.64002180
C       0.49268893      0.85232544      4.10082497
C       1.78022455      0.71353195      4.93908759
C       1.58337958      1.15441259      6.35978091
O       0.74081873      1.85602555      6.83140088
O       2.65897724      0.68885555      7.12018230
C       2.60027618      1.00362314      8.50814560
H      -0.87748325      1.03772768     -0.39414075
H       0.75769578      1.70075636      0.00584655
H       0.42196124     -0.04073517      0.03113222
H      -1.16283840      0.15457236      1.85176076
H      -0.77831332      1.91049999      2.04567013
H       1.25295372     -0.25411195      2.48451757
H       1.59817384      1.50423917      2.43454537
H      -0.04420003      1.78616703      4.38423502
H      -0.23469825      0.11514623      4.37415929
H       2.12772344     -0.28615110      5.00033891
H       2.66533855      1.25018114      4.59357262
H       3.36502956      0.38990076      8.95774070
H       1.68429833      0.60074998      8.93798249
H       2.70679004      2.03026690      8.67820016
23
Frame 225  Energy = -425.8945497781 Hartree
C       0.02182244      0.92481077      0.26725705
C      -0.39936223      0.89534910      1.75014012
C       0.84730329      0.74733942      2.64092240
C       0.49228152      0.85631908      4.09659494
C       1.77991048      0.71319867      4.94113284
C       1.58425949      1.15460561      6.36046033
O       0.74004728      1.85705520      6.83380046
O       2.66119516      0.68863923      7.11971984
C       2.60010181      1.00330901      8.50817099
H      -0.87644991      1.02804936     -0.39339448
H       0.75583292      1.70629880      0.00364481
H       0.41854172     -0.05296773      0.02844265
H      -1.17145705      0.14816044      1.84900141
H      -0.78403917      1.90570033      2.05374409
H       1.25751493     -0.24628357      2.48644181
H       1.60448851      1.50348124      2.43869407
H      -0.04132531      1.78894005      4.39303369
H      -0.22770539      0.10811601      4.36919071
H       2.13552152     -0.28519298      4.99882676
H       2.67019707      1.24242086      4.59722037
H       3.36574589      0.40076698      8.95824782
H       1.68122032      0.60813833      8.93877790
H       2.70840726      2.03711096      8.67787034
23
Frame 230  Energy = -425.8943782003 Hartree
C       0.02214408      0.92402011      0.26873080
C      -0.39944528      0.89400547      1.74687742
C       0.84563547      0.74736968      2.64186972
C       0.49202809      0.86042237      4.09252387
C       1.77938781      0.71307354      4.94330077
C       1.58551937      1.15475172      6.36125221
O       0.73926992      1.85801806      6.83622600
O       2.66319724      0.68851070      7.11909549
C       2.59977914      1.00267724      8.50804684
H      -0.87374745      1.01872940     -0.39129445
H       0.75351726      1.71100923      0.00211145
H       0.41639749     -0.06561452      0.02548607
H      -1.17993747      0.14135775      1.84767333
H      -0.79048535      1.89843800      2.06089684
H       1.26308246     -0.23840224      2.48796152
H       1.61048648      1.50243625      2.44153446
H      -0.03710335      1.79131461      4.40047812
H      -0.22104389      0.09930361      4.36454521
H       2.14390446     -0.28691689      4.99695805
H       2.67436159      1.23537270      4.59983037
H       3.36794410      0.41216955      8.95931836
H       1.67739198      0.61649767      8.93941533
H       2.70994677      2.04666566      8.67824374
23
Frame 235  Energy = -425.8942634970 Hartree
C       0.02228385      0.92320075      0.27008133
C      -0.39925526      0.89315763      1.74354781
C       0.84376844      0.74731131      2.64285644
C       0.49186969      0.86465860      4.08870012
C       1.77870792      0.71307493      4.94552222
C       1.58716726      1.15489381      6.36221934
O       0.73847802      1.85890688      6.83863158
O       2.66502186      0.68834159      7.11841182
C       2.59936653      1.00174041      8.50791372
H      -0.86929405      1.00980535     -0.38785764
H       0.75044951      1.71430521      0.00160631
H       0.41536399     -0.07797368      0.02239950
H      -1.18747997      0.13463099      1.84748563
H      -0.79783951      1.88892939      2.06722648
H       1.26973898     -0.23080443      2.48890905
H       1.61596057      1.50116135      2.44323491
H      -0.03141920      1.79285920      4.40639558
H      -0.21464839      0.08908746      4.36035341
H       2.15275498     -0.29094371      4.99501444
H       2.67785017      1.22930184      4.60160520
H       3.37171943      0.42361733      8.96083738
H       1.67310992      0.62607647      8.93957357
H       2.71148435      2.05807406      8.67892498
23
Frame 240  Energy = -425.8940894616 Hartree
C       0.02227904      0.92217374      0.27137342
C      -0.39887839      0.89269065      1.74019023
C       0.84173027      0.74729990      2.64382795
C       0.49179320      0.86903311      4.08519349
C       1.77785192      0.71307637      4.94767560
C       1.58920442      1.15492777      6.36334380
O       0.73763117      1.85980022      6.84100656
O       2.66674282      0.68815506      7.11758518
C       2.59880735      1.00066880      8.50780269
H      -0.86344083      1.00154342     -0.38360764
H       0.74662509      1.71588917      0.00199317
H       0.41512663     -0.08920879      0.01944541
H      -1.19392772      0.12844876      1.84812365
H      -0.80598359      1.87760092      2.07225897
H       1.27738111     -0.22397156      2.48961856
H       1.62063037      1.49938936      2.44388149
H      -0.02413937      1.79374848      4.41088289
H      -0.20812680      0.07808913      4.35667342
H       2.16146308     -0.29661705      4.99272062
H       2.68041734      1.22441969      4.60264179
H       3.37745836      0.43486400      8.96293338
H       1.66804925      0.63625584      8.93940292
H       2.71300875      2.07022736      8.67978892
23
Frame 245  Energy = -425.8938625184 Hartree
C       0.02205521      0.92105134      0.27251209
C      -0.39843378      0.89249038      1.73686629
C       0.83960984      0.74719965      2.64478821
C       0.49180992      0.87348060      4.08197998
C       1.77687137      0.71312883      4.94980733
C       1.59150332      1.15491362      6.36471296
O       0.73680867      1.86061442      6.84329541
O       2.66831234      0.68806161      7.11662639
C       2.59816254      0.99961335      8.50770853
H      -0.85706222      0.99390176     -0.37865822
H       0.74188266      1.71607760      0.00320839
H       0.41548123     -0.09873436      0.01680250
H      -1.19884352      0.12277423      1.84975353
H      -0.81448076      1.86478947      2.07586435
H       1.28583028     -0.21808817      2.49000138
H       1.62466338      1.49699852      2.44348890
H      -0.01568861      1.79415358      4.41372739
H      -0.20129119      0.06642251      4.35325069
H       2.16946503     -0.30347363      4.99043911
H       2.68182048      1.22067839      4.60286069
H       3.38501300      0.44586097      8.96584467
H       1.66260996      0.64678299      8.93901819
H       2.71427461      2.08206295      8.68091779
23
Frame 250  Energy = -425.8940396222 Hartree
C       0.02159835      0.91975035      0.27361952
C      -0.39787098      0.89260530      1.73352932
C       0.83736325      0.74718377      2.64576572
C       0.49185710      0.87783003      4.07918955
C       1.77585556      0.71316839      4.95197239
C       1.59406556      1.15489303      6.36640748
O       0.73600501      1.86138840      6.84551320
O       2.66972997      0.68801042      7.11571874
C       2.59738418      0.99865141      8.50768243
H      -0.85036144      0.98706246     -0.37328880
H       0.73642364      1.71492123      0.00478571
H       0.41631761     -0.10558038      0.01488673
H      -1.20141352      0.11831958      1.85248011
H      -0.82352605      1.85094375      2.07815255
H       1.29483958     -0.21354271      2.49006572
H       1.62796170      1.49408861      2.44213049
H      -0.00630522      1.79389133      4.41500471
H      -0.19454130      0.05486281      4.34988808
H       2.17629227     -0.31076709      4.98791161
H       2.68246636      1.21834924      4.60222089
H       3.39420644      0.45633513      8.96941640
H       1.65722934      0.65774901      8.93844482
H       2.71522300      2.09293979      8.68198462
23
Frame 255  Energy = -425.8942951681 Hartree
C       0.02102286      0.91819257      0.27455170
C      -0.39725153      0.89299399      1.73026603
C       0.83502049      0.74720753      2.64659497
C       0.49198326      0.88191741      4.07682476
C       1.77480302      0.71303529      4.95417262
C       1.59688587      1.15482508      6.36826078
O       0.73531951      1.86217538      6.84759517
O       2.67095741      0.68801486      7.11482800
C       2.59655451      0.99787136      8.50762976
H      -0.84375104      0.98103832     -0.36824069
H       0.73043916      1.71237809      0.00676502
H       0.41747892     -0.10973079      0.01379005
H      -1.20114270      0.11531596      1.85556389
H      -0.83303888      1.83648310      2.07889592
H       1.30436907     -0.21017285      2.48991417
H       1.62981185      1.49060178      2.43979179
H       0.00355876      1.79396205      4.41480750
H      -0.18735829      0.04460062      4.34646977
H       2.18159975     -0.31801331      4.98525329
H       2.68281487      1.21730466      4.60063288
H       3.40462012      0.46642691      8.97344351
H       1.65198076      0.66895997      8.93746746
H       2.71594756      2.10175883      8.68288558
23
Frame 260  Energy = -425.8938409600 Hartree
C       0.02041541      0.91635427      0.27531404
C      -0.39651514      0.89357317      1.72715709
C       0.83252291      0.74732596      2.64724828
C       0.49231606      0.88578326      4.07484188
C       1.77365824      0.71274015      4.95628361
C       1.59989100      1.15478566      6.37034983
O       0.73468165      1.86296417      6.84962034
O       2.67203891      0.68812073      7.11386521
C       2.59566956      0.99732535      8.50754127
H      -0.83794620      0.97605903     -0.36385683
H       0.72444732      1.70904856      0.00913338
H       0.41916878     -0.11110773      0.01366551
H      -1.19804229      0.11362625      1.85919110
H      -0.84326619      1.82162984      2.07863319
H       1.31413654     -0.20825125      2.48977357
H       1.62989321      1.48696875      2.43632962
H       0.01378526      1.79466765      4.41303355
H      -0.17964677      0.03597357      4.34331195
H       2.18514863     -0.32452438      4.98233741
H       2.68213735      1.21708307      4.59856025
H       3.41581474      0.47574890      8.97780595
H       1.64687974      0.68061565      8.93649445
H       2.71630654      2.10787152      8.68350202
23
Frame 265  Energy = -425.8940373448 Hartree
C       0.01982561      0.91419426      0.27589639
C      -0.39581499      0.89432048      1.72413006
C       0.83002317      0.74746920      2.64774686
C       0.49276172      0.88936468      4.07330489
C       1.77246279      0.71228205      4.95829851
C       1.60305683      1.15496097      6.37263300
O       0.73410282      1.86363344      6.85161738
O       2.67302490      0.68828550      7.11278161
C       2.59479116      0.99706054      8.50748100
H      -0.83314104      0.97218469     -0.36027572
H       0.71876635      1.70493525      0.01192508
H       0.42115389     -0.10905054      0.01441984
H      -1.19238902      0.11297444      1.86339200
H      -0.85400285      1.80727752      2.07721564
H       1.32420786     -0.20706980      2.48961299
H       1.62842913      1.48291515      2.43195417
H       0.02347200      1.79605945      4.41007300
H      -0.17126288      0.02884205      4.34028766
H       2.18690305     -0.32975210      4.97934714
H       2.68067463      1.21765173      4.59603049
H       3.42743719      0.48488640      8.98213310
H       1.64217670      0.69234302      8.93568605
H       2.71652162      2.11086661      8.68358693
23
Frame 270  Energy = -425.8939586612 Hartree
C       0.01931321      0.91166578      0.27639104
C      -0.39506606      0.89511325      1.72118509
C       0.82756808      0.74758336      2.64820444
C       0.49335868      0.89254962      4.07231782
C       1.77129829      0.71162311      4.96022129
C       1.60630083      1.15531346      6.37518560
O       0.73364167      1.86414925      6.85353883
O       2.67388320      0.68856260      7.11166930
C       2.59401658      0.99705051      8.50750958
H      -0.82988016      0.96929024     -0.35763741
H       0.71354789      1.70024294      0.01519808
H       0.42352441     -0.10414732      0.01590405
H      -1.18430198      0.11341828      1.86836511
H      -0.86555002      1.79413517      2.07487303
H       1.33409726     -0.20637546      2.48973939
H       1.62579886      1.47884123      2.42643664
H       0.03208210      1.79864855      4.40634353
H      -0.16224101      0.02383837      4.33756902
H       2.18672198     -0.33338463      4.97639124
H       2.67791678      1.21937121      4.59312635
H       3.43877039      0.49358756      8.98627460
H       1.63787546      0.70395884      8.93482377
H       2.71641282      2.11037461      8.68300454
23
Frame 275  Energy = -425.8943130387 Hartree
C       0.01890464      0.90891793      0.27672362
C      -0.39424064      0.89574177      1.71841294
C       0.82519697      0.74766435      2.64844106
C       0.49404604      0.89533634      4.07180038
C       1.77020604      0.71081515      4.96210354
C       1.60953235      1.15575365      6.37803890
O       0.73345094      1.86450446      6.85535059
O       2.67463596      0.68880329      7.11062257
C       2.59334246      0.99732109      8.50763755
H      -0.82839911      0.96773759     -0.35625008
H       0.70896752      1.69543744      0.01892978
H       0.42680194     -0.09704117      0.01800933
H      -1.17408441      0.11455291      1.87386359
H      -0.87777967      1.78272731      2.07190713
H       1.34344640     -0.20553498      2.48988108
H       1.62188910      1.47461461      2.41981286
H       0.03975828      1.80268644      4.40188489
H      -0.15277062      0.02089857      4.33513281
H       2.18441053     -0.33539100      4.97365197
H       2.67388617      1.22218951      4.58987914
H       3.44902526      0.50216973      8.99003916
H       1.63370233      0.71521191      8.93347818
H       2.71624711      2.10672458      8.68202421
23
Frame 280  Energy = -425.8945389340 Hartree
C       0.01862459      0.90601167      0.27698497
C      -0.39331477      0.89617653      1.71594450
C       0.82298373      0.74774631      2.64845830
C       0.49495937      0.89753886      4.07172945
C       1.76911309      0.70985207      4.96397606
C       1.61271008      1.15629116      6.38108442
O       0.73344924      1.86468295      6.85704692
O       2.67526387      0.68914706      7.10959544
C       2.59278587      0.99790527      8.50784947
H      -0.82891222      0.96721937     -0.35619860
H       0.70513349      1.69088427      0.02263562
H       0.43072615     -0.08819249      0.02064524
H      -1.16203762      0.11602956      1.87980226
H      -0.89076416      1.77341198      2.06808374
H       1.35184249     -0.20466617      2.48982990
H       1.61705179      1.47014369      2.41249738
H       0.04638718      1.80792259      4.39671746
H      -0.14310126      0.02023312      4.33295055
H       2.18003430     -0.33555125      4.97117889
H       2.66852724      1.22577405      4.58631859
H       3.45781427      0.51052294      8.99339008
H       1.62953958      0.72563302      8.93211802
H       2.71582143      2.10031438      8.68002650
23
Frame 285  Energy = -425.8947555687 Hartree
C       0.01840812      0.90293001      0.27716337
C      -0.39223672      0.89648712      1.71363130
C       0.82093403      0.74778121      2.64818446
C       0.49606286      0.89925377      4.07209007
C       1.76797828      0.70863098      4.96567478
C       1.61574410      1.15688796      6.38431221
O       0.73370104      1.86471331      6.85866676
O       2.67574496      0.68953318      7.10863491
C       2.59249548      0.99880849      8.50811460
H      -0.83121205      0.96774242     -0.35755799
H       0.70223952      1.68687240      0.02621826
H       0.43532045     -0.07808707      0.02376259
H      -1.14871794      0.11781738      1.88574041
H      -0.90464303      1.76644156      2.06349829
H       1.35906785     -0.20382232      2.48960965
H       1.61145899      1.46615359      2.40448798
H       0.05180105      1.81454857      4.39097376
H      -0.13346352      0.02189604      4.33087229
H       2.17345269     -0.33383478      4.96890206
H       2.66205518      1.23051024      4.58270531
H       3.46505553      0.51875537      8.99615143
H       1.62587489      0.73525206      8.93088140
H       2.71500563      2.09162803      8.67723069
23
Frame 290  Energy = -425.8948700596 Hartree
C       0.01808666      0.89975732      0.27735676
C      -0.39103347      0.89664856      1.71166015
C       0.81910613      0.74767308      2.64761809
C       0.49731076      0.90053318      4.07283986
C       1.76688102      0.70725693      4.96719449
C       1.61860582      1.15756503      6.38773569
O       0.73415167      1.86463325      6.86027877
O       2.67602634      0.68992897      7.10775081
C       2.59237663      0.99989388      8.50844926
H      -0.83550676      0.96904634     -0.36043502
H       0.70020488      1.68404656      0.02970544
H       0.44085620     -0.06717957      0.02729103
H      -1.13430068      0.11941264      1.89169997
H      -0.91903392      1.76179287      2.05821794
H       1.36536893     -0.20295951      2.48951205
H       1.60508170      1.46301030      2.39576621
H       0.05594638      1.82245015      4.38482916
H      -0.12455859      0.02539614      4.32930237
H       2.16464465     -0.33068736      4.96699943
H       2.65431592      1.23586278      4.57898209
H       3.46995819      0.52711249      8.99801431
H       1.62284407      0.74396560      8.92974141
H       2.71382489      2.08127719      8.67393692
23
Frame 295  Energy = -425.8948145886 Hartree
C       0.01765627      0.89647930      0.27757494
C      -0.38970988      0.89670830      1.70997850
C       0.81754699      0.74746482      2.64673004
C       0.49886924      0.90150162      4.07412254
C       1.76587763      0.70589697      4.96854625
C       1.62133464      1.15831406      6.39126566
O       0.73484934      1.86435255      6.86183392
O       2.67616889      0.69026431      7.10699923
C       2.59253040      1.00115550      8.50884683
H      -0.84146810      0.97129200     -0.36433289
H       0.69947851      1.68201957      0.03305173
H       0.44747861     -0.05650040      0.03088149
H      -1.11926855      0.12027118      1.89765369
H      -0.93380489      1.75942356      2.05181574
H       1.37051066     -0.20170101      2.48919723
H       1.59798249      1.46081105      2.38629265
H       0.05891751      1.83155015      4.37832959
H      -0.11679962      0.03068843      4.32874335
H       2.15435383     -0.32624303      4.96529224
H       2.64558190      1.24183563      4.57524488
H       3.47256785      0.53534808      8.99930228
H       1.62018535      0.75194514      8.92883460
H       2.71206225      2.07081225      8.67019022
23
Frame 300  Energy = -425.8947646793 Hartree
C       0.01712681      0.89316200      0.27778172
C      -0.38828993      0.89679641      1.70846442
C       0.81621911      0.74722117      2.64551527
C       0.50064249      0.90219180      4.07587028
C       1.76490904      0.70454033      4.96976247
C       1.62398145      1.15926928      6.39480580
O       0.73581372      1.86379614      6.86336574
O       2.67618173      0.69060757      7.10627751
C       2.59296810      1.00253413      8.50930731
H      -0.84838783      0.97436267     -0.36907099
H       0.70010527      1.68081724      0.03603113
H       0.45540465     -0.04667836      0.03406926
H      -1.10431316      0.11977058      1.90394293
H      -0.94887843      1.75874580      2.04445926
H       1.37381273     -0.20040735      2.48848652
H       1.59074234      1.45949316      2.37614882
H       0.06081409      1.84129562      4.37162084
H      -0.11036434      0.03725360      4.32869340
H       2.14288737     -0.32114959      4.96351544
H       2.63591644      1.24842601      4.57134676
H       3.47310133      0.54368526      8.99980378
H       1.61816669      0.75879951      8.92811012
H       2.70972167      2.06078525      8.66578948
