23
Frame 5  Energy = -425.8925894483 Hartree
C       0.00098950      1.11426947      0.11865727
C      -0.22154211      1.31567218      1.60148936
C       0.88975552      0.70995160      2.51535587
C       0.65571920      1.03034011      3.98837627
C       1.84552028      0.67005747      4.85784043
C       1.59099875      1.02613472      6.30706986
O       0.75541734      1.71599239      6.77784902
O       2.58155848      0.46288211      7.10893858
C       2.53415307      0.79861872      8.48319289
H      -0.82469073      1.46114174     -0.46555409
H       0.86728504      1.60978543     -0.27152134
H       0.17178031      0.04597825     -0.12734616
H      -1.12701787      0.85141081      1.93017534
H      -0.27160922      2.37670843      1.80042106
H       0.98619578     -0.39946909      2.32286767
H       1.78022584      1.19756746      2.15998481
H       0.43641093      2.07138684      3.98413352
H      -0.27303186      0.67218671      4.45860876
H       2.07590717     -0.39991791      4.70057265
H       2.78451803      1.12342000      4.51687332
H       3.40385804      0.35464956      8.94224969
H       1.68737472      0.35126635      8.97861423
H       2.54683424      1.91265761      8.62309573
23
Frame 10  Energy = -425.8925052437 Hartree
C       0.00076227      1.11412457      0.11959884
C      -0.22148245      1.31218406      1.60104248
C       0.88774589      0.70798466      2.51542468
C       0.65518644      1.02863931      3.99093572
C       1.84262421      0.66811503      4.85654382
C       1.59197080      1.02799039      6.30661151
O       0.75479020      1.71803565      6.77820351
O       2.58408588      0.46218665      7.11123337
C       2.53203158      0.80018409      8.48203564
H      -0.83296045      1.46049081     -0.46891986
H       0.87009485      1.61678844     -0.27056520
H       0.16675215      0.05240722     -0.12884750
H      -1.13019957      0.85304627      1.92993554
H      -0.27628948      2.37952756      1.80287310
H       0.99358044     -0.39479767      2.31971430
H       1.77686332      1.19394321      2.15972611
H       0.43972921      2.07254138      3.98076897
H      -0.26627684      0.66068331      4.46514068
H       2.08322085     -0.39246115      4.69165877
H       2.78059313      1.13508007      4.52594661
H       3.41112801      0.35994377      8.94299549
H       1.68147540      0.35891125      8.97543585
H       2.54219043      1.90489501      8.62699520
23
Frame 15  Energy = -425.8924784544 Hartree
C       0.00059796      1.11385152      0.12050932
C      -0.22122847      1.30868726      1.60076669
C       0.88546739      0.70585483      2.51525555
C       0.65467005      1.02696822      3.99340387
C       1.83980075      0.66612321      4.85515826
C       1.59347164      1.02966441      6.30637880
O       0.75398931      1.72017531      6.77861150
O       2.58656574      0.46149254      7.11334359
C       2.53005112      0.80186705      8.48108281
H      -0.84214901      1.45984708     -0.47253012
H       0.87381131      1.62511542     -0.26933144
H       0.16102224      0.05941375     -0.13014099
H      -1.13558430      0.85433944      1.92939416
H      -0.28156741      2.38252180      1.80565724
H       1.00052918     -0.38812054      2.31698708
H       1.77513059      1.19016531      2.16003004
H       0.44391894      2.07617336      3.97873291
H      -0.25876630      0.64811558      4.47017913
H       2.08982650     -0.38470134      4.68434882
H       2.77598071      1.14768320      4.53528143
H       3.41881358      0.36572281      8.94311817
H       1.67423544      0.36699364      8.97204733
H       2.53692968      1.89507467      8.63042707
23
Frame 20  Energy = -425.8924010591 Hartree
C       0.00037252      1.11344563      0.12132758
C      -0.22079782      1.30519230      1.60068266
C       0.88297860      0.70361039      2.51484893
C       0.65409000      1.02539509      3.99572219
C       1.83714734      0.66410655      4.85367822
C       1.59543326      1.03114286      6.30632326
O       0.75298128      1.72237753      6.77905469
O       2.58891373      0.46089018      7.11525273
C       2.52821395      0.80360977      8.48034477
H      -0.85136183      1.45918231     -0.47553571
H       0.87788202      1.63417813     -0.26753288
H       0.15465269      0.06651740     -0.13141539
H      -1.14295632      0.85538792      1.92863465
H      -0.28675196      2.38509335      1.80876047
H       1.00720539     -0.38013984      2.31453205
H       1.77545982      1.18681211      2.16108317
H       0.44852051      2.08223035      3.97806963
H      -0.25067248      0.63396389      4.47385148
H       2.09595908     -0.37718021      4.67867759
H       2.77031175      1.16116724      4.54489896
H       3.42631166      0.37181663      8.94275949
H       1.66606203      0.37512825      8.96878347
H       2.53151397      1.88398362      8.63379846
23
Frame 25  Energy = -425.8924901535 Hartree
C       0.00014450      1.11291996      0.12199403
C      -0.22028195      1.30170940      1.60076779
C       0.88034124      0.70129109      2.51424114
C       0.65337877      1.02394762      3.99785957
C       1.83448517      0.66219615      4.85225207
C       1.59779820      1.03244225      6.30643243
O       0.75182661      1.72468921      6.77951928
O       2.59115503      0.46034286      7.11700222
C       2.52651021      0.80533396      8.47971251
H      -0.86029613      1.45835045     -0.47776235
H       0.88173440      1.64361125     -0.26479184
H       0.14810467      0.07321370     -0.13273469
H      -1.15151190      0.85624016      1.92737048
H      -0.29199718      2.38686471      1.81195421
H       1.01364051     -0.37134972      2.31234373
H       1.77797896      1.18374131      2.16242215
H       0.45371565      2.08966821      3.97879715
H      -0.24244241      0.61869984      4.47618035
H       2.10130233     -0.36997204      4.67419721
H       2.76330633      1.17516139      4.55468152
H       3.43314277      0.37809899      8.94207309
H       1.65701532      0.38328300      8.96577344
H       2.52594501      1.87272175      8.63720057
23
Frame 30  Energy = -425.8922885681 Hartree
C      -0.00007832      1.11241239      0.12244272
C      -0.21981043      1.29830878      1.60107218
C       0.87754460      0.69898544      2.51356466
C       0.65262177      1.02263769      3.99980839
C       1.83183442      0.66038681      4.85078519
C       1.60042363      1.03344544      6.30665682
O       0.75055246      1.72701147      6.78005813
O       2.59328239      0.45989569      7.11853540
C       2.52504408      0.80696866      8.47926895
H      -0.86846695      1.45732499     -0.47915117
H       0.88476602      1.65275287     -0.26123348
H       0.14152765      0.07901305     -0.13415240
H      -1.16103201      0.85723390      1.92554960
H      -0.29691681      2.38731118      1.81538759
H       1.01965221     -0.36181787      2.31041003
H       1.78205786      1.18122205      2.16448340
H       0.45974027      2.09786481      3.98096091
H      -0.23425416      0.60239948      4.47706164
H       2.10619384     -0.36357011      4.67096717
H       2.75513280      1.18942303      4.56437017
H       3.43901544      0.38478550      8.94063590
H       1.64745556      0.39135806      8.96255851
H       2.52062689      1.86217368      8.64041966
23
Frame 35  Energy = -425.8921490149 Hartree
C      -0.00029531      1.11205716      0.12274146
C      -0.21932412      1.29504546      1.60161651
C       0.87454627      0.69678557      2.51282150
C       0.65184212      1.02141169      4.00152535
C       1.82926853      0.65869363      4.84938793
C       1.60332830      1.03420049      6.30709236
O       0.74917565      1.72935265      6.78050075
O       2.59531163      0.45952621      7.11980594
C       2.52369888      0.80829723      8.47913708
H      -0.87539340      1.45578620     -0.47955230
H       0.88705764      1.66153495     -0.25691647
H       0.13481853      0.08328714     -0.13572819
H      -1.17109014      0.85848745      1.92325002
H      -0.30190836      2.38630474      1.81874033
H       1.02515004     -0.35246081      2.30846209
H       1.78712242      1.17914659      2.16739102
H       0.46638384      2.10613180      3.98452543
H      -0.22645409      0.58524547      4.47660300
H       2.11087970     -0.35894170      4.66908280
H       2.74649213      1.20409716      4.57384541
H       3.44350402      0.39172334      8.93877863
H       1.63738227      0.39910950      8.95893812
H       2.51515164      1.85323958      8.64359504
23
Frame 40  Energy = -425.8921626569 Hartree
C      -0.00056919      1.11188743      0.12291933
C      -0.21884551      1.29183624      1.60233204
C       0.87142770      0.69472745      2.51202044
C       0.65110944      1.02032613      4.00310503
C       1.82685909      0.65717914      4.84803456
C       1.60645813      1.03462613      6.30784185
O       0.74779097      1.73169451      6.78086905
O       2.59720913      0.45930091      7.12087696
C       2.52248590      0.80929690      8.47930727
H      -0.88058518      1.45387083     -0.47860412
H       0.88808307      1.66975467     -0.25191478
H       0.12833476      0.08576330     -0.13718167
H      -1.18143429      0.86003545      1.92035966
H      -0.30667623      2.38354697      1.82211886
H       1.03034093     -0.34407427      2.30708385
H       1.79293889      1.17733753      2.17092219
H       0.47342017      2.11355644      3.98938773
H      -0.21915704      0.56764663      4.47479600
H       2.11529971     -0.35602129      4.66868259
H       2.73722911      1.21881709      4.58313994
H       3.44621149      0.39933876      8.93645001
H       1.62720650      0.40630412      8.95522152
H       2.50985401      1.84740487      8.64689132
23
Frame 45  Energy = -425.8922969918 Hartree
C      -0.00092224      1.11195090      0.12306697
C      -0.21851990      1.28864585      1.60320307
C       0.86825091      0.69294752      2.51103097
C       0.65042248      1.01945410      4.00443631
C       1.82468210      0.65591256      4.84687391
C       1.60976947      1.03473461      6.30892702
O       0.74643537      1.73399172      6.78113715
O       2.59895792      0.45922449      7.12174815
C       2.52145044      0.81002470      8.47970154
H      -0.88385403      1.45178968     -0.47617636
H       0.88786125      1.67746512     -0.24582307
H       0.12265968      0.08609290     -0.13890228
H      -1.19148499      0.86201061      1.91707608
H      -0.31108357      2.37880488      1.82530043
H       1.03536658     -0.33742262      2.30598452
H       1.79909085      1.17567361      2.17497676
H       0.48027359      2.12000988      3.99543257
H      -0.21229871      0.54988609      4.47196354
H       2.11965178     -0.35542920      4.66941015
H       2.72694791      1.23397983      4.59153352
H       3.44719896      0.40707019      8.93354784
H       1.61768048      0.41270496      8.95134876
H       2.50481013      1.84533348      8.64959019
23
Frame 50  Energy = -425.8925800417 Hartree
C      -0.00134265      1.11218182      0.12294177
C      -0.21842892      1.28550513      1.60425737
C       0.86514384      0.69145943      2.51002506
C       0.64972714      1.01892670      4.00537845
C       1.82266850      0.65490634      4.84589770
C       1.61320466      1.03456736      6.31034191
O       0.74516318      1.73627714      6.78129574
O       2.60049409      0.45917791      7.12234282
C       2.52053532      0.81046031      8.48034053
H      -0.88552745      1.44953290     -0.47238353
H       0.88621544      1.68392062     -0.23900110
H       0.11778765      0.08441636     -0.14121647
H      -1.20082960      0.86435279      1.91318165
H      -0.31534457      2.37228444      1.82831919
H       1.04014911     -0.33338611      2.30464881
H       1.80511849      1.17413298      2.17979070
H       0.48716895      2.12430439      4.00286145
H      -0.20608560      0.53200053      4.46780896
H       2.12430675     -0.35710749      4.67126129
H       2.71599109      1.24913733      4.59909213
H       3.44661961      0.41490637      8.93035988
H       1.60918552      0.41866854      8.94769466
H       2.49963949      1.84681770      8.65202083
23
Frame 55  Energy = -425.8927214719 Hartree
C      -0.00185130      1.11266922      0.12258162
C      -0.21853545      1.28245031      1.60552557
C       0.86220644      0.69027561      2.50906058
C       0.64897067      1.01864535      4.00613341
C       1.82088277      0.65422442      4.84517233
C       1.61668231      1.03421401      6.31199828
O       0.74397090      1.73851880      6.78129787
O       2.60187805      0.45924097      7.12270606
C       2.51972999      0.81064141      8.48113595
H      -0.88562975      1.44731010     -0.46716500
H       0.88305792      1.68886758     -0.23144071
H       0.11409905      0.08091540     -0.14381077
H      -1.20914484      0.86696973      1.90868201
H      -0.31924200      2.36410510      1.83083175
H       1.04465141     -0.33217778      2.30343831
H       1.81081221      1.17215861      2.18535433
H       0.49410613      2.12603307      4.01125041
H      -0.20086914      0.51464886      4.46250769
H       2.12910071     -0.36062530      4.67398331
H       2.70463505      1.26426515      4.60570175
H       3.44462793      0.42261848      8.92741296
H       1.60184722      0.42390098      8.94389366
H       2.49467704      1.85193378      8.65415716
23
Frame 60  Energy = -425.8929627546 Hartree
C      -0.00244388      1.11326167      0.12210408
C      -0.21883270      1.27941100      1.60696810
C       0.85941544      0.68942637      2.50816660
C       0.64809971      1.01868426      4.00675743
C       1.81924409      0.65381984      4.84468287
C       1.62010031      1.03364980      6.31392763
O       0.74296465      1.74065537      6.78120230
O       2.60309325      0.45946933      7.12277543
C       2.51905678      0.81052477      8.48209886
H      -0.88411677      1.44513184     -0.46094815
H       0.87845091      1.69256330     -0.22359892
H       0.11120978      0.07597057     -0.14656411
H      -1.21585746      0.86989514      1.90362939
H      -0.32254002      2.35458449      1.83286122
H       1.04902206     -0.33374799      2.30239217
H       1.81577472      1.16998277      2.19148445
H       0.50073632      2.12552299      4.02065577
H      -0.19669998      0.49758155      4.45632702
H       2.13409200     -0.36560417      4.67806331
H       2.69298208      1.27896847      4.61174673
H       3.44120602      0.42999584      8.92456680
H       1.59550013      0.42831970      8.93986692
H       2.49019321      1.86026223      8.65602964
23
Frame 65  Energy = -425.8932593632 Hartree
C      -0.00301821      1.11391863      0.12142606
C      -0.21929772      1.27648310      1.60850358
C       0.85680168      0.68888767      2.50735987
C       0.64710389      1.01894427      4.00718098
C       1.81779599      0.65368071      4.84436581
C       1.62336700      1.03295830      6.31611900
O       0.74212648      1.74265578      6.78103912
O       2.60405234      0.45979841      7.12258133
C       2.51847889      0.81034806      8.48318562
H      -0.88125263      1.44341431     -0.45381029
H       0.87263356      1.69505848     -0.21572775
H       0.10899121      0.06981228     -0.14928225
H      -1.22077923      0.87312273      1.89819922
H      -0.32541656      2.34407016      1.83481758
H       1.05278087     -0.33841759      2.30151594
H       1.81963062      1.16743894      2.19805602
H       0.50636525      2.12295040      4.03097420
H      -0.19389985      0.48108499      4.44947246
H       2.13927159     -0.37140039      4.68321610
H       2.68135541      1.29316109      4.61703203
H       3.43673697      0.43680930      8.92206280
H       1.59052788      0.43225701      8.93573124
H       2.48605082      1.87084195      8.65729497
23
Frame 70  Energy = -425.8933232126 Hartree
C      -0.00368444      1.11454029      0.12063520
C      -0.21998353      1.27366499      1.61005878
C       0.85437863      0.68856616      2.50653363
C       0.64605609      1.01929101      4.00740857
C       1.81660009      0.65373881      4.84432450
C       1.62656581      1.03222874      6.31849942
O       0.74144038      1.74450083      6.78067624
O       2.60475470      0.46019790      7.12219158
C       2.51789216      0.81018226      8.48445320
H      -0.87784777      1.44193872     -0.44625717
H       0.86580850      1.69646940     -0.20750812
H       0.10804283      0.06276403     -0.15196454
H      -1.22381117      0.87705348      1.89242086
H      -0.32812401      2.33357492      1.83683072
H       1.05531275     -0.34587388      2.30078220
H       1.82222339      1.16468580      2.20520572
H       0.51143196      2.11873556      4.04229476
H      -0.19202896      0.46584355      4.44187212
H       2.14464247     -0.37731629      4.68873438
H       2.67018825      1.30691028      4.62129713
H       3.43177205      0.44297374      8.92006217
H       1.58685744      0.43571595      8.93151490
H       2.48220960      1.88260913      8.65758368
23
Frame 75  Energy = -425.8931741471 Hartree
C      -0.00435266      1.11518254      0.11990914
C      -0.22087521      1.27089474      1.61167430
C       0.85206166      0.68853459      2.50585787
C       0.64498315      1.01970107      4.00744101
C       1.81563254      0.65400853      4.84459811
C       1.62953374      1.03139410      6.32117635
O       0.74091202      1.74611486      6.78023080
O       2.60530172      0.46065111      7.12164294
C       2.51718866      0.81005785      8.48585456
H      -0.87440145      1.44099852     -0.43837417
H       0.85826246      1.69698637     -0.19965341
H       0.10783126      0.05552393     -0.15452510
H      -1.22549920      0.88088256      1.88615238
H      -0.33033123      2.32347444      1.83875331
H       1.05669599     -0.35502805      2.30034387
H       1.82351949      1.16159187      2.21319584
H       0.51541800      2.11289029      4.05487439
H      -0.19065685      0.45197276      4.43337432
H       2.14994299     -0.38252528      4.69520290
H       2.65895208      1.32025268      4.62412084
H       3.42677343      0.44793025      8.91888535
H       1.58394402      0.43880293      8.92726143
H       2.47881075      1.89454500      8.65675326
23
Frame 80  Energy = -425.8934003106 Hartree
C      -0.00503496      1.11570539      0.11909632
C      -0.22196968      1.26810229      1.61333205
C       0.84997802      0.68879745      2.50532221
C       0.64389928      1.02011744      4.00715430
C       1.81496802      0.65441609      4.84508123
C       1.63227171      1.03044003      6.32409069
O       0.74065212      1.74743318      6.77969437
O       2.60574539      0.46123821      7.12082063
C       2.51638779      0.81004339      8.48733933
H      -0.87118209      1.44074202     -0.43058893
H       0.85063901      1.69663413     -0.19258218
H       0.10782568      0.04887758     -0.15681928
H      -1.22621305      0.88418393      1.87991643
H      -0.33183852      2.31442102      1.84073389
H       1.05709733     -0.36489110      2.29995294
H       1.82349264      1.15833255      2.22174542
H       0.51812190      2.10585635      4.06831570
H      -0.19010693      0.43953883      4.42406970
H       2.15509362     -0.38651387      4.70280651
H       2.64813203      1.33265820      4.62545681
H       3.42205943      0.45140236      8.91884681
H       1.58221422      0.44156467      8.92316532
H       2.47514443      1.90606650      8.65489745
23
Frame 85  Energy = -425.8935064608 Hartree
C      -0.00570808      1.11606947      0.11825165
C      -0.22328990      1.26521754      1.61501430
C       0.84824934      0.68919748      2.50488998
C       0.64283198      1.02054275      4.00673227
C       1.81461900      0.65489469      4.84585392
C       1.63485466      1.02935465      6.32726156
O       0.74071464      1.74856022      6.77895079
O       2.60607421      0.46193043      7.11976316
C       2.51551070      0.81036763      8.48889137
H      -0.86887588      1.44148961     -0.42357933
H       0.84368949      1.69591030     -0.18637828
H       0.10863382      0.04362817     -0.15879482
H      -1.22571234      0.88714974      1.87354960
H      -0.33306901      2.30728502      1.84301142
H       1.05629886     -0.37528913      2.30017967
H       1.82229167      1.15487289      2.23073129
H       0.51964775      2.09808274      4.08239355
H      -0.19030839      0.42894728      4.41394081
H       2.16001722     -0.38880853      4.71115711
H       2.63834068      1.34390036      4.62562196
H       3.41828240      0.45382413      8.92031763
H       1.58187808      0.44350263      8.91916729
H       2.47153270      1.91615337      8.65190072
23
Frame 90  Energy = -425.8936642386 Hartree
C      -0.00636785      1.11626058      0.11755372
C      -0.22478644      1.26220187      1.61666095
C       0.84686180      0.68970611      2.50455489
C       0.64176139      1.02084263      4.00613296
C       1.81465455      0.65541033      4.84683462
C       1.63718136      1.02832605      6.33057763
O       0.74103794      1.74949939      6.77810293
O       2.60623791      0.46280207      7.11850498
C       2.51444324      0.81103980      8.49047757
H      -0.86763484      1.44321341     -0.41750867
H       0.83798180      1.69515184     -0.18113901
H       0.11036775      0.03999093     -0.16068925
H      -1.22445896      0.88943381      1.86725873
H      -0.33371491      2.30189115      1.84566873
H       1.05431608     -0.38535575      2.30150499
H       1.81976126      1.15134973      2.23978254
H       0.51988597      2.09041186      4.09680605
H      -0.19089321      0.42029210      4.40278917
H       2.16457191     -0.38950939      4.72010369
H       2.62926166      1.35401104      4.62444073
H       3.41583573      0.45477124      8.92356436
H       1.58233911      0.44454104      8.91511726
H       2.46848768      1.92426852      8.64743129
23
Frame 95  Energy = -425.8939469394 Hartree
C      -0.00697442      1.11615635      0.11703941
C      -0.22640286      1.25916048      1.61823208
C       0.84572123      0.69025130      2.50434609
C       0.64063963      1.02076854      4.00540941
C       1.81501410      0.65603025      4.84811018
C       1.63923607      1.02732496      6.33396630
O       0.74164921      1.75028104      6.77713293
O       2.60622345      0.46377843      7.11704756
C       2.51330862      0.81212674      8.49209893
H      -0.86812473      1.44598633     -0.41215256
H       0.83422364      1.69501195     -0.17699004
H       0.11272202      0.03856151     -0.16200921
H      -1.22280643      0.89058728      1.86112450
H      -0.33374998      2.29864684      1.84869386
H       1.05127748     -0.39424410      2.30383547
H       1.81578172      1.14757996      2.24839583
H       0.51858395      2.08311715      4.11113351
H      -0.19175980      0.41331089      4.39101135
H       2.16884890     -0.38822373      4.72944258
H       2.62108342      1.36278808      4.62220865
H       3.41438981      0.45455592      8.92809048
H       1.58332481      0.44410625      8.91149183
H       2.46606242      1.92980207      8.64210658
23
Frame 100  Energy = -425.8939944338 Hartree
C      -0.00760788      1.11570366      0.11665761
C      -0.22818025      1.25614699      1.61971683
C       0.84481114      0.69070536      2.50412043
C       0.63953146      1.02038985      4.00454603
C       1.81561163      0.65675599      4.84965850
C       1.64098760      1.02627174      6.33733990
O       0.74255415      1.75084814      6.77604030
O       2.60602346      0.46486192      7.11540671
C       2.51220119      0.81362325      8.49376237
H      -0.87036142      1.45005420     -0.40797416
H       0.83266231      1.69538505     -0.17377047
H       0.11538423      0.03924803     -0.16281279
H      -1.22130458      0.89039713      1.85547242
H      -0.33328567      2.29762941      1.85198853
H       1.04722497     -0.40127529      2.30710323
H       1.81109951      1.14370900      2.25680735
H       0.51528957      2.07655594      4.12558164
H      -0.19320791      0.40783689      4.37872319
H       2.17273689     -0.38512621      4.73904020
H       2.61378122      1.37056206      4.61913107
H       3.41380465      0.45330500      8.93379420
H       1.58454987      0.44266606      8.90860104
H       2.46406495      1.93290142      8.63565611
23
Frame 105  Energy = -425.8939620531 Hartree
C      -0.00827149      1.11485451      0.11637720
C      -0.23003429      1.25325639      1.62115855
C       0.84420846      0.69103571      2.50401341
C       0.63838189      1.01970664      4.00365061
C       1.81630762      0.65753400      4.85145181
C       1.64240377      1.02528165      6.34071475
O       0.74370554      1.75122723      6.77480955
O       2.60569864      0.46605080      7.11367370
C       2.51104368      0.81551054      8.49539865
H      -0.87396152      1.45526902     -0.40465460
H       0.83302662      1.69617031     -0.17191458
H       0.11875926      0.04214575     -0.16327659
H      -1.21975302      0.88884567      1.85019215
H      -0.33240077      2.29845547      1.85589211
H       1.04201945     -0.40625616      2.31107821
H       1.80663091      1.14005425      2.26448921
H       0.50997979      2.07120378      4.14012010
H      -0.19529319      0.40399899      4.36634600
H       2.17654357     -0.38019443      4.74893380
H       2.60758698      1.37720117      4.61506767
H       3.41368693      0.45111602      8.94053623
H       1.58611377      0.44045663      8.90633599
H       2.46262642      1.93368009      8.62807188
23
Frame 110  Energy = -425.8943111240 Hartree
C      -0.00896613      1.11360509      0.11618219
C      -0.23197782      1.25049196      1.62247355
C       0.84385331      0.69117633      2.50400978
C       0.63727669      1.01861708      4.00271236
C       1.81723002      0.65838755      4.85350567
C       1.64355583      1.02454022      6.34411151
O       0.74506401      1.75143459      6.77348916
O       2.60523422      0.46734433      7.11186095
C       2.50991214      0.81782166      8.49703580
H      -0.87865921      1.46136153     -0.40226871
H       0.83529092      1.69765312     -0.17111926
H       0.12276281      0.04709692     -0.16306460
H      -1.21868559      0.88591393      1.84555811
H      -0.33120845      2.30086440      1.86004112
H       1.03553625     -0.40872994      2.31590445
H       1.80228699      1.13669007      2.27118679
H       0.50287904      2.06753134      4.15483308
H      -0.19779519      0.40157839      4.35391230
H       2.18056822     -0.37397092      4.75895095
H       2.60258165      1.38266497      4.60992356
H       3.41375713      0.44846602      8.94852154
H       1.58763484      0.43725947      8.90488869
H       2.46182025      1.93180358      8.61966114
23
Frame 115  Energy = -425.8945056327 Hartree
C      -0.00967399      1.11211407      0.11605939
C      -0.23404739      1.24793305      1.62356472
C       0.84375668      0.69112796      2.50417249
C       0.63620593      1.01723061      4.00168416
C       1.81840330      0.65933922      4.85576563
C       1.64441857      1.02398820      6.34746445
O       0.74672541      1.75137833      6.77213478
O       2.60464796      0.46867275      7.11007172
C       2.50874664      0.82044129      8.49860376
H      -0.88400323      1.46822844     -0.40073156
H       0.83938077      1.69961673     -0.17133093
H       0.12745899      0.05349524     -0.16269288
H      -1.21869808      0.88108700      1.84158877
H      -0.32975324      2.30441200      1.86456964
H       1.02784074     -0.40872511      2.32149627
H       1.79868895      1.13383745      2.27644515
H       0.49404991      2.06558144      4.16919312
H      -0.20088695      0.40068489      4.34163237
H       2.18420444     -0.36668433      4.76889749
H       2.59858541      1.38707995      4.60351839
H       3.41355377      0.44525460      8.95725167
H       1.58917493      0.43347553      8.90387488
H       2.46146727      1.92741904      8.61085804
23
Frame 120  Energy = -425.8944134344 Hartree
C      -0.01034342      1.11044198      0.11609954
C      -0.23616441      1.24564919      1.62447628
C       0.84384372      0.69099139      2.50454972
C       0.63506707      1.01558826      4.00068931
C       1.81976020      0.66042075      4.85838494
C       1.64502794      1.02354804      6.35062712
O       0.74868585      1.75109665      6.77073123
O       2.60405860      0.47000662      7.10825562
C       2.50770098      0.82320342      8.50011361
H      -0.88983434      1.47578480     -0.40017484
H       0.84442968      1.70211244     -0.17263283
H       0.13275692      0.06088603     -0.16234548
H      -1.22010261      0.87456161      1.83838052
H      -0.32789105      2.30865392      1.86930972
H       1.01914758     -0.40676391      2.32811268
H       1.79632890      1.13156091      2.28011931
H       0.48340253      2.06481122      4.18274536
H      -0.20487320      0.40106293      4.32989885
H       2.18762729     -0.35866455      4.77845643
H       2.59585878      1.39052558      4.59631432
H       3.41292539      0.44145203      8.96615496
H       1.59071966      0.42900238      8.90314482
H       2.46159887      1.92075669      8.60184392
23
Frame 125  Energy = -425.8942424743 Hartree
C      -0.01090386      1.10876535      0.11627471
C      -0.23831104      1.24346454      1.62528708
C       0.84389884      0.69074031      2.50514000
C       0.63386237      1.01360162      3.99972477
C       1.82124792      0.66163782      4.86120071
C       1.64530415      1.02321664      6.35366322
O       0.75087898      1.75052762      6.76933723
O       2.60346579      0.47137051      7.10643481
C       2.50675094      0.82613624      8.50151127
H      -0.89589018      1.48380914     -0.40046013
H       0.85055965      1.70502684     -0.17502421
H       0.13805601      0.06894155     -0.16202554
H      -1.22232539      0.86632926      1.83592199
H      -0.32574416      2.31306808      1.87389794
H       1.00958845     -0.40303166      2.33553984
H       1.79532627      1.12996582      2.28259240
H       0.47081818      2.06481648      4.19559411
H      -0.20976531      0.40284797      4.31853320
H       2.19088765     -0.35051628      4.78792706
H       2.59436148      1.39247581      4.58823890
H       3.41186972      0.43723858      8.97502804
H       1.59218741      0.42331158      8.90310425
H       2.46206323      1.91298568      8.59264303
23
Frame 130  Energy = -425.8939957276 Hartree
C      -0.01134219      1.10711022      0.11658704
C      -0.24055997      1.24145583      1.62590883
C       0.84403977      0.69025690      2.50589400
C       0.63256901      1.01126340      3.99868905
C       1.82288019      0.66311806      4.86420709
C       1.64530886      1.02293347      6.35654957
O       0.75326219      1.74972070      6.76801627
O       2.60288672      0.47285581      7.10463540
C       2.50590356      0.82908604      8.50280672
H      -0.90129886      1.49191285     -0.40128860
H       0.85676132      1.70764540     -0.17813922
H       0.14345265      0.07697129     -0.16186544
H      -1.22521585      0.85639585      1.83463072
H      -0.32320907      2.31715026      1.87786835
H       0.99914464     -0.39764688      2.34373091
H       1.79598704      1.12907962      2.28329300
H       0.45639308      2.06526574      4.20733821
H      -0.21554255      0.40592805      4.30794734
H       2.19478792     -0.34298474      4.79724369
H       2.59388349      1.39312752      4.57963900
H       3.40998817      0.43306202      8.98343875
H       1.59327273      0.41696284      8.90351420
H       2.46308287      1.90512514      8.58348788
23
Frame 135  Energy = -425.8936874464 Hartree
C      -0.01171601      1.10557260      0.11701049
C      -0.24289474      1.23958781      1.62641435
C       0.84419677      0.68972859      2.50682234
C       0.63119033      1.00867544      3.99761041
C       1.82460449      0.66486131      4.86740094
C       1.64498110      1.02274403      6.35930424
O       0.75583722      1.74882945      6.76674299
O       2.60229909      0.47434893      7.10288725
C       2.50518954      0.83207013      8.50399769
H      -0.90577236      1.49968860     -0.40213940
H       0.86261624      1.70952032     -0.18113082
H       0.14917808      0.08423777     -0.16200040
H      -1.22874991      0.84505136      1.83441850
H      -0.32055526      2.32033327      1.88108006
H       0.98767943     -0.39109631      2.35254228
H       1.79850979      1.12884835      2.28221786
H       0.44074061      2.06553575      4.21799133
H      -0.22237549      0.40983513      4.29833991
H       2.19926260     -0.33578315      4.80618772
H       2.59407991      1.39231914      4.57080426
H       3.40695877      0.42921593      8.99142013
H       1.59382776      0.41029604      8.90457219
H       2.46406917      1.89757572      8.57485650
23
Frame 140  Energy = -425.8940596883 Hartree
C      -0.01212218      1.10428279      0.11736781
C      -0.24531446      1.23797772      1.62674910
C       0.84438537      0.68916026      2.50789323
C       0.62969107      1.00585090      3.99663173
C       1.82641067      0.66673781      4.87076899
C       1.64447512      1.02258558      6.36185849
O       0.75855223      1.74776139      6.76547442
O       2.60174352      0.47581749      7.10126340
C       2.50459334      0.83492192      8.50502249
H      -0.90880788      1.50654747     -0.40287832
H       0.86771505      1.71058583     -0.18409447
H       0.15518292      0.08983955     -0.16277547
H      -1.23270388      0.83281238      1.83504302
H      -0.31810609      2.32205817      1.88409792
H       0.97587560     -0.38455083      2.36188208
H       1.80220181      1.12922704      2.27908925
H       0.42453180      2.06557094      4.22714153
H      -0.23013521      0.41453311      4.29003137
H       2.20436970     -0.32943537      4.81438418
H       2.59500961      1.38999794      4.56157310
H       3.40248286      0.42579321      8.99856898
H       1.59438288      0.40331006      8.90599508
H       2.46500197      1.89103269      8.56705115
23
Frame 145  Energy = -425.8940056742 Hartree
C      -0.01249497      1.10332853      0.11773859
C      -0.24779460      1.23652804      1.62698310
C       0.84461263      0.68852609      2.50922654
C       0.62805981      1.00302497      3.99567912
C       1.82828342      0.66889963      4.87435233
C       1.64371331      1.02247404      6.36415689
O       0.76123248      1.74656766      6.76418705
O       2.60113160      0.47734090      7.09977936
C       2.50400472      0.83744110      8.50593180
H      -0.91007751      1.51252511     -0.40335522
H       0.87172258      1.71070626     -0.18739309
H       0.16100569      0.09354826     -0.16426965
H      -1.23620105      0.82003284      1.83701216
H      -0.31611676      2.32258731      1.88631197
H       0.96375014     -0.37832325      2.37150467
H       1.80683660      1.13047594      2.27421737
H       0.40765859      2.06449140      4.23419124
H      -0.23863586      0.41943534      4.28261678
H       2.21031802     -0.32459781      4.82168221
H       2.59663316      1.38605959      4.55230249
H       3.39640205      0.42265939      9.00504386
H       1.59523070      0.39640538      8.90763428
H       2.46591736      1.88700768      8.56052152
23
Frame 150  Energy = -425.8942004585 Hartree
C      -0.01285707      1.10270098      0.11810295
C      -0.25030260      1.23534722      1.62723426
C       0.84493174      0.68796174      2.51082982
C       0.62635994      1.00010210      3.99484721
C       1.83007699      0.67143450      4.87810621
C       1.64273524      1.02237036      6.36612152
O       0.76393721      1.74540988      6.76300733
O       2.60061497      0.47888239      7.09840197
C       2.50347559      0.83961280      8.50673785
H      -0.90924377      1.51741844     -0.40358769
H       0.87406945      1.70944633     -0.19005004
H       0.16675912      0.09542850     -0.16652556
H      -1.23902372      0.80725430      1.83987151
H      -0.31445637      2.32158582      1.88739625
H       0.95139777     -0.37294390      2.38122725
H       1.81195068      1.13219334      2.26782243
H       0.39064250      2.06177614      4.23961095
H      -0.24774426      0.42438054      4.27644126
H       2.21707848     -0.32132940      4.82803481
H       2.59891452      1.38093231      4.54339027
H       3.38916425      0.42008827      9.01072807
H       1.59654530      0.38951157      8.90978935
H       2.46665790      1.88616024      8.55514514
23
Frame 155  Energy = -425.8942927989 Hartree
C      -0.01314792      1.10252614      0.11858737
C      -0.25284500      1.23440471      1.62751216
C       0.84539941      0.68758375      2.51271002
C       0.62457636      0.99720477      3.99406621
C       1.83181484      0.67423054      4.88186102
C       1.64155949      1.02225114      6.36775991
O       0.76654385      1.74420081      6.76196193
O       2.60028104      0.48050446      7.09722699
C       2.50300296      0.84140116      8.50747509
H      -0.90636612      1.52093102     -0.40342911
H       0.87486859      1.70700069     -0.19209641
H       0.17239072      0.09494738     -0.16971155
H      -1.24107555      0.79446470      1.84312301
H      -0.31329591      2.31891945      1.88761679
H       0.93934955     -0.36926730      2.39067060
H       1.81697592      1.13426047      2.26029507
H       0.37362535      2.05740799      4.24353932
H      -0.25739943      0.42928794      4.27164342
H       2.22472696     -0.31979788      4.83360274
H       2.60187449      1.37457851      4.53461672
H       3.38120596      0.41840236      9.01580422
H       1.59820817      0.38259389      8.91227468
H       2.46735310      1.88852680      8.55082398
23
Frame 160  Energy = -425.8944731437 Hartree
C      -0.01343150      1.10274925      0.11915321
C      -0.25540862      1.23370158      1.62780405
C       0.84606714      0.68739592      2.51473515
C       0.62286246      0.99423887      3.99340570
C       1.83336650      0.67724588      4.88561710
C       1.64024494      1.02224102      6.36899120
O       0.76902739      1.74295540      6.76106363
O       2.60004588      0.48218181      7.09626980
C       2.50259348      0.84286746      8.50812594
H      -0.90145812      1.52319428     -0.40313950
H       0.87402119      1.70336136     -0.19378124
H       0.17785091      0.09249232     -0.17366029
H      -1.24211725      0.78167486      1.84681570
H      -0.31273012      2.31462316      1.88723159
H       0.92759708     -0.36759848      2.39996788
H       1.82123697      1.13599303      2.25183605
H       0.35699954      2.05146606      4.24597723
H      -0.26713314      0.43390902      4.26825467
H       2.23290572     -0.31955696      4.83836748
H       2.60573640      1.36752095      4.52615311
H       3.37281954      0.41744445      9.02008008
H       1.60009658      0.37660014      8.91475772
H       2.46757647      1.89392941      8.54739719
23
Frame 165  Energy = -425.8944408582 Hartree
C      -0.01368412      1.10329939      0.11970073
C      -0.25803568      1.23319279      1.62807313
C       0.84690780      0.68743196      2.51683880
C       0.62113620      0.99118645      3.99278743
C       1.83478551      0.68042594      4.88935275
C       1.63889467      1.02231639      6.36979241
O       0.77145489      1.74177784      6.76026916
O       2.59983599      0.48382067      7.09552579
C       2.50217372      0.84403785      8.50879857
H      -0.89533422      1.52430806     -0.40257267
H       0.87185635      1.69900515     -0.19443735
H       0.18303956      0.08832698     -0.17819826
H      -1.24163388      0.76950681      1.85105124
H      -0.31292232      2.30892765      1.88620393
H       0.91592739     -0.36825256      2.40898594
H       1.82470943      1.13718467      2.24294127
H       0.34091983      2.04423293      4.24643637
H      -0.27685714      0.43804153      4.26584377
H       2.24131581     -0.32031603      4.84222004
H       2.61020560      1.35996596      4.51835571
H       3.36428008      0.41716540      9.02330672
H       1.60261252      0.37177822      8.91709825
H       2.46746983      1.90228392      8.54488962
23
Frame 170  Energy = -425.8943769743 Hartree
C      -0.01384299      1.10415114      0.12025713
C      -0.26067566      1.23282682      1.62829776
C       0.84797281      0.68773460      2.51898702
C       0.61919266      0.98819383      3.99226998
C       1.83617246      0.68374822      4.89305548
C       1.63765327      1.02239224      6.37005626
O       0.77376002      1.74067393      6.75961978
O       2.59969598      0.48549225      7.09505840
C       2.50170967      0.84489785      8.50939702
H      -0.88793598      1.52408950     -0.40211833
H       0.86861095      1.69411642     -0.19479982
H       0.18774894      0.08317763     -0.18292659
H      -1.23991622      0.75799502      1.85551161
H      -0.31385966      2.30235160      1.88417889
H       0.90459172     -0.37130669      2.41750938
H       1.82733342      1.13747497      2.23359658
H       0.32535120      2.03524238      4.24482870
H      -0.28624683      0.44185286      4.26465258
H       2.24909820     -0.32141515      4.84512402
H       2.61536498      1.35190129      4.51126498
H       3.35563852      0.41735776      9.02542723
H       1.60546836      0.36805412      8.91923208
H       2.46694652      1.91289827      8.54355091
23
Frame 175  Energy = -425.8944000485 Hartree
C      -0.01384359      1.10517266      0.12087288
C      -0.26331439      1.23255967      1.62850593
C       0.84916291      0.68822769      2.52115650
C       0.61708552      0.98528649      3.99191326
C       1.83754798      0.68713270      4.89679061
C       1.63654863      1.02233905      6.36980977
O       0.77595184      1.73968485      6.75916722
O       2.59970952      0.48709138      7.09481726
C       2.50112069      0.84551270      8.50986885
H      -0.87987969      1.52272819     -0.40171884
H       0.86448645      1.68875993     -0.19454394
H       0.19194881      0.07777235     -0.18764778
H      -1.23674240      0.74731805      1.86018225
H      -0.31577337      2.29537247      1.88176732
H       0.89422662     -0.37649790      2.42554403
H       1.82862259      1.13659533      2.22402612
H       0.31032813      2.02482946      4.24159073
H      -0.29530543      0.44494939      4.26459624
H       2.25623665     -0.32243418      4.84727071
H       2.62102451      1.34369681      4.50480891
H       3.34734132      0.41780826      9.02674676
H       1.60839404      0.36549866      8.92128321
H       2.46579113      1.92492579      8.54324342
23
Frame 180  Energy = -425.8943546205 Hartree
C      -0.01367847      1.10627060      0.12158672
C      -0.26597545      1.23231039      1.62863418
C       0.85046956      0.68889070      2.52332149
C       0.61482838      0.98242042      3.99166230
C       1.83884230      0.69043835      4.90047582
C       1.63557482      1.02221743      6.36901837
O       0.77796273      1.73894432      6.75885125
O       2.59984262      0.48864243      7.09485266
C       2.50046545      0.84609683      8.51019655
H      -0.87152890      1.52074630     -0.40142719
H       0.85941896      1.68342463     -0.19370836
H       0.19516879      0.07294126     -0.19210765
H      -1.23225886      0.73761121      1.86495254
H      -0.31869818      2.28876805      1.87852800
H       0.88498855     -0.38332083      2.43280610
H       1.82852065      1.13451897      2.21444009
H       0.29614014      2.01336432      4.23694243
H      -0.30392195      0.44703870      4.26525961
H       2.26261641     -0.32348703      4.84864635
H       2.62728449      1.33516420      4.49937895
H       3.33976614      0.41825318      9.02737625
H       1.61139459      0.36398815      8.92322378
H       2.46455074      1.93722176      8.54400168
23
Frame 185  Energy = -425.8941790864 Hartree
C      -0.01336563      1.10743843      0.12229830
C      -0.26866403      1.23200693      1.62870749
C       0.85186427      0.68978625      2.52546874
C       0.61241725      0.97956403      3.99160114
C       1.84004387      0.69365244      4.90398681
C       1.63488862      1.02199647      6.36773030
O       0.77980514      1.73831541      6.75861991
O       2.60003069      0.49019623      7.09516808
C       2.49980139      0.84667587      8.51038552
H      -0.86294603      1.51810269     -0.40157216
H       0.85389599      1.67830434     -0.19238396
H       0.19713915      0.06885297     -0.19608056
H      -1.22647206      0.72900786      1.87004719
H      -0.32292134      2.28247070      1.87496416
H       0.87669297     -0.39129386      2.43923243
H       1.82683045      1.13137192      2.20470446
H       0.28340353      2.00125178      4.23104442
H      -0.31153501      0.44796371      4.26692935
H       2.26813858     -0.32446048      4.84934530
H       2.63386841      1.32661651      4.49474133
H       3.33336856      0.41870382      9.02782078
H       1.61415888      0.36382904      8.92488869
H       2.46330052      1.94896363      8.54583651
23
Frame 190  Energy = -425.8942905303 Hartree
C      -0.01291878      1.10843163      0.12315162
C      -0.27125891      1.23159740      1.62869883
C       0.85322776      0.69073697      2.52761903
C       0.60988009      0.97674035      3.99179775
C       1.84114008      0.69679333      4.90729577
C       1.63442559      1.02163964      6.36605678
O       0.78138908      1.73791115      6.75857932
O       2.60031041      0.49175920      7.09571794
C       2.49905737      0.84733049      8.51043891
H      -0.85489499      1.51495113     -0.40239742
H       0.84858267      1.67363906     -0.19046961
H       0.19791923      0.06570504     -0.19970401
H      -1.21976177      0.72142677      1.87572013
H      -0.32843811      2.27677362      1.87140534
H       0.86938359     -0.39971642      2.44488179
H       1.82362402      1.12709616      2.19531229
H       0.27205405      1.98955007      4.22402450
H      -0.31780417      0.44799867      4.26967291
H       2.27274486     -0.32451017      4.84980588
H       2.64011572      1.31842929      4.49112588
H       3.32825346      0.41938872      9.02801195
H       1.61677235      0.36504115      8.92655289
H       2.46199466      1.95920909      8.54901326
23
Frame 195  Energy = -425.8946140475 Hartree
C      -0.01244815      1.10918614      0.12411530
C      -0.27371288      1.23100755      1.62856658
C       0.85458127      0.69178678      2.52975057
C       0.60721755      0.97395000      3.99232476
C       1.84219931      0.69974052      4.91026570
C       1.63419199      1.02119956      6.36400492
O       0.78267120      1.73774470      6.75868394
O       2.60060303      0.49330820      7.09651067
C       2.49821885      0.84814688      8.51026601
H      -0.84774547      1.51146933     -0.40379379
H       0.84420013      1.66978499     -0.18852458
H       0.19767658      0.06404414     -0.20251878
H      -1.21244767      0.71494640      1.88139151
H      -0.33549733      2.27235557      1.86777572
H       0.86317366     -0.40791804      2.44947269
H       1.81927173      1.12177090      2.18615235
H       0.26173679      1.97877084      4.21597177
H      -0.32253507      0.44675724      4.27293569
H       2.27597392     -0.32360206      4.84994483
H       2.64635749      1.31029030      4.48860732
H       3.32503652      0.41994971      9.02795160
H       1.61870359      0.36701827      8.92803491
H       2.46050895      1.96688962      8.55330170
23
Frame 200  Energy = -425.8946027613 Hartree
C      -0.01199287      1.10968193      0.12519339
C      -0.27603273      1.23024464      1.62843351
C       0.85593017      0.69277002      2.53181295
C       0.60449517      0.97116699      3.99314288
C       1.84322134      0.70249205      4.91295878
C       1.63417195      1.02067130      6.36150038
O       0.78368589      1.73778114      6.75899303
O       2.60091553      0.49469661      7.09761997
C       2.49726166      0.84918167      8.50999853
H      -0.84204687      1.50810753     -0.40631694
H       0.84140410      1.66743419     -0.18650617
H       0.19649895      0.06390204     -0.20464235
H      -1.20485231      0.70931531      1.88698582
H      -0.34358307      2.26958616      1.86418321
H       0.85785250     -0.41551652      2.45337099
H       1.81392541      1.11562087      2.17749156
H       0.25238070      1.96916874      4.20693304
H      -0.32563379      0.44491902      4.27672890
H       2.27754424     -0.32167182      4.84983241
H       2.65254317      1.30263461      4.48729560
H       3.32390757      0.42048455      9.02804558
H       1.62007282      0.36985106      8.92915102
H       2.45917265      1.97196310      8.55821282
23
Frame 205  Energy = -425.8946723859 Hartree
C      -0.01151614      1.11006413      0.12640788
C      -0.27819053      1.22935804      1.62826125
C       0.85727743      0.69361965      2.53377323
C       0.60173074      0.96824992      3.99412520
C       1.84407398      0.70497097      4.91538208
C       1.63443156      1.02013797      6.35860770
O       0.78438825      1.73797502      6.75952017
O       2.60139169      0.49602904      7.09899474
C       2.49616026      0.85043368      8.50953005
H      -0.83821044      1.50463221     -0.41035430
H       0.84045343      1.66643756     -0.18423115
H       0.19462403      0.06558970     -0.20602561
H      -1.19744581      0.70447562      1.89251558
H      -0.35292041      2.26855192      1.86096351
H       0.85337329     -0.42214404      2.45636257
H       1.80769552      1.10869418      2.16911272
H       0.24388581      1.96113438      4.19710698
H      -0.32737746      0.44205812      4.28122564
H       2.27765323     -0.31881360      4.84969682
H       2.65875472      1.29567555      4.48701978
H       3.32494388      0.42070751      9.02838177
H       1.62026134      0.37338669      8.92986779
H       2.45785643      1.97408228      8.56380327
23
Frame 210  Energy = -425.8945455883 Hartree
C      -0.01097993      1.11019909      0.12771065
C      -0.28009554      1.22834155      1.62808253
C       0.85856108      0.69423598      2.53560369
C       0.59895095      0.96520768      3.99521118
C       1.84483941      0.70717169      4.91745401
C       1.63494229      1.01963298      6.35547982
O       0.78485846      1.73838657      6.76020150
O       2.60187910      0.49730863      7.10053977
C       2.49502020      0.85190037      8.50889663
H      -0.83626076      1.50105474     -0.41605775
H       0.84134889      1.66708091     -0.18188068
H       0.19201773      0.06850932     -0.20670956
H      -1.19053687      0.70037088      1.89814576
H      -0.36341454      2.26957990      1.85837171
H       0.85002959     -0.42695594      2.45859283
H       1.80107535      1.10124032      2.16120537
H       0.23650498      1.95531702      4.18663645
H      -0.32787424      0.43844846      4.28643135
H       2.27641448     -0.31508257      4.84967939
H       2.66499194      1.28931185      4.48799281
H       3.32780349      0.42097495      9.02880634
H       1.61959849      0.37797013      8.93023725
H       2.45652329      1.97312825      8.57009995
23
Frame 215  Energy = -425.8943446958 Hartree
C      -0.01040051      1.10999750      0.12909719
C      -0.28165301      1.22722023      1.62792521
C       0.85969510      0.69453437      2.53734252
C       0.59615222      0.96202182      3.99655249
C       1.84555281      0.70913360      4.91917023
C       1.63566668      1.01919587      6.35206727
O       0.78514712      1.73899659      6.76103416
O       2.60235804      0.49850459      7.10236417
C       2.49379258      0.85363339      8.50813210
H      -0.83621920      1.49775027     -0.42309980
H       0.84416941      1.66891309     -0.17951836
H       0.18847420      0.07248767     -0.20656355
H      -1.18419877      0.69694774      1.90395558
H      -0.37538598      2.27238370      1.85656285
H       0.84761985     -0.42923175      2.45981198
H       1.79416961      1.09307674      2.15389660
H       0.23016763      1.95191560      4.17547473
H      -0.32669869      0.43358427      4.29220413
H       2.27391447     -0.31047672      4.84954949
H       2.67098637      1.28370944      4.49018553
H       3.33224912      0.42126631      9.02929195
H       1.61795181      0.38343349      8.93026697
H       2.45504503      1.96959715      8.57721794
23
Frame 220  Energy = -425.8940421519 Hartree
C      -0.00991033      1.10948510      0.13056737
C      -0.28298754      1.22602938      1.62779207
C       0.86062005      0.69446602      2.53894833
C       0.59333847      0.95876967      3.99818000
C       1.84620807      0.71084698      4.92049210
C       1.63664528      1.01892403      6.34844462
O       0.78534240      1.73975499      6.76199682
O       2.60281140      0.49959985      7.10441245
C       2.49243560      0.85549345      8.50735416
H      -0.83785035      1.49468844     -0.43144958
H       0.84903325      1.67221896     -0.17713377
H       0.18431923      0.07755674     -0.20558589
H      -1.17878629      0.69390063      1.90974116
H      -0.38863037      2.27660821      1.85538916
H       0.84636338     -0.42919371      2.46038390
H       1.78766126      1.08494560      2.14718800
H       0.22438912      1.95111727      4.16377216
H      -0.32371722      0.42721333      4.29843379
H       2.27011834     -0.30515313      4.84910873
H       2.67673780      1.27918246      4.49348445
H       3.33762318      0.42182217      9.02916356
H       1.61545580      0.38932545      8.93032991
H       2.45351782      1.96383596      8.58503196
23
Frame 225  Energy = -425.8939207717 Hartree
C      -0.00940645      1.10874692      0.13213465
C      -0.28408904      1.22476969      1.62774184
C       0.86129634      0.69413166      2.54048304
C       0.59065089      0.95543370      4.00006627
C       1.84673545      0.71237801      4.92139349
C       1.63781812      1.01881246      6.34463340
O       0.78548810      1.74056117      6.76315072
O       2.60334157      0.50068216      7.10664758
C       2.49100556      0.85736289      8.50651273
H      -0.84084656      1.49200886     -0.44079341
H       0.85574949      1.67640287     -0.17456942
H       0.17966986      0.08316214     -0.20398111
H      -1.17471402      0.69137941      1.91570837
H      -0.40259424      2.28139083      1.85481690
H       0.84598064     -0.42708946      2.46006010
H       1.78203514      1.07694591      2.14093445
H       0.21927437      1.95260563      4.15199502
H      -0.31886689      0.41922364      4.30484851
H       2.26490797     -0.29935552      4.84851784
H       2.68227315      1.27568833      4.49781370
H       3.34417892      0.42311820      9.02887486
H       1.61212911      0.39540688      8.93031393
H       2.45223079      1.95604294      8.59349487
23
Frame 230  Energy = -425.8939448783 Hartree
C      -0.00883096      1.10792957      0.13371265
C      -0.28499475      1.22365460      1.62774341
C       0.86164051      0.69354767      2.54186690
C       0.58796155      0.95212263      4.00214189
C       1.84715825      0.71376352      4.92184102
C       1.63917918      1.01881565      6.34072082
O       0.78548632      1.74141729      6.76445073
O       2.60390764      0.50170890      7.10899663
C       2.48965941      0.85916155      8.50559449
H      -0.84467490      1.48980949     -0.45031462
H       0.86320120      1.68158507     -0.17182962
H       0.17467382      0.08901424     -0.20226187
H      -1.17215808      0.68910110      1.92167031
H      -0.41740539      2.28600936      1.85441679
H       0.84661158     -0.42307960      2.45899424
H       1.77798498      1.06923034      2.13571738
H       0.21522416      1.95631810      4.14040210
H      -0.31263016      0.40982741      4.31169497
H       2.25893352     -0.29368839      4.84752689
H       2.68728840      1.27302221      4.50327384
H       3.35134044      0.42531580      9.02773280
H       1.60797813      0.40198802      8.93022090
H       2.45115853      1.94668239      8.60263758
23
Frame 235  Energy = -425.8940305957 Hartree
C      -0.00824325      1.10701433      0.13521175
C      -0.28569730      1.22257442      1.62777771
C       0.86167747      0.69261969      2.54305628
C       0.58526839      0.94885823      4.00431181
C       1.84753936      0.71500520      4.92189294
C       1.64065446      1.01899933      6.33686669
O       0.78534377      1.74234089      6.76588475
O       2.60447130      0.50265199      7.11139686
C       2.48841796      0.86087265      8.50472026
H      -0.84834589      1.48775114     -0.45960929
H       0.87064297      1.68717837     -0.16859429
H       0.16988248      0.09468035     -0.20037354
H      -1.17107428      0.68679653      1.92738126
H      -0.43267147      2.28990662      1.85407495
H       0.84830321     -0.41780127      2.45726389
H       1.77628064      1.06234408      2.13146568
H       0.21249245      1.96145269      4.12893638
H      -0.30519330      0.39922879      4.31876791
H       2.25211966     -0.28869796      4.84626872
H       2.69192082      1.27141481      4.50946309
H       3.35842904      0.42857095      9.02549176
H       1.60316179      0.40898904      8.93033325
H       2.45027151      1.93676451      8.61246570
23
Frame 240  Energy = -425.8940135895 Hartree
C      -0.00759390      1.10614453      0.13662079
C      -0.28604976      1.22147283      1.62789613
C       0.86142842      0.69137392      2.54404105
C       0.58259818      0.94556776      4.00652920
C       1.84779144      0.71608012      4.92152274
C       1.64217298      1.01936007      6.33306106
O       0.78509513      1.74326502      6.76750158
O       2.60500830      0.50353029      7.11382280
C       2.48719384      0.86258757      8.50380509
H      -0.85162155      1.48549105     -0.46824142
H       0.87756587      1.69240177     -0.16530892
H       0.16524999      0.09954165     -0.19840702
H      -1.17137989      0.68405047      1.93262730
H      -0.44822320      2.29287959      1.85419377
H       0.85091655     -0.41104905      2.45426982
H       1.77678719      1.05651503      2.12805888
H       0.21108267      1.96765342      4.11791153
H      -0.29695061      0.38709973      4.32612522
H       2.24479709     -0.28498192      4.84455821
H       2.69634238      1.27125109      4.51620156
H       3.36481298      0.43304085      9.02211416
H       1.59757886      0.41607779      8.93036474
H       2.44944460      1.92715161      8.62265625
23
Frame 245  Energy = -425.8938942705 Hartree
C      -0.00690155      1.10544580      0.13781413
C      -0.28616588      1.22038983      1.62808423
C       0.86085364      0.68996788      2.54488664
C       0.58009914      0.94241523      4.00882818
C       1.84790349      0.71695541      4.92074915
C       1.64373548      1.01987247      6.32939317
O       0.78475575      1.74413027      6.76914582
O       2.60557367      0.50434006      7.11625832
C       2.48597829      0.86412543      8.50288534
H      -0.85411968      1.48338861     -0.47564891
H       0.88347814      1.69706216     -0.16126440
H       0.16090434      0.10304326     -0.19634791
H      -1.17273622      0.68102291      1.93732224
H      -0.46353976      2.29476428      1.85438945
H       0.85451585     -0.40307310      2.45044400
H       1.77939629      1.05166839      2.12531952
H       0.21057575      1.97387958      4.10725197
H      -0.28797954      0.37373937      4.33379235
H       2.23680062     -0.28303329      4.84259402
H       2.70042707      1.27227643      4.52357963
H       3.36989826      0.43860751      9.01746318
H       1.59162579      0.42333857      8.93027233
H       2.44853381      1.91863490      8.63289366
23
Frame 250  Energy = -425.8939966236 Hartree
C      -0.00634885      1.10494933      0.13881459
C      -0.28623109      1.21935685      1.62834546
C       0.85994005      0.68848834      2.54549440
C       0.57768304      0.93954351      4.01124627
C       1.84781611      0.71777716      4.91953900
C       1.64522844      1.02052053      6.32602374
O       0.78434923      1.74504865      6.77082011
O       2.60616487      0.50507055      7.11882522
C       2.48482281      0.86535523      8.50203994
H      -0.85542395      1.48118774     -0.48147581
H       0.88852472      1.70125582     -0.15618843
H       0.15738242      0.10478112     -0.19426887
H      -1.17498916      0.67820020      1.94137934
H      -0.47833085      2.29494586      1.85442622
H       0.85917840     -0.39435841      2.44571567
H       1.78348191      1.04788275      2.12321495
H       0.21103825      1.97992565      4.09696018
H      -0.27858730      0.35902932      4.34185937
H       2.22803558     -0.28277616      4.84022614
H       2.70372084      1.27429129      4.53129774
H       3.37377377      0.44517292      9.01152782
H       1.58534305      0.43051150      8.93016900
H       2.44756522      1.91167650      8.64313272
23
Frame 255  Energy = -425.8938755838 Hartree
C      -0.00591272      1.10467986      0.13969575
C      -0.28625047      1.21837860      1.62872923
C       0.85882802      0.68687534      2.54590750
C       0.57552418      0.93701762      4.01368850
C       1.84760860      0.71856042      4.91788005
C       1.64654730      1.02141172      6.32305914
O       0.78387975      1.74594178      6.77252511
O       2.60675604      0.50582841      7.12144610
C       2.48377583      0.86622101      8.50124106
H      -0.85519700      1.47880852     -0.48580999
H       0.89245270      1.70425274     -0.15024374
H       0.15451461      0.10469620     -0.19208208
H      -1.17802829      0.67575396      1.94479786
H      -0.49262977      2.29334977      1.85443106
H       0.86446846     -0.38635659      2.43991310
H       1.78862449      1.04465190      2.12190261
H       0.21246443      1.98536482      4.08764585
H      -0.26860603      0.34354610      4.35034426
H       2.21910757     -0.28426850      4.83742053
H       2.70661539      1.27727323      4.53916428
H       3.37660087      0.45263205      9.00471380
H       1.57903915      0.43775397      8.92978629
H       2.44667194      1.90697464      8.65329846
23
Frame 260  Energy = -425.8938809663 Hartree
C      -0.00550714      1.10467350      0.14045198
C      -0.28629359      1.21741022      1.62923729
C       0.85743873      0.68512861      2.54610896
C       0.57371051      0.93476634      4.01624556
C       1.84722256      0.71936538      4.91573292
C       1.64780205      1.02251462      6.32050559
O       0.78338374      1.74679094      6.77425510
O       2.60735627      0.50663300      7.12406662
C       2.48283885      0.86681709      8.50053022
H      -0.85346950      1.47602123     -0.48863939
H       0.89493904      1.70610443     -0.14359834
H       0.15222875      0.10225744     -0.19023246
H      -1.18123831      0.67380705      1.94718070
H      -0.50654551      2.28964457      1.85414900
H       0.87035471     -0.37976673      2.43294873
H       1.79453328      1.04183722      2.12198607
H       0.21459669      1.98986334      4.07924240
H      -0.25840376      0.32735017      4.35908238
H       2.20974411     -0.28742544      4.83440487
H       2.70931029      1.28140813      4.54744117
H       3.37845442      0.46068274      8.99691309
H       1.57320210      0.44474304      8.92977224
H       2.44592863      1.90521170      8.66326452
23
Frame 265  Energy = -425.8939586672 Hartree
C      -0.00510885      1.10488785      0.14108292
C      -0.28624957      1.21647659      1.62977889
C       0.85584573      0.68336041      2.54607480
C       0.57213749      0.93273191      4.01880581
C       1.84668241      0.72011637      4.91301305
C       1.64897417      1.02394675      6.31840248
O       0.78286314      1.74753815      6.77591894
O       2.60796079      0.50739147      7.12655532
C       2.48208991      0.86720287      8.49997458
H      -0.85032531      1.47320260     -0.49005068
H       0.89579095      1.70676149     -0.13648370
H       0.15038900      0.09756490     -0.18873268
H      -1.18461955      0.67218090      1.94857466
H      -0.51948011      2.28421352      1.85373522
H       0.87695753     -0.37539126      2.42492488
H       1.80096653      1.03977996      2.12351345
H       0.21795118      1.99303387      4.07210913
H      -0.24797496      0.31107625      4.36799445
H       2.20040443     -0.29234252      4.83130077
H       2.71142766      1.28650411      4.55574485
H       3.37898883      0.46900132      8.98858402
H       1.56775720      0.45122098      8.92986197
H       2.44554233      1.90681222      8.67300565
23
Frame 270  Energy = -425.8938015932 Hartree
C      -0.00467572      1.10531993      0.14151375
C      -0.28621020      1.21558189      1.63048302
C       0.85416494      0.68164518      2.54583841
C       0.57081602      0.93102471      4.02131174
C       1.84597822      0.72079543      4.90982915
C       1.65013585      1.02570635      6.31658036
O       0.78244151      1.74814541      6.77741320
O       2.60851250      0.50810887      7.12886708
C       2.48144192      0.86730826      8.49942630
H      -0.84579387      1.47014941     -0.49016907
H       0.89484332      1.70619216     -0.12919189
H       0.14913821      0.09137579     -0.18718757
H      -1.18814622      0.67046901      1.94875438
H      -0.53172340      2.27738235      1.85359176
H       0.88415918     -0.37336384      2.41591105
H       1.80750318      1.03825823      2.12661349
H       0.22220335      1.99443238      4.06649629
H      -0.23734895      0.29475608      4.37686356
H       2.19135428     -0.29880642      4.82800232
H       2.71308599      1.29239591      4.56363891
H       3.37837458      0.47721548      8.98015094
H       1.56268217      0.45717366      8.92964467
H       2.44543450      1.91173926      8.68275999
23
Frame 275  Energy = -425.8939940078 Hartree
C      -0.00425414      1.10584185      0.14186409
C      -0.28618484      1.21484086      1.63138458
C       0.85234370      0.68006133      2.54538555
C       0.56977667      0.92967962      4.02387391
C       1.84518391      0.72144475      4.90625669
C       1.65114131      1.02771215      6.31522455
O       0.78206580      1.74863856      6.77886836
O       2.60904243      0.50879002      7.13102052
C       2.48087505      0.86713007      8.49895113
H      -0.84042820      1.46712474     -0.48884080
H       0.89228021      1.70460213     -0.12152722
H       0.14859078      0.08406467     -0.18533635
H      -1.19166855      0.66904407      1.94798288
H      -0.54316317      2.26931850      1.85321897
H       0.89163600     -0.37408159      2.40543928
H       1.81400046      1.03756323      2.13144135
H       0.22739805      1.99368901      4.06191193
H      -0.22664203      0.27888825      4.38605724
H       2.18232552     -0.30674585      4.82463225
H       2.71432292      1.29877351      4.57125752
H       3.37729864      0.48508509      8.97201691
H       1.55849891      0.46287929      8.92924068
H       2.44542220      1.91944355      8.69172176
23
Frame 280  Energy = -425.8938837667 Hartree
C      -0.00390508      1.10643607      0.14200133
C      -0.28623530      1.21417533      1.63246534
C       0.85048365      0.67854411      2.54480035
C       0.56899709      0.92873716      4.02641975
C       1.84428947      0.72194442      4.90242273
C       1.65201514      1.02994670      6.31447063
O       0.78170284      1.74908761      6.78027898
O       2.60951888      0.50954025      7.13305646
C       2.48025290      0.86680494      8.49862369
H      -0.83375352      1.46433004     -0.48620062
H       0.88864213      1.70216930     -0.11369567
H       0.14893102      0.07620565     -0.18301693
H      -1.19475687      0.66790004      1.94604092
H      -0.55362617      2.26018495      1.85287851
H       0.89958459     -0.37723147      2.39391531
H       1.81997217      1.03777968      2.13798350
H       0.23295042      1.99077779      4.05856368
H      -0.21560561      0.26357800      4.39495115
H       2.17330338     -0.31504174      4.82141054
H       2.71454504      1.30537482      4.57858545
H       3.37613361      0.49253140      8.96422856
H       1.55507161      0.46824903      8.92873194
H       2.44559123      1.92891631      8.69967418
23
Frame 285  Energy = -425.8937465145 Hartree
C      -0.00357067      1.10708065      0.14199514
C      -0.28640888      1.21344311      1.63367649
C       0.84854817      0.67702841      2.54407589
C       0.56844906      0.92805558      4.02886212
C       1.84331280      0.72223986      4.89832948
C       1.65272393      1.03243410      6.31415382
O       0.78144423      1.74949315      6.78162735
O       2.60992881      0.51032985      7.13494041
C       2.47955446      0.86633858      8.49837048
H      -0.82644924      1.46172444     -0.48294261
H       0.88446902      1.69904059     -0.10559601
H       0.15000617      0.06831482     -0.18029721
H      -1.19755374      0.66654596      1.94296860
H      -0.56295675      2.25066322      1.85291455
H       0.90764588     -0.38246697      2.38194512
H       1.82494501      1.03864948      2.14630440
H       0.23835277      1.98587423      4.05682497
H      -0.20425705      0.24897787      4.40364876
H       2.16432066     -0.32365725      4.81815905
H       2.71396090      1.31179181      4.58541565
H       3.37549166      0.49922897      8.95736578
H       1.55233242      0.47326219      8.92805220
H       2.44579455      1.93929173      8.70655938
23
Frame 290  Energy = -425.8936709784 Hartree
C      -0.00322064      1.10757394      0.14192255
C      -0.28681304      1.21261770      1.63508488
C       0.84653799      0.67557459      2.54321724
C       0.56817873      0.92753435      4.03115571
C       1.84232967      0.72229761      4.89399638
C       1.65324557      1.03510366      6.31436010
O       0.78129003      1.74983984      6.78282808
O       2.61031123      0.51120131      7.13666271
C       2.47882589      0.86596429      8.49821456
H      -0.81906480      1.45958657     -0.47929020
H       0.87974260      1.69551173     -0.09754458
H       0.15166249      0.06071088     -0.17728147
H      -1.19948595      0.66502411      1.93877348
H      -0.57123006      2.24130051      1.85305210
H       0.91564498     -0.38932382      2.36975455
H       1.82873666      1.04010699      2.15633305
H       0.24395719      1.97947918      4.05671672
H      -0.19275466      0.23527830      4.41209861
H       2.15546653     -0.33188060      4.81505279
H       2.71261682      1.31819366      4.59180529
H       3.37529279      0.50473321      8.95173377
H       1.55062210      0.47809101      8.92712207
H       2.44603972      1.94982302      8.71193661
23
Frame 295  Energy = -425.8934739202 Hartree
C      -0.00285912      1.10779299      0.14183980
C      -0.28729706      1.21169599      1.63663174
C       0.84448675      0.67414648      2.54220837
C       0.56815647      0.92706864      4.03342352
C       1.84141778      0.72222385      4.88943660
C       1.65354583      1.03794556      6.31510409
O       0.78122122      1.75001790      6.78393699
O       2.61057009      0.51209188      7.13821442
C       2.47798110      0.86579819      8.49818279
H      -0.81210109      1.45811515     -0.47512374
H       0.87491586      1.69198268     -0.08961033
H       0.15377881      0.05393842     -0.17348184
H      -1.20069024      0.66334085      1.93328508
H      -0.57847427      2.23244078      1.85350812
H       0.92324680     -0.39725474      2.35769210
H       1.83094129      1.04237384      2.16813973
H       0.24926844      1.97176074      4.05807285
H      -0.18130292      0.22267857      4.41985102
H       2.14679693     -0.33905512      4.81189521
H       2.71081044      1.32473595      4.59761223
H       3.37593253      0.50885779      8.94716268
H       1.54969304      0.48224602      8.92595328
H       2.44632141      1.95972734      8.71566158
23
Frame 300  Energy = -425.8933356584 Hartree
C      -0.00241174      1.10774063      0.14179251
C      -0.28794220      1.21079890      1.63826676
C       0.84252167      0.67272699      2.54108731
C       0.56840360      0.92660836      4.03557099
C       1.84050384      0.72192646      4.88482869
C       1.65368899      1.04102140      6.31630994
O       0.78120630      1.75000301      6.78504513
O       2.61075240      0.51303127      7.13957700
C       2.47702527      0.86592386      8.49834720
H      -0.80597226      1.45744380     -0.47072482
H       0.87038187      1.68855012     -0.08189972
H       0.15617121      0.04904251     -0.16916711
H      -1.20104465      0.66136338      1.92672351
H      -0.58486700      2.22432307      1.85452935
H       0.93016807     -0.40539335      2.34566683
H       1.83136134      1.04519501      2.18138722
H       0.25414321      1.96289155      4.06098680
H      -0.16981207      0.21137711      4.42680206
H       2.13850680     -0.34526160      4.80856051
H       2.70820946      1.33143620      4.60276715
H       3.37719832      0.51156773      8.94382757
H       1.54976876      0.48529282      8.92457391
H       2.44681741      1.96827157      8.71738203
